# vtk DataFile Version 3.0
vtk output
ASCII
DATASET UNSTRUCTURED_GRID
POINTS 8576 float
0.114043	0.0943971	0.1	
0.0858783	0.0607949	0.1	
0.0741079	0.088115	0.1	
0.0632975	0.0980676	0	
0.204676	0.0233192	0.1	
0.153315	0.00689278	0.1	
0.160735	0.0621263	0.1	
0.132963	0.044259	0	
-0.0269211	0.0671862	0.1	
0.00442099	0.0829354	0.1	
0	0.045	0.1	
0.0186333	0.101613	0.0479424	
-0.075941	0.18593	0.1	
-0.0880857	0.11829	0	
-0.0278782	0.153479	0.1	
-0.0791922	0.124893	0.1	
-0.0880857	0.11829	0	
-0.0254114	0.106009	0.1	
-0.0278782	0.153479	0.1	
-0.0791922	0.124893	0.1	
0.0741079	0.088115	0.1	
0.0632975	0.0980676	0	
0.0858783	0.0607949	0.1	
0.0396544	0.04868	0.0438187	
0.194544	-0.0323862	0.1	
0.136366	-0.0453365	0.1	
0.153315	0.00689278	0.1	
0.201967	-0.00950962	0	
0.114043	0.0943971	0.1	
0.160735	0.0621263	0.1	
0.114815	0.0394603	0.1	
0.0969794	0.021072	0.0441191	
-0.0269211	0.0671862	0.1	
0	0.045	0.1	
-0.0318198	0.0318198	0.1	
-0.0436673	0.0180876	0.0496986	
0.104819	-0.00331638	0.1	
0.136366	-0.0453365	0.1	
0.0986719	-0.0360043	0.1	
0.0969794	0.021072	0.0441191	
0.0207402	-0.174187	0.1	
-0.0142517	-0.205249	0.1	
-0.0203113	-0.154489	0.1	
0.0279075	-0.16395	0	
0.114043	0.0943971	0.1	
0.0741079	0.088115	0.1	
0.0691478	0.134694	0.1	
0.0632975	0.0980676	0	
-0.0607822	-0.132192	0.1	
-0.109965	-0.155382	0.1	
-0.0529805	-0.19738	0	
-0.0566812	-0.183891	0.1	
-0.0269211	0.0671862	0.1	
-0.0182151	0.0644617	0	
0	0.045	0.1	
-0.0436673	0.0180876	0.0496986	
0.194544	-0.0323862	0.1	
0.183564	-0.0903245	0.1	
0.136366	-0.0453365	0.1	
0.190166	-0.0983881	0	
-0.0607822	-0.132192	0.1	
-0.0529805	-0.19738	0	
-0.0203113	-0.154489	0.1	
-0.0566812	-0.183891	0.1	
0.0986719	-0.0360043	0.1	
0.136366	-0.0453365	0.1	
0.0868431	-0.0680824	0.1	
0.12107	-0.0431928	0	
-0.12308	-0.143942	0	
-0.108753	-0.0943056	0.1	
-0.109965	-0.155382	0.1	
-0.0607822	-0.132192	0.1	
-0.203899	-0.0323666	0.1	
-0.181323	-0.0027565	0	
-0.253293	0.00301969	0.1	
-0.19804	0.0242816	0.1	
-0.0278782	0.153479	0.1	
-0.0758641	0.204419	0	
-0.075941	0.18593	0.1	
-0.0232097	0.208019	0.1	
-0.140177	0.0445127	0.1	
-0.13855	0.104902	0.1	
-0.0949426	0.0752698	0.1	
-0.0733988	0.0716859	0.0422482	
-0.108753	-0.0943056	0.1	
-0.0607822	-0.132192	0.1	
-0.12308	-0.143942	0	
-0.0647576	-0.0686517	0.0541732	
-0.0254114	0.106009	0.1	
-0.0791922	0.124893	0.1	
-0.0880857	0.11829	0	
-0.0733988	0.0716859	0.0422482	
0.114043	0.0943971	0.1	
0.0858783	0.0607949	0.1	
0.0632975	0.0980676	0	
0.0969794	0.021072	0.0441191	
-0.247343	0.061739	0.1	
-0.242461	0.118505	0.1	
-0.296313	0.0995627	0	
-0.29431	0.0991694	0.1	
-0.242461	0.118505	0.1	
-0.191044	0.0809942	0.1	
-0.169647	0.0846842	0	
-0.1869	0.140647	0.1	
0.0783782	0.19473	0.1	
0.0236281	0.174203	0.1	
0.0312955	0.232251	0.1	
0.0750467	0.185499	0	
-0.0791922	0.124893	0.1	
-0.075941	0.18593	0.1	
-0.0880857	0.11829	0	
-0.131315	0.16418	0.1	
0.0139627	0.124614	0.1	
-0.0278782	0.153479	0.1	
0.0236281	0.174203	0.1	
0.0186333	0.101613	0.0479424	
0.130886	-0.100339	0.1	
0.136366	-0.0453365	0.1	
0.183564	-0.0903245	0.1	
0.190166	-0.0983881	0	
0.0691478	0.134694	0.1	
0.0236281	0.174203	0.1	
0.0750467	0.185499	0	
0.0186333	0.101613	0.0479424	
0.240073	-0.0744514	0.1	
0.225509	-0.136032	0.1	
0.26859	-0.0619166	0	
0.287371	-0.120299	0.1	
0.0864603	-0.112342	0.1	
0.0868431	-0.0680824	0.1	
0.130886	-0.100339	0.1	
0.062652	-0.118801	0.041886	
-0.110394	-0.216726	0.1	
-0.12308	-0.143942	0	
-0.16441	-0.183508	0.1	
-0.109965	-0.155382	0.1	
0.251733	-0.014256	0.1	
0.240073	-0.0744514	0.1	
0.194544	-0.0323862	0.1	
0.201967	-0.00950962	0	
-0.160221	-0.122206	0.1	
-0.108753	-0.0943056	0.1	
-0.12308	-0.143942	0	
-0.142279	-0.0393203	0.0487826	
-0.248332	0.050693	0	
-0.191044	0.0809942	0.1	
-0.242461	0.118505	0.1	
-0.247343	0.061739	0.1	
0.204676	0.0233192	0.1	
0.255462	0.038247	0.1	
0.251733	-0.014256	0.1	
0.201967	-0.00950962	0	
-0.0201457	0.00856081	0.1	
0	0.045	0.1	
0.00677135	0.0163475	0.1	
-0.0436673	0.0180876	0.0496986	
-0.0269211	0.0671862	0.1	
0	0.045	0.1	
-0.0182151	0.0644617	0	
0.0186333	0.101613	0.0479424	
-0.203899	-0.0323666	0.1	
-0.19804	0.0242816	0.1	
-0.153293	-0.011499	0.1	
-0.142279	-0.0393203	0.0487826	
-0.00311199	0.32667	0.1	
-0.0730421	0.296762	0	
-0.0135764	0.270208	0.1	
-0.0572929	0.316053	0.1	
0.114043	0.0943971	0.1	
0.0691478	0.134694	0.1	
0.124146	0.156872	0.1	
0.144601	0.131477	0	
-0.00500969	-0.0120945	0.1	
-0.0318198	-0.0318198	0.1	
-0.0201457	0.00856081	0.1	
-0.0436673	0.0180876	0.0496986	
0.12107	-0.0431928	0	
0.130886	-0.100339	0.1	
0.0868431	-0.0680824	0.1	
0.062652	-0.118801	0.041886	
-0.157075	-0.0653284	0.1	
-0.108753	-0.0943056	0.1	
-0.160221	-0.122206	0.1	
-0.142279	-0.0393203	0.0487826	
-0.155635	0.172227	0	
-0.237687	0.180874	0.1	
-0.1869	0.140647	0.1	
-0.175847	0.204716	0.1	
-0.0254114	0.106009	0.1	
-0.0583523	0.0875158	0.1	
-0.0791922	0.124893	0.1	
-0.0733988	0.0716859	0.0422482	
-0.0318198	-0.0318198	0.1	
-0.0712343	-0.0265969	0.1	
-0.045	0	0.1	
-0.088703	-0.0138649	0.0491848	
0.0691478	0.134694	0.1	
0.0236281	0.174203	0.1	
0.0783782	0.19473	0.1	
0.0750467	0.185499	0	
-0.0232097	0.208019	0.1	
-0.0278782	0.153479	0.1	
-0.00652201	0.151895	0	
0.0236281	0.174203	0.1	
0.0312955	0.232251	0.1	
0.0906227	0.254757	0.1	
0.0783782	0.19473	0.1	
0.0750467	0.185499	0	
-0.0254114	0.106009	0.1	
-0.00652201	0.151895	0	
-0.0880857	0.11829	0	
-0.0278782	0.153479	0.1	
0.124146	0.156872	0.1	
0.0691478	0.134694	0.1	
0.0783782	0.19473	0.1	
0.0750467	0.185499	0	
0.130886	-0.100339	0.1	
0.0868431	-0.0680824	0.1	
0.136366	-0.0453365	0.1	
0.12107	-0.0431928	0	
0.0986719	-0.0360043	0.1	
0.12107	-0.0431928	0	
0.0868431	-0.0680824	0.1	
0.0512771	-0.0404658	0.045086	
0.0858783	0.0607949	0.1	
0.114043	0.0943971	0.1	
0.114815	0.0394603	0.1	
0.0969794	0.021072	0.0441191	
-0.110394	-0.216726	0.1	
-0.0529805	-0.19738	0	
-0.109965	-0.155382	0.1	
-0.0566812	-0.183891	0.1	
-0.1869	0.140647	0.1	
-0.13855	0.104902	0.1	
-0.155635	0.172227	0	
-0.131315	0.16418	0.1	
-0.0880857	0.11829	0	
-0.0758641	0.204419	0	
-0.075941	0.18593	0.1	
-0.0278782	0.153479	0.1	
0.153315	0.00689278	0.1	
0.114815	0.0394603	0.1	
0.160735	0.0621263	0.1	
0.0969794	0.021072	0.0441191	
0.124146	0.156872	0.1	
0.0783782	0.19473	0.1	
0.129359	0.208003	0.1	
0.0750467	0.185499	0	
0.204676	0.0233192	0.1	
0.153315	0.00689278	0.1	
0.132963	0.044259	0	
0.201967	-0.00950962	0	
-0.104461	0.000932435	0.1	
-0.140177	0.0445127	0.1	
-0.0944203	0.0353385	0.1	
-0.088703	-0.0138649	0.0491848	
-0.0254114	0.106009	0.1	
-0.0733988	0.0716859	0.0422482	
-0.00652201	0.151895	0	
0.0186333	0.101613	0.0479424	
-0.0269211	0.0671862	0.1	
-0.0318198	0.0318198	0.1	
-0.0611924	0.0535755	0.1	
-0.0436673	0.0180876	0.0496986	
-0.0142517	-0.205249	0.1	
-0.0203113	-0.154489	0.1	
-0.0529805	-0.19738	0	
-0.0566812	-0.183891	0.1	
0.114043	0.0943971	0.1	
0.168985	0.119579	0.1	
0.160735	0.0621263	0.1	
0.144601	0.131477	0	
-0.0142517	-0.205249	0.1	
-0.0529805	-0.19738	0	
-0.0203113	-0.154489	0.1	
0.0279075	-0.16395	0	
0.240073	-0.0744514	0.1	
0.183564	-0.0903245	0.1	
0.194544	-0.0323862	0.1	
0.190166	-0.0983881	0	
-0.0880857	0.11829	0	
-0.13855	0.104902	0.1	
-0.0791922	0.124893	0.1	
-0.131315	0.16418	0.1	
-0.0278782	0.153479	0.1	
-0.0254114	0.106009	0.1	
-0.00652201	0.151895	0	
0.0186333	0.101613	0.0479424	
0.0207402	-0.174187	0.1	
0.0587245	-0.143156	0.1	
0.0725059	-0.197526	0.1	
0.062652	-0.118801	0.041886	
0.104819	-0.00331638	0.1	
0.153315	0.00689278	0.1	
0.136366	-0.0453365	0.1	
0.0969794	0.021072	0.0441191	
-0.0674604	0.249371	0.1	
-0.0135764	0.270208	0.1	
-0.0232097	0.208019	0.1	
0.00604814	0.236488	0	
0.129359	0.208003	0.1	
0.0783782	0.19473	0.1	
0.0906227	0.254757	0.1	
0.0750467	0.185499	0	
0.124146	0.156872	0.1	
0.129359	0.208003	0.1	
0.179715	0.179275	0.1	
0.154944	0.223937	0	
-0.258057	-0.0572365	0.1	
-0.256491	-0.0362829	0	
-0.203899	-0.0323666	0.1	
-0.209136	-0.0909343	0.1	
0	-0.045	0.1	
0.0401753	-0.0586342	0.1	
0.00728726	-0.0832273	0.1	
-0.0200153	-0.0483211	0.048598	
-0.0583523	0.0875158	0.1	
-0.0254114	0.106009	0.1	
-0.0269211	0.0671862	0.1	
-0.0733988	0.0716859	0.0422482	
-0.140177	0.0445127	0.1	
-0.191044	0.0809942	0.1	
-0.169647	0.0846842	0	
-0.19804	0.0242816	0.1	
0.0741079	0.088115	0.1	
0.0858783	0.0607949	0.1	
0.0550025	0.059172	0.1	
0.0396544	0.04868	0.0438187	
-0.248332	0.050693	0	
-0.191044	0.0809942	0.1	
-0.247343	0.061739	0.1	
-0.19804	0.0242816	0.1	
-0.0538392	-0.0535857	0.1	
-0.0712343	-0.0265969	0.1	
-0.0318198	-0.0318198	0.1	
-0.0647576	-0.0686517	0.0541732	
-0.0415815	-0.110392	0	
-0.0607822	-0.132192	0.1	
-0.0203113	-0.154489	0.1	
0.00260765	-0.105267	0.0427151	
-0.075941	0.18593	0.1	
-0.121547	0.224354	0.1	
-0.0758641	0.204419	0	
-0.131315	0.16418	0.1	
-0.109965	-0.155382	0.1	
-0.0529805	-0.19738	0	
-0.12308	-0.143942	0	
-0.0607822	-0.132192	0.1	
0.0279075	-0.16395	0	
0.0725059	-0.197526	0.1	
0.0207402	-0.174187	0.1	
0.0204871	-0.24099	0.1	
-0.296313	0.0995627	0	
-0.247343	0.061739	0.1	
-0.29431	0.0991694	0.1	
-0.304909	0.0444641	0.1	
0	0.045	0.1	
0.0318198	0.0318198	0.1	
0.00677135	0.0163475	0.1	
0.0396544	0.04868	0.0438187	
0.153315	0.00689278	0.1	
0.204676	0.0233192	0.1	
0.194544	-0.0323862	0.1	
0.201967	-0.00950962	0	
-0.0203113	-0.154489	0.1	
-0.0415815	-0.110392	0	
-0.0529805	-0.19738	0	
-0.0607822	-0.132192	0.1	
-0.121547	0.224354	0.1	
-0.138104	0.243902	0	
-0.116127	0.293072	0.1	
-0.0674604	0.249371	0.1	
0.12107	-0.0431928	0	
0.153315	0.00689278	0.1	
0.136366	-0.0453365	0.1	
0.201967	-0.00950962	0	
-0.0201457	0.00856081	0.1	
-0.0318198	0.0318198	0.1	
0	0.045	0.1	
-0.0436673	0.0180876	0.0496986	
-0.0659287	-0.28985	0	
-0.111587	-0.287654	0.1	
-0.0496677	-0.250381	0.1	
-0.110394	-0.216726	0.1	
0.0858783	0.0607949	0.1	
0.0396544	0.04868	0.0438187	
0.0632975	0.0980676	0	
0.0969794	0.021072	0.0441191	
-0.0269211	0.0671862	0.1	
-0.0733988	0.0716859	0.0422482	
-0.0254114	0.106009	0.1	
0.0186333	0.101613	0.0479424	
-0.0201457	0.00856081	0.1	
-0.0318198	-0.0318198	0.1	
-0.045	0	0.1	
-0.0436673	0.0180876	0.0496986	
-0.108753	-0.0943056	0.1	
-0.160221	-0.122206	0.1	
-0.12308	-0.143942	0	
-0.109965	-0.155382	0.1	
-0.0203113	-0.154489	0.1	
-0.0607822	-0.132192	0.1	
-0.0251864	-0.106886	0.1	
0.00260765	-0.105267	0.0427151	
0.230865	0.135658	0.1	
0.168985	0.119579	0.1	
0.179715	0.179275	0.1	
0.237285	0.176133	0	
0.0312955	0.232251	0.1	
0.0236281	0.174203	0.1	
-0.0232097	0.208019	0.1	
0.00604814	0.236488	0	
0.387235	0.0357483	0.1	
0.45	0	0.05	
0.374822	-0.0324999	0.1	
0.384421	-0.0378621	0	
-0.0611924	0.0535755	0.1	
-0.0606984	0.0243229	0.1	
-0.0944203	0.0353385	0.1	
-0.0733988	0.0716859	0.0422482	
-0.269145	-0.181189	0.1	
-0.265692	-0.195501	0	
-0.217835	-0.151685	0.1	
-0.225546	-0.215121	0.1	
0.154944	0.223937	0	
0.124146	0.156872	0.1	
0.129359	0.208003	0.1	
0.0750467	0.185499	0	
0.160735	0.0621263	0.1	
0.204676	0.0233192	0.1	
0.132963	0.044259	0	
0.213357	0.0766959	0	
-0.0358979	0.379949	0.1	
-0.0339688	0.375665	0	
0	0.45	0.05	
0.0381609	0.387454	0	
-0.0758641	0.204419	0	
-0.0880857	0.11829	0	
-0.075941	0.18593	0.1	
-0.131315	0.16418	0.1	
-0.0278782	0.153479	0.1	
-0.00652201	0.151895	0	
-0.0758641	0.204419	0	
-0.0232097	0.208019	0.1	
-0.256491	-0.0362829	0	
-0.203899	-0.0323666	0.1	
-0.181323	-0.0027565	0	
-0.253293	0.00301969	0.1	
-0.110394	-0.216726	0.1	
-0.0529805	-0.19738	0	
-0.12308	-0.143942	0	
-0.109965	-0.155382	0.1	
0.201967	-0.00950962	0	
0.240073	-0.0744514	0.1	
0.194544	-0.0323862	0.1	
0.190166	-0.0983881	0	
-0.242461	0.118505	0.1	
-0.300257	0.152847	0.1	
-0.296313	0.0995627	0	
-0.29431	0.0991694	0.1	
-0.16441	-0.183508	0.1	
-0.12308	-0.143942	0	
-0.160221	-0.122206	0.1	
-0.109965	-0.155382	0.1	
-0.00652201	0.151895	0	
-0.0254114	0.106009	0.1	
-0.0880857	0.11829	0	
-0.0733988	0.0716859	0.0422482	
0.110168	-0.152489	0.1	
0.0864603	-0.112342	0.1	
0.130886	-0.100339	0.1	
0.062652	-0.118801	0.041886	
0	-0.045	0.1	
-0.00500969	-0.0120945	0.1	
0.0202986	-0.00819178	0.1	
0.0060848	-2.90377e-05	0.0422367	
-0.0251864	-0.106886	0.1	
0.00260765	-0.105267	0.0427151	
-0.0607822	-0.132192	0.1	
-0.0647576	-0.0686517	0.0541732	
-0.13855	0.104902	0.1	
-0.0880857	0.11829	0	
-0.155635	0.172227	0	
-0.131315	0.16418	0.1	
-0.0737761	0.00176994	0.1	
-0.0944203	0.0353385	0.1	
-0.0606984	0.0243229	0.1	
-0.088703	-0.0138649	0.0491848	
0.153315	0.00689278	0.1	
0.12107	-0.0431928	0	
0.136366	-0.0453365	0.1	
0.0969794	0.021072	0.0441191	
-0.140177	0.0445127	0.1	
-0.169647	0.0846842	0	
-0.13855	0.104902	0.1	
-0.0733988	0.0716859	0.0422482	
0.0714224	0.0228299	0.1	
0.0662467	-0.0253248	0.1	
0.045	0	0.1	
0.0969794	0.021072	0.0441191	
0.0986719	-0.0360043	0.1	
0.0662467	-0.0253248	0.1	
0.104819	-0.00331638	0.1	
0.0969794	0.021072	0.0441191	
0.0450774	0.367889	0.1	
-0.0358979	0.379949	0.1	
0	0.45	0.05	
0.0381609	0.387454	0	
-0.0997698	0.0308567	0	
-0.0944203	0.0353385	0.1	
-0.140177	0.0445127	0.1	
-0.088703	-0.0138649	0.0491848	
-0.275518	-0.12132	0	
-0.217835	-0.151685	0.1	
-0.279108	-0.122562	0.1	
-0.269145	-0.181189	0.1	
-0.140177	0.0445127	0.1	
-0.0949426	0.0752698	0.1	
-0.0944203	0.0353385	0.1	
-0.0733988	0.0716859	0.0422482	
0.136366	-0.0453365	0.1	
0.130886	-0.100339	0.1	
0.12107	-0.0431928	0	
0.190166	-0.0983881	0	
0.136366	-0.0453365	0.1	
0.12107	-0.0431928	0	
0.0986719	-0.0360043	0.1	
0.0969794	0.021072	0.0441191	
-0.217835	-0.151685	0.1	
-0.160221	-0.122206	0.1	
-0.190622	-0.0884834	0	
-0.209136	-0.0909343	0.1	
0.240073	-0.0744514	0.1	
0.26859	-0.0619166	0	
0.225509	-0.136032	0.1	
0.190166	-0.0983881	0	
0.0691478	0.134694	0.1	
0.124146	0.156872	0.1	
0.144601	0.131477	0	
0.0750467	0.185499	0	
-0.0997698	0.0308567	0	
-0.088703	-0.0138649	0.0491848	
-0.140177	0.0445127	0.1	
-0.142279	-0.0393203	0.0487826	
0.0318198	0.0318198	0.1	
0.0202986	-0.00819178	0.1	
0.00677135	0.0163475	0.1	
0.0060848	-2.90377e-05	0.0422367	
0.45	0	0.05	
0.387235	0.0357483	0.1	
0.363227	0.0380543	0	
0.384421	-0.0378621	0	
-0.275518	-0.12132	0	
-0.265692	-0.195501	0	
-0.217835	-0.151685	0.1	
-0.269145	-0.181189	0.1	
0.110168	-0.152489	0.1	
0.0922363	-0.215793	0	
0.0725059	-0.197526	0.1	
0.062652	-0.118801	0.041886	
0.0401753	-0.0586342	0.1	
0.0488551	-0.0983509	0.1	
0.00728726	-0.0832273	0.1	
0.00260765	-0.105267	0.0427151	
0.130886	-0.100339	0.1	
0.183564	-0.0903245	0.1	
0.168154	-0.150165	0.1	
0.190166	-0.0983881	0	
0.153315	0.00689278	0.1	
0.201967	-0.00950962	0	
0.12107	-0.0431928	0	
0.0969794	0.021072	0.0441191	
-0.29431	0.0991694	0.1	
-0.355442	0.107822	0.1	
-0.296313	0.0995627	0	
-0.304909	0.0444641	0.1	
0.0236281	0.174203	0.1	
0.0691478	0.134694	0.1	
0.0139627	0.124614	0.1	
0.0186333	0.101613	0.0479424	
0.255462	0.038247	0.1	
0.204676	0.0233192	0.1	
0.213357	0.0766959	0	
0.201967	-0.00950962	0	
-0.0997698	0.0308567	0	
-0.140177	0.0445127	0.1	
-0.0944203	0.0353385	0.1	
-0.0733988	0.0716859	0.0422482	
-0.253293	0.00301969	0.1	
-0.256491	-0.0362829	0	
-0.203899	-0.0323666	0.1	
-0.258057	-0.0572365	0.1	
-0.389559	0.0336032	0	
-0.45	0	0.05	
-0.379429	-0.0366192	0	
-0.372975	0.0289182	0.1	
-0.16441	-0.183508	0.1	
-0.201609	-0.173762	0	
-0.170075	-0.251953	0.1	
-0.225546	-0.215121	0.1	
0.045	0	0.1	
0.0318198	-0.0318198	0.1	
0.0202986	-0.00819178	0.1	
0.0512771	-0.0404658	0.045086	
0.0142935	-0.12453	0.1	
0.0207402	-0.174187	0.1	
-0.0203113	-0.154489	0.1	
0.00260765	-0.105267	0.0427151	
0.216596	0.0778377	0.1	
0.160735	0.0621263	0.1	
0.168985	0.119579	0.1	
0.213357	0.0766959	0	
-0.12308	-0.143942	0	
-0.0607822	-0.132192	0.1	
-0.0415815	-0.110392	0	
-0.0647576	-0.0686517	0.0541732	
0.0741079	0.088115	0.1	
0.0691478	0.134694	0.1	
0.0632975	0.0980676	0	
0.0186333	0.101613	0.0479424	
0.082636	-0.254415	0.1	
0.0725059	-0.197526	0.1	
0.0922363	-0.215793	0	
0.0204871	-0.24099	0.1	
-0.169647	0.0846842	0	
-0.181323	-0.0027565	0	
-0.140177	0.0445127	0.1	
-0.19804	0.0242816	0.1	
0.204676	0.0233192	0.1	
0.160735	0.0621263	0.1	
0.216596	0.0778377	0.1	
0.213357	0.0766959	0	
-0.0135764	0.270208	0.1	
0.0447484	0.293988	0.1	
0.0312955	0.232251	0.1	
0.00604814	0.236488	0	
0.114043	0.0943971	0.1	
0.132963	0.044259	0	
0.160735	0.0621263	0.1	
0.0969794	0.021072	0.0441191	
-0.248332	0.050693	0	
-0.247343	0.061739	0.1	
-0.253293	0.00301969	0.1	
-0.19804	0.0242816	0.1	
-0.0529805	-0.19738	0	
-0.0203113	-0.154489	0.1	
0.0279075	-0.16395	0	
0.00260765	-0.105267	0.0427151	
0.144601	0.131477	0	
0.114043	0.0943971	0.1	
0.0691478	0.134694	0.1	
0.0632975	0.0980676	0	
-0.312956	-0.0762135	0.1	
-0.275518	-0.12132	0	
-0.318623	-0.0616012	0	
-0.258057	-0.0572365	0.1	
-0.131315	0.16418	0.1	
-0.121547	0.224354	0.1	
-0.155635	0.172227	0	
-0.175847	0.204716	0.1	
0.251733	-0.014256	0.1	
0.255462	0.038247	0.1	
0.281012	0.0229437	0	
0.201967	-0.00950962	0	
-0.191044	0.0809942	0.1	
-0.169647	0.0846842	0	
-0.248332	0.050693	0	
-0.242461	0.118505	0.1	
-0.203899	-0.0323666	0.1	
-0.157075	-0.0653284	0.1	
-0.209136	-0.0909343	0.1	
-0.142279	-0.0393203	0.0487826	
-0.0232097	0.208019	0.1	
-0.0758641	0.204419	0	
-0.075941	0.18593	0.1	
-0.0674604	0.249371	0.1	
0.153315	0.00689278	0.1	
0.160735	0.0621263	0.1	
0.132963	0.044259	0	
0.0969794	0.021072	0.0441191	
0.204676	0.0233192	0.1	
0.251733	-0.014256	0.1	
0.194544	-0.0323862	0.1	
0.201967	-0.00950962	0	
0.211584	-0.20097	0.1	
0.268615	-0.174062	0.1	
0.287124	-0.235637	0.1	
0.216652	-0.249073	0	
-0.0182151	0.0644617	0	
0.0396544	0.04868	0.0438187	
0	0.045	0.1	
-0.0436673	0.0180876	0.0496986	
0.183564	-0.0903245	0.1	
0.240073	-0.0744514	0.1	
0.225509	-0.136032	0.1	
0.190166	-0.0983881	0	
0.045	0	0.1	
0.0318198	0.0318198	0.1	
0.0714224	0.0228299	0.1	
0.0396544	0.04868	0.0438187	
0.00604814	0.236488	0	
0.0312955	0.232251	0.1	
0.0236281	0.174203	0.1	
0.0750467	0.185499	0	
-0.237687	0.180874	0.1	
-0.155635	0.172227	0	
-0.207714	0.236511	0	
-0.175847	0.204716	0.1	
-0.0339688	0.375665	0	
-0.0730421	0.296762	0	
-0.00311199	0.32667	0.1	
-0.0572929	0.316053	0.1	
-0.0254114	0.106009	0.1	
0.00442099	0.0829354	0.1	
-0.0269211	0.0671862	0.1	
0.0186333	0.101613	0.0479424	
-0.0529805	-0.19738	0	
-0.0415815	-0.110392	0	
-0.0203113	-0.154489	0.1	
0.00260765	-0.105267	0.0427151	
0.160735	0.0621263	0.1	
0.114043	0.0943971	0.1	
0.144601	0.131477	0	
0.132963	0.044259	0	
-0.0949426	0.0752698	0.1	
-0.13855	0.104902	0.1	
-0.0791922	0.124893	0.1	
-0.0733988	0.0716859	0.0422482	
-0.169647	0.0846842	0	
-0.191044	0.0809942	0.1	
-0.13855	0.104902	0.1	
-0.1869	0.140647	0.1	
-0.275518	-0.12132	0	
-0.279108	-0.122562	0.1	
-0.217835	-0.151685	0.1	
-0.209136	-0.0909343	0.1	
-0.312659	-0.0214623	0.1	
-0.312956	-0.0762135	0.1	
-0.318623	-0.0616012	0	
-0.258057	-0.0572365	0.1	
0.132963	0.044259	0	
0.201967	-0.00950962	0	
0.153315	0.00689278	0.1	
0.0969794	0.021072	0.0441191	
-0.275518	-0.12132	0	
-0.312956	-0.0762135	0.1	
-0.279108	-0.122562	0.1	
-0.258057	-0.0572365	0.1	
-0.253293	0.00301969	0.1	
-0.181323	-0.0027565	0	
-0.248332	0.050693	0	
-0.19804	0.0242816	0.1	
-0.00652201	0.151895	0	
0.0750467	0.185499	0	
0.0236281	0.174203	0.1	
0.0186333	0.101613	0.0479424	
0.304312	0.234791	0.1	
0.294509	0.157311	0.1	
0.238182	0.208514	0.1	
0.297412	0.240191	0	
0.0207402	-0.174187	0.1	
0.0279075	-0.16395	0	
-0.0203113	-0.154489	0.1	
0.00260765	-0.105267	0.0427151	
0.331486	-0.177371	0.1	
0.339399	-0.183579	0	
0.287124	-0.235637	0.1	
0.268615	-0.174062	0.1	
0.12107	-0.0431928	0	
0.0868431	-0.0680824	0.1	
0.0512771	-0.0404658	0.045086	
0.062652	-0.118801	0.041886	
-0.279108	-0.122562	0.1	
-0.275518	-0.12132	0	
-0.258057	-0.0572365	0.1	
-0.209136	-0.0909343	0.1	
-0.0572929	0.316053	0.1	
-0.0339688	0.375665	0	
-0.108028	0.370407	0	
-0.10824	0.362258	0.1	
0.0405437	0.0931998	0.1	
0.0741079	0.088115	0.1	
0.0550025	0.059172	0.1	
0.0396544	0.04868	0.0438187	
0.110168	-0.152489	0.1	
0.130886	-0.100339	0.1	
0.168154	-0.150165	0.1	
0.108307	-0.130924	0	
0.045	0	0.1	
0.0202986	-0.00819178	0.1	
0.0318198	0.0318198	0.1	
0.0060848	-2.90377e-05	0.0422367	
0.044217	-0.387842	0.1	
0	-0.45	0.05	
-0.0276628	-0.367444	0.1	
0.0404591	-0.377182	0	
-0.0135764	0.270208	0.1	
-0.0730421	0.296762	0	
-0.00311199	0.32667	0.1	
0.0210919	0.316201	0	
-0.175847	0.204716	0.1	
-0.121547	0.224354	0.1	
-0.138104	0.243902	0	
-0.161049	0.262379	0.1	
-0.00311199	0.32667	0.1	
-0.0358979	0.379949	0.1	
-0.0339688	0.375665	0	
-0.0572929	0.316053	0.1	
0.0236281	0.174203	0.1	
-0.00652201	0.151895	0	
-0.0232097	0.208019	0.1	
0.00604814	0.236488	0	
0.0318198	-0.0318198	0.1	
0.0401753	-0.0586342	0.1	
0	-0.045	0.1	
0.0512771	-0.0404658	0.045086	
-0.217835	-0.151685	0.1	
-0.190622	-0.0884834	0	
-0.275518	-0.12132	0	
-0.209136	-0.0909343	0.1	
0.268615	-0.174062	0.1	
0.339399	-0.183579	0	
0.287124	-0.235637	0.1	
0.29265	-0.244884	0	
-0.0619298	-0.0870419	0.1	
-0.0251864	-0.106886	0.1	
-0.0607822	-0.132192	0.1	
-0.0647576	-0.0686517	0.0541732	
0.0858783	0.0607949	0.1	
0.0714224	0.0228299	0.1	
0.0550025	0.059172	0.1	
0.0396544	0.04868	0.0438187	
0.174426	-0.185564	0	
0.138545	-0.218367	0.1	
0.110168	-0.152489	0.1	
0.0922363	-0.215793	0	
-0.0758641	0.204419	0	
-0.0880857	0.11829	0	
-0.00652201	0.151895	0	
-0.0278782	0.153479	0.1	
0.255462	0.038247	0.1	
0.204676	0.0233192	0.1	
0.216596	0.0778377	0.1	
0.213357	0.0766959	0	
-0.190622	-0.0884834	0	
-0.160221	-0.122206	0.1	
-0.12308	-0.143942	0	
-0.142279	-0.0393203	0.0487826	
-0.169647	0.0846842	0	
-0.244028	0.149971	0	
-0.242461	0.118505	0.1	
-0.1869	0.140647	0.1	
-0.0572929	0.316053	0.1	
-0.0358979	0.379949	0.1	
-0.0339688	0.375665	0	
-0.10824	0.362258	0.1	
0.0725059	-0.197526	0.1	
0.110168	-0.152489	0.1	
0.138545	-0.218367	0.1	
0.0922363	-0.215793	0	
-0.0318198	-0.0318198	0.1	
-0.045	0	0.1	
-0.0436673	0.0180876	0.0496986	
-0.088703	-0.0138649	0.0491848	
-0.298599	-0.245054	0	
-0.265692	-0.195501	0	
-0.29175	-0.237189	0.1	
-0.225546	-0.215121	0.1	
-0.0496677	-0.250381	0.1	
-0.0529805	-0.19738	0	
-0.110394	-0.216726	0.1	
-0.0566812	-0.183891	0.1	
-0.217835	-0.151685	0.1	
-0.201609	-0.173762	0	
-0.160221	-0.122206	0.1	
-0.16441	-0.183508	0.1	
0.230865	0.135658	0.1	
0.287454	0.0808414	0.1	
0.216596	0.0778377	0.1	
0.213357	0.0766959	0	
-0.256491	-0.0362829	0	
-0.190622	-0.0884834	0	
-0.203899	-0.0323666	0.1	
-0.209136	-0.0909343	0.1	
-0.13855	0.104902	0.1	
-0.155635	0.172227	0	
-0.169647	0.0846842	0	
-0.1869	0.140647	0.1	
-0.356724	-0.11546	0.1	
-0.312956	-0.0762135	0.1	
-0.279108	-0.122562	0.1	
-0.275518	-0.12132	0	
0.0741079	0.088115	0.1	
0.0405437	0.0931998	0.1	
0.0691478	0.134694	0.1	
0.0186333	0.101613	0.0479424	
-0.296313	0.0995627	0	
-0.248332	0.050693	0	
-0.242461	0.118505	0.1	
-0.247343	0.061739	0.1	
-0.0674604	0.249371	0.1	
-0.0232097	0.208019	0.1	
-0.0758641	0.204419	0	
0.00604814	0.236488	0	
0.110168	-0.152489	0.1	
0.168154	-0.150165	0.1	
0.138545	-0.218367	0.1	
0.174426	-0.185564	0	
-0.0496677	-0.250381	0.1	
-0.0529805	-0.19738	0	
-0.0142517	-0.205249	0.1	
0.0148093	-0.246449	0	
0.0906227	0.254757	0.1	
0.0312955	0.232251	0.1	
0.0872949	0.269115	0	
0.0750467	0.185499	0	
-0.13855	0.104902	0.1	
-0.191044	0.0809942	0.1	
-0.169647	0.0846842	0	
-0.140177	0.0445127	0.1	
-0.111446	-0.0565624	0	
-0.108753	-0.0943056	0.1	
-0.12308	-0.143942	0	
-0.0647576	-0.0686517	0.0541732	
0	0.045	0.1	
0.0060848	-2.90377e-05	0.0422367	
0.00677135	0.0163475	0.1	
-0.0436673	0.0180876	0.0496986	
0.216596	0.0778377	0.1	
0.287454	0.0808414	0.1	
0.255462	0.038247	0.1	
0.213357	0.0766959	0	
-0.12308	-0.143942	0	
-0.108753	-0.0943056	0.1	
-0.111446	-0.0565624	0	
-0.142279	-0.0393203	0.0487826	
-0.269145	-0.181189	0.1	
-0.279108	-0.122562	0.1	
-0.327578	-0.175094	0	
-0.331484	-0.17939	0.1	
-0.00652201	0.151895	0	
0.0236281	0.174203	0.1	
-0.0278782	0.153479	0.1	
0.0186333	0.101613	0.0479424	
-0.0674604	0.249371	0.1	
-0.0135764	0.270208	0.1	
-0.0730421	0.296762	0	
-0.0572929	0.316053	0.1	
0	0.045	0.1	
0.0396544	0.04868	0.0438187	
0.0060848	-2.90377e-05	0.0422367	
-0.0436673	0.0180876	0.0496986	
-0.121547	0.224354	0.1	
-0.155635	0.172227	0	
-0.0758641	0.204419	0	
-0.131315	0.16418	0.1	
-0.0880857	0.11829	0	
-0.0791922	0.124893	0.1	
-0.13855	0.104902	0.1	
-0.0733988	0.0716859	0.0422482	
-0.0997698	0.0308567	0	
-0.140177	0.0445127	0.1	
-0.181323	-0.0027565	0	
-0.142279	-0.0393203	0.0487826	
0.190166	-0.0983881	0	
0.168154	-0.150165	0.1	
0.130886	-0.100339	0.1	
0.108307	-0.130924	0	
-0.0529805	-0.19738	0	
-0.0496677	-0.250381	0.1	
-0.0142517	-0.205249	0.1	
-0.0566812	-0.183891	0.1	
-0.131315	0.16418	0.1	
-0.155635	0.172227	0	
-0.1869	0.140647	0.1	
-0.175847	0.204716	0.1	
-0.0619298	-0.0870419	0.1	
-0.0607822	-0.132192	0.1	
-0.108753	-0.0943056	0.1	
-0.0647576	-0.0686517	0.0541732	
0.285475	0.347856	0.0500185	
0.245754	0.289669	0.1	
0.180378	0.336857	0.1	
0.18581	0.349201	0	
0.045	0	0.1	
0.0396544	0.04868	0.0438187	
0.0714224	0.0228299	0.1	
0.0969794	0.021072	0.0441191	
0.0148093	-0.246449	0	
-0.0142517	-0.205249	0.1	
-0.0496677	-0.250381	0.1	
0.0204871	-0.24099	0.1	
-0.121547	0.224354	0.1	
-0.0758641	0.204419	0	
-0.138104	0.243902	0	
-0.0674604	0.249371	0.1	
0.045	0	0.1	
0.0060848	-2.90377e-05	0.0422367	
0.0396544	0.04868	0.0438187	
0.0512771	-0.0404658	0.045086	
0.0447484	0.293988	0.1	
0.0906227	0.254757	0.1	
0.0312955	0.232251	0.1	
0.0872949	0.269115	0	
0.114043	0.0943971	0.1	
0.0632975	0.0980676	0	
0.132963	0.044259	0	
0.0969794	0.021072	0.0441191	
-0.0758641	0.204419	0	
-0.121547	0.224354	0.1	
-0.075941	0.18593	0.1	
-0.0674604	0.249371	0.1	
0.0750467	0.185499	0	
0.0632975	0.0980676	0	
0.0691478	0.134694	0.1	
0.0186333	0.101613	0.0479424	
-0.121547	0.224354	0.1	
-0.116127	0.293072	0.1	
-0.138104	0.243902	0	
-0.161049	0.262379	0.1	
0.261818	-0.161797	0	
0.26859	-0.0619166	0	
0.225509	-0.136032	0.1	
0.287371	-0.120299	0.1	
-0.00500969	-0.0120945	0.1	
-0.0318198	-0.0318198	0.1	
-0.0436673	0.0180876	0.0496986	
-0.0200153	-0.0483211	0.048598	
0.0587245	-0.143156	0.1	
0.110168	-0.152489	0.1	
0.0725059	-0.197526	0.1	
0.062652	-0.118801	0.041886	
-0.0730421	0.296762	0	
-0.0135764	0.270208	0.1	
-0.0674604	0.249371	0.1	
0.00604814	0.236488	0	
0	0.045	0.1	
0.0396544	0.04868	0.0438187	
-0.0182151	0.0644617	0	
0.0186333	0.101613	0.0479424	
-0.237687	0.180874	0.1	
-0.244028	0.149971	0	
-0.155635	0.172227	0	
-0.1869	0.140647	0.1	
0.446786	-0.053688	0.0499938	
0.357114	-0.107098	0.1	
0.384421	-0.0378621	0	
0.430623	-0.130628	0.049953	
0.225509	-0.136032	0.1	
0.211584	-0.20097	0.1	
0.168154	-0.150165	0.1	
0.174426	-0.185564	0	
0.0447484	0.293988	0.1	
-0.0135764	0.270208	0.1	
-0.00311199	0.32667	0.1	
0.0210919	0.316201	0	
0.369533	0.112832	0	
0.446786	0.053688	0.0500062	
0.387235	0.0357483	0.1	
0.363227	0.0380543	0	
-0.108028	0.370407	0	
-0.130628	0.430623	0.050047	
-0.212129	0.396865	0.0500166	
-0.10824	0.362258	0.1	
-0.248332	0.050693	0	
-0.169647	0.0846842	0	
-0.191044	0.0809942	0.1	
-0.19804	0.0242816	0.1	
-0.275518	-0.12132	0	
-0.279108	-0.122562	0.1	
-0.327578	-0.175094	0	
-0.269145	-0.181189	0.1	
0.238182	0.208514	0.1	
0.179715	0.179275	0.1	
0.173936	0.254382	0.1	
0.154944	0.223937	0	
0.213357	0.0766959	0	
0.287454	0.0808414	0.1	
0.255462	0.038247	0.1	
0.281012	0.0229437	0	
0.0986719	-0.0360043	0.1	
0.12107	-0.0431928	0	
0.0512771	-0.0404658	0.045086	
0.0969794	0.021072	0.0441191	
0.261818	-0.161797	0	
0.268615	-0.174062	0.1	
0.211584	-0.20097	0.1	
0.216652	-0.249073	0	
0.225509	-0.136032	0.1	
0.168154	-0.150165	0.1	
0.183564	-0.0903245	0.1	
0.190166	-0.0983881	0	
0.225509	-0.136032	0.1	
0.168154	-0.150165	0.1	
0.190166	-0.0983881	0	
0.174426	-0.185564	0	
0.144601	0.131477	0	
0.168985	0.119579	0.1	
0.160735	0.0621263	0.1	
0.213357	0.0766959	0	
-0.0232097	0.208019	0.1	
-0.0135764	0.270208	0.1	
0.0312955	0.232251	0.1	
0.00604814	0.236488	0	
0.168985	0.119579	0.1	
0.230865	0.135658	0.1	
0.216596	0.0778377	0.1	
0.213357	0.0766959	0	
0.0381609	0.387454	0	
-0.00311199	0.32667	0.1	
-0.0339688	0.375665	0	
0.0210919	0.316201	0	
-0.45	0	0.05	
-0.373197	-0.0467972	0.1	
-0.379429	-0.0366192	0	
-0.372975	0.0289182	0.1	
-0.190622	-0.0884834	0	
-0.181323	-0.0027565	0	
-0.203899	-0.0323666	0.1	
-0.142279	-0.0393203	0.0487826	
0.0872949	0.269115	0	
0.0312955	0.232251	0.1	
0.0447484	0.293988	0.1	
0.00604814	0.236488	0	
-0.253293	0.00301969	0.1	
-0.312659	-0.0214623	0.1	
-0.256491	-0.0362829	0	
-0.258057	-0.0572365	0.1	
-0.160221	-0.122206	0.1	
-0.190622	-0.0884834	0	
-0.201609	-0.173762	0	
-0.217835	-0.151685	0.1	
0.240073	-0.0744514	0.1	
0.251733	-0.014256	0.1	
0.26859	-0.0619166	0	
0.201967	-0.00950962	0	
0.12107	-0.0431928	0	
0.108307	-0.130924	0	
0.130886	-0.100339	0.1	
0.062652	-0.118801	0.041886	
-0.300257	0.152847	0.1	
-0.355442	0.107822	0.1	
-0.296313	0.0995627	0	
-0.29431	0.0991694	0.1	
0.155004	0.296903	0	
0.173936	0.254382	0.1	
0.0906227	0.254757	0.1	
0.154944	0.223937	0	
-0.181323	-0.0027565	0	
-0.19804	0.0242816	0.1	
-0.203899	-0.0323666	0.1	
-0.142279	-0.0393203	0.0487826	
-0.312659	-0.0214623	0.1	
-0.256491	-0.0362829	0	
-0.320541	0.0201981	0	
-0.253293	0.00301969	0.1	
0.130628	-0.430623	0.050047	
0.111895	-0.372646	0	
0.109857	-0.362973	0.1	
0.212129	-0.396865	0.0500047	
0.144601	0.131477	0	
0.179715	0.179275	0.1	
0.168985	0.119579	0.1	
0.237285	0.176133	0	
-0.0415815	-0.110392	0	
-0.12308	-0.143942	0	
-0.0529805	-0.19738	0	
-0.0607822	-0.132192	0.1	
0	-0.45	0.05	
-0.0383965	-0.372403	0	
-0.0276628	-0.367444	0.1	
0.0404591	-0.377182	0	
-0.0659287	-0.28985	0	
-0.133674	-0.228308	0	
-0.111587	-0.287654	0.1	
-0.110394	-0.216726	0.1	
-0.318623	-0.0616012	0	
-0.275518	-0.12132	0	
-0.312956	-0.0762135	0.1	
-0.365881	-0.111705	0	
-0.12308	-0.143942	0	
-0.133674	-0.228308	0	
-0.110394	-0.216726	0.1	
-0.16441	-0.183508	0.1	
-0.237687	0.180874	0.1	
-0.287124	0.235637	0	
-0.300257	0.152847	0.1	
-0.292926	0.235471	0.1	
-0.0182151	0.0644617	0	
-0.0436673	0.0180876	0.0496986	
-0.0269211	0.0671862	0.1	
-0.0733988	0.0716859	0.0422482	
0.0922363	-0.215793	0	
0.138545	-0.218367	0.1	
0.082636	-0.254415	0.1	
0.147007	-0.259035	0	
0	0.045	0.1	
0.00677135	0.0163475	0.1	
0.0060848	-2.90377e-05	0.0422367	
0.0396544	0.04868	0.0438187	
-0.0269211	0.0671862	0.1	
-0.0611924	0.0535755	0.1	
-0.0583523	0.0875158	0.1	
-0.0733988	0.0716859	0.0422482	
0.0148093	-0.246449	0	
0.082636	-0.254415	0.1	
0.0204871	-0.24099	0.1	
0.0511003	-0.317442	0.1	
0.0986719	-0.0360043	0.1	
0.0512771	-0.0404658	0.045086	
0.0662467	-0.0253248	0.1	
0.0969794	0.021072	0.0441191	
0.384421	-0.0378621	0	
0.374822	-0.0324999	0.1	
0.357114	-0.107098	0.1	
0.446786	-0.053688	0.0499938	
-0.212129	0.396865	0.0500166	
-0.285477	0.347855	0.049986	
-0.248262	0.29482	0	
-0.251772	0.306785	0.1	
0.168985	0.119579	0.1	
0.114043	0.0943971	0.1	
0.124146	0.156872	0.1	
0.144601	0.131477	0	
-0.160221	-0.122206	0.1	
-0.201609	-0.173762	0	
-0.12308	-0.143942	0	
-0.16441	-0.183508	0.1	
-0.248262	0.29482	0	
-0.217513	0.254621	0.1	
-0.251772	0.306785	0.1	
-0.292926	0.235471	0.1	
0.396865	-0.212129	0.0499751	
0.430623	-0.130628	0.049953	
0.339399	-0.183579	0	
0.331486	-0.177371	0.1	
0.053688	-0.446786	0.0500062	
0.111895	-0.372646	0	
0.044217	-0.387842	0.1	
0.130628	-0.430623	0.050047	
-0.0611924	0.0535755	0.1	
-0.0436673	0.0180876	0.0496986	
-0.0606984	0.0243229	0.1	
-0.0733988	0.0716859	0.0422482	
0.045	0	0.1	
0.0512771	-0.0404658	0.045086	
0.0396544	0.04868	0.0438187	
0.0969794	0.021072	0.0441191	
0.173936	0.254382	0.1	
0.129359	0.208003	0.1	
0.0906227	0.254757	0.1	
0.154944	0.223937	0	
-0.0269211	0.0671862	0.1	
-0.0436673	0.0180876	0.0496986	
-0.0611924	0.0535755	0.1	
-0.0733988	0.0716859	0.0422482	
0.111895	-0.372646	0	
0.175084	-0.3275	0	
0.109857	-0.362973	0.1	
0.212129	-0.396865	0.0500047	
-0.212128	-0.396865	0.0499723	
-0.173995	-0.331361	0.1	
-0.182092	-0.340669	0	
-0.237792	-0.287474	0.1	
-0.217513	0.254621	0.1	
-0.287124	0.235637	0	
-0.237687	0.180874	0.1	
-0.292926	0.235471	0.1	
0.446786	0.053688	0.0500062	
0.387235	0.0357483	0.1	
0.355442	0.107822	0.1	
0.369533	0.112832	0	
0.396862	0.212133	0.0500072	
0.430623	0.130628	0.050047	
0.349981	0.18562	0.1	
0.369533	0.112832	0	
0.287371	-0.120299	0.1	
0.339399	-0.183579	0	
0.348465	-0.103096	0	
0.331486	-0.177371	0.1	
-0.29175	-0.237189	0.1	
-0.298599	-0.245054	0	
-0.347846	-0.285488	0.0499977	
-0.331484	-0.17939	0.1	
-0.389559	0.0336032	0	
-0.362114	0.10176	0	
-0.446786	0.053688	0.0499938	
-0.372975	0.0289182	0.1	
0.0662467	-0.0253248	0.1	
0.0512771	-0.0404658	0.045086	
0.045	0	0.1	
0.0969794	0.021072	0.0441191	
-0.182092	-0.340669	0	
-0.285476	-0.347855	0.0499731	
-0.212128	-0.396865	0.0499723	
-0.237792	-0.287474	0.1	
-0.121547	0.224354	0.1	
-0.138104	0.243902	0	
-0.155635	0.172227	0	
-0.175847	0.204716	0.1	
0.0207402	-0.174187	0.1	
0.0725059	-0.197526	0.1	
0.0279075	-0.16395	0	
0.062652	-0.118801	0.041886	
-0.298599	-0.245054	0	
-0.347846	-0.285488	0.0499977	
-0.237792	-0.287474	0.1	
-0.29175	-0.237189	0.1	
0.044217	-0.387842	0.1	
0.0404591	-0.377182	0	
0.111895	-0.372646	0	
0.053688	-0.446786	0.0500062	
0.108307	-0.130924	0	
0.174426	-0.185564	0	
0.110168	-0.152489	0.1	
0.0922363	-0.215793	0	
0.130628	0.430623	0.049953	
0.120589	0.374273	0.1	
0.053688	0.446786	0.0499938	
0.107822	0.355442	0	
0.147007	-0.259035	0	
0.138545	-0.218367	0.1	
0.082636	-0.254415	0.1	
0.134408	-0.294741	0.1	
0.261818	-0.161797	0	
0.339399	-0.183579	0	
0.268615	-0.174062	0.1	
0.29265	-0.244884	0	
-0.138104	0.243902	0	
-0.0730421	0.296762	0	
-0.116127	0.293072	0.1	
-0.0674604	0.249371	0.1	
-0.248332	0.050693	0	
-0.247343	0.061739	0.1	
-0.304909	0.0444641	0.1	
-0.253293	0.00301969	0.1	
-0.108753	-0.0943056	0.1	
-0.0647576	-0.0686517	0.0541732	
-0.111446	-0.0565624	0	
-0.142279	-0.0393203	0.0487826	
-0.304909	0.0444641	0.1	
-0.312659	-0.0214623	0.1	
-0.320541	0.0201981	0	
-0.253293	0.00301969	0.1	
-0.275518	-0.12132	0	
-0.356724	-0.11546	0.1	
-0.312956	-0.0762135	0.1	
-0.365881	-0.111705	0	
-0.251772	0.306785	0.1	
-0.347855	0.285477	0.0500334	
-0.248262	0.29482	0	
-0.292926	0.235471	0.1	
0.045	0	0.1	
0.0060848	-2.90377e-05	0.0422367	
0.0318198	0.0318198	0.1	
0.0396544	0.04868	0.0438187	
-0.182284	0.324323	0.1	
-0.212129	0.396865	0.0500166	
-0.248262	0.29482	0	
-0.251772	0.306785	0.1	
0.110168	-0.152489	0.1	
0.168154	-0.150165	0.1	
0.174426	-0.185564	0	
0.108307	-0.130924	0	
0.0906227	0.254757	0.1	
0.117493	0.309521	0.1	
0.173936	0.254382	0.1	
0.155004	0.296903	0	
-0.0659287	-0.28985	0	
-0.0496677	-0.250381	0.1	
-0.0137107	-0.295895	0.1	
0.0148093	-0.246449	0	
0.00378559	-0.316996	0	
0.044217	-0.387842	0.1	
0.0404591	-0.377182	0	
0.0511003	-0.317442	0.1	
-0.138104	0.243902	0	
-0.207714	0.236511	0	
-0.175847	0.204716	0.1	
-0.161049	0.262379	0.1	
-0.116127	0.293072	0.1	
-0.173131	0.322508	0	
-0.138104	0.243902	0	
-0.161049	0.262379	0.1	
0.324791	-0.0252069	0	
0.26859	-0.0619166	0	
0.303447	-0.0554764	0.1	
0.251733	-0.014256	0.1	
-0.112928	-0.360216	0	
-0.130611	-0.430628	0.05	
-0.173995	-0.331361	0.1	
-0.182092	-0.340669	0	
0.245754	0.289669	0.1	
0.304312	0.234791	0.1	
0.238182	0.208514	0.1	
0.297412	0.240191	0	
-0.116127	0.293072	0.1	
-0.108028	0.370407	0	
-0.173131	0.322508	0	
-0.10824	0.362258	0.1	
0.0142935	-0.12453	0.1	
0.0587245	-0.143156	0.1	
0.0207402	-0.174187	0.1	
0.062652	-0.118801	0.041886	
-0.0201457	0.00856081	0.1	
0.00677135	0.0163475	0.1	
0.0060848	-2.90377e-05	0.0422367	
-0.0436673	0.0180876	0.0496986	
-0.190622	-0.0884834	0	
-0.203899	-0.0323666	0.1	
-0.209136	-0.0909343	0.1	
-0.142279	-0.0393203	0.0487826	
0.0142935	-0.12453	0.1	
0.062652	-0.118801	0.041886	
0.0207402	-0.174187	0.1	
0.00260765	-0.105267	0.0427151	
0.110168	-0.152489	0.1	
0.108307	-0.130924	0	
0.0922363	-0.215793	0	
0.062652	-0.118801	0.041886	
-0.285476	-0.347855	0.0499731	
-0.298599	-0.245054	0	
-0.347846	-0.285488	0.0499977	
-0.237792	-0.287474	0.1	
0.00378559	-0.316996	0	
0.044217	-0.387842	0.1	
-0.0276628	-0.367444	0.1	
0.0404591	-0.377182	0	
-0.396863	-0.212131	0.0499815	
-0.347846	-0.285488	0.0499977	
-0.298599	-0.245054	0	
-0.331484	-0.17939	0.1	
0.117493	0.309521	0.1	
0.0447484	0.293988	0.1	
0.107822	0.355442	0	
0.0872949	0.269115	0	
0.124146	0.156872	0.1	
0.179715	0.179275	0.1	
0.168985	0.119579	0.1	
0.144601	0.131477	0	
0.180378	0.336857	0.1	
0.212116	0.396871	0.049999	
0.285475	0.347856	0.0500185	
0.18581	0.349201	0	
0.339399	-0.183579	0	
0.396865	-0.212129	0.0499751	
0.331486	-0.177371	0.1	
0.347855	-0.285477	0.0499717	
-0.161049	0.262379	0.1	
-0.173131	0.322508	0	
-0.207714	0.236511	0	
-0.217513	0.254621	0.1	
-0.0880857	0.11829	0	
-0.0758641	0.204419	0	
-0.155635	0.172227	0	
-0.131315	0.16418	0.1	
0.053688	0.446786	0.0499938	
0.0450774	0.367889	0.1	
0	0.45	0.05	
0.0381609	0.387454	0	
0.111895	-0.372646	0	
0.109857	-0.362973	0.1	
0.044217	-0.387842	0.1	
0.130628	-0.430623	0.050047	
0.0906227	0.254757	0.1	
0.0872949	0.269115	0	
0.155004	0.296903	0	
0.154944	0.223937	0	
-0.161049	0.262379	0.1	
-0.207714	0.236511	0	
-0.175847	0.204716	0.1	
-0.217513	0.254621	0.1	
0.0488551	-0.0983509	0.1	
0.0401753	-0.0586342	0.1	
0.0868431	-0.0680824	0.1	
0.0512771	-0.0404658	0.045086	
0.303447	-0.0554764	0.1	
0.314556	0.0156287	0.1	
0.324791	-0.0252069	0	
0.251733	-0.014256	0.1	
0.144601	0.131477	0	
0.124146	0.156872	0.1	
0.179715	0.179275	0.1	
0.154944	0.223937	0	
-0.0383965	-0.372403	0	
-0.112928	-0.360216	0	
-0.0536856	-0.446786	0.05	
-0.104718	-0.361527	0.1	
-0.217513	0.254621	0.1	
-0.182284	0.324323	0.1	
-0.248262	0.29482	0	
-0.251772	0.306785	0.1	
0.0401753	-0.0586342	0.1	
0.0512771	-0.0404658	0.045086	
0.0488551	-0.0983509	0.1	
0.00260765	-0.105267	0.0427151	
0.0750467	0.185499	0	
0.144601	0.131477	0	
0.0691478	0.134694	0.1	
0.0632975	0.0980676	0	
0.187286	-0.334755	0.1	
0.109857	-0.362973	0.1	
0.175084	-0.3275	0	
0.212129	-0.396865	0.0500047	
-0.080591	-0.0588792	0.1	
-0.108753	-0.0943056	0.1	
-0.112529	-0.0425202	0.1	
-0.0647576	-0.0686517	0.0541732	
-0.207714	0.236511	0	
-0.237687	0.180874	0.1	
-0.175847	0.204716	0.1	
-0.217513	0.254621	0.1	
-0.0730421	0.296762	0	
-0.116127	0.293072	0.1	
-0.0572929	0.316053	0.1	
-0.10824	0.362258	0.1	
-0.256491	-0.0362829	0	
-0.312659	-0.0214623	0.1	
-0.318623	-0.0616012	0	
-0.258057	-0.0572365	0.1	
-0.237687	0.180874	0.1	
-0.287124	0.235637	0	
-0.244028	0.149971	0	
-0.300257	0.152847	0.1	
-0.161049	0.262379	0.1	
-0.182284	0.324323	0.1	
-0.173131	0.322508	0	
-0.217513	0.254621	0.1	
-0.0269211	0.0671862	0.1	
-0.0182151	0.0644617	0	
-0.0733988	0.0716859	0.0422482	
0.0186333	0.101613	0.0479424	
0.111895	-0.372646	0	
0.109857	-0.362973	0.1	
0.175084	-0.3275	0	
0.134408	-0.294741	0.1	
-0.181323	-0.0027565	0	
-0.190622	-0.0884834	0	
-0.203899	-0.0323666	0.1	
-0.256491	-0.0362829	0	
-0.327578	-0.175094	0	
-0.356724	-0.11546	0.1	
-0.279108	-0.122562	0.1	
-0.275518	-0.12132	0	
0.329177	0.174808	0	
0.396862	0.212133	0.0500072	
0.349981	0.18562	0.1	
0.369533	0.112832	0	
0.0148093	-0.246449	0	
0.082636	-0.254415	0.1	
0.0922363	-0.215793	0	
0.0204871	-0.24099	0.1	
-0.327578	-0.175094	0	
-0.396863	-0.212131	0.0499815	
-0.298599	-0.245054	0	
-0.331484	-0.17939	0.1	
-0.279108	-0.122562	0.1	
-0.356724	-0.11546	0.1	
-0.327578	-0.175094	0	
-0.331484	-0.17939	0.1	
-0.237687	0.180874	0.1	
-0.207714	0.236511	0	
-0.287124	0.235637	0	
-0.217513	0.254621	0.1	
0.0210919	0.316201	0	
0.107822	0.355442	0	
0.0447484	0.293988	0.1	
0.0872949	0.269115	0	
0.297412	0.240191	0	
0.304312	0.234791	0.1	
0.294509	0.157311	0.1	
0.329177	0.174808	0	
0.204676	0.0233192	0.1	
0.132963	0.044259	0	
0.213357	0.0766959	0	
0.201967	-0.00950962	0	
-0.256491	-0.0362829	0	
-0.318623	-0.0616012	0	
-0.275518	-0.12132	0	
-0.258057	-0.0572365	0.1	
-0.130611	-0.430628	0.05	
-0.212128	-0.396865	0.0499723	
-0.173995	-0.331361	0.1	
-0.182092	-0.340669	0	
0.0839363	-0.30145	0	
0.109857	-0.362973	0.1	
0.111895	-0.372646	0	
0.134408	-0.294741	0.1	
-0.0997698	0.0308567	0	
-0.169647	0.0846842	0	
-0.140177	0.0445127	0.1	
-0.0733988	0.0716859	0.0422482	
0.0725059	-0.197526	0.1	
0.0922363	-0.215793	0	
0.0279075	-0.16395	0	
0.062652	-0.118801	0.041886	
0.230865	0.135658	0.1	
0.294509	0.157311	0.1	
0.287454	0.0808414	0.1	
0.296534	0.101262	0	
0.107822	0.355442	0	
0.18581	0.349201	0	
0.180378	0.336857	0.1	
0.155004	0.296903	0	
0.294509	0.157311	0.1	
0.238182	0.208514	0.1	
0.297412	0.240191	0	
0.237285	0.176133	0	
0.0404591	-0.377182	0	
0.044217	-0.387842	0.1	
0	-0.45	0.05	
0.053688	-0.446786	0.0500062	
0.147007	-0.259035	0	
0.174426	-0.185564	0	
0.138545	-0.218367	0.1	
0.216652	-0.249073	0	
-0.0712343	-0.0265969	0.1	
-0.0318198	-0.0318198	0.1	
-0.0200153	-0.0483211	0.048598	
-0.088703	-0.0138649	0.0491848	
0.120589	0.374273	0.1	
0.0450774	0.367889	0.1	
0.053688	0.446786	0.0499938	
0.107822	0.355442	0	
0.0148093	-0.246449	0	
-0.0137107	-0.295895	0.1	
0.00378559	-0.316996	0	
0.0511003	-0.317442	0.1	
-0.269145	-0.181189	0.1	
-0.29175	-0.237189	0.1	
-0.265692	-0.195501	0	
-0.225546	-0.215121	0.1	
0.190166	-0.0983881	0	
0.130886	-0.100339	0.1	
0.12107	-0.0431928	0	
0.108307	-0.130924	0	
-0.173131	0.322508	0	
-0.108028	0.370407	0	
-0.212129	0.396865	0.0500166	
-0.10824	0.362258	0.1	
-0.320541	0.0201981	0	
-0.379429	-0.0366192	0	
-0.312659	-0.0214623	0.1	
-0.372975	0.0289182	0.1	
-0.446786	-0.053688	0.0499938	
-0.45	0	0.05	
-0.373197	-0.0467972	0.1	
-0.379429	-0.0366192	0	
0.0148093	-0.246449	0	
-0.0496677	-0.250381	0.1	
-0.0137107	-0.295895	0.1	
0.0204871	-0.24099	0.1	
0.240073	-0.0744514	0.1	
0.26859	-0.0619166	0	
0.303447	-0.0554764	0.1	
0.287371	-0.120299	0.1	
0.331486	-0.177371	0.1	
0.287124	-0.235637	0.1	
0.339399	-0.183579	0	
0.347855	-0.285477	0.0499717	
0.268615	-0.174062	0.1	
0.225509	-0.136032	0.1	
0.261818	-0.161797	0	
0.211584	-0.20097	0.1	
-0.00500969	-0.0120945	0.1	
-0.0201457	0.00856081	0.1	
0.0060848	-2.90377e-05	0.0422367	
-0.0436673	0.0180876	0.0496986	
-0.201609	-0.173762	0	
-0.223685	-0.271786	0	
-0.170075	-0.251953	0.1	
-0.225546	-0.215121	0.1	
0.446786	0.053688	0.0500062	
0.45	0	0.05	
0.387235	0.0357483	0.1	
0.363227	0.0380543	0	
-0.201609	-0.173762	0	
-0.170075	-0.251953	0.1	
-0.133674	-0.228308	0	
-0.16441	-0.183508	0.1	
-0.0137107	-0.295895	0.1	
0.0148093	-0.246449	0	
0.0204871	-0.24099	0.1	
0.0511003	-0.317442	0.1	
-0.351668	0.187175	0.1	
-0.287124	0.235637	0	
-0.347855	0.285477	0.0500334	
-0.292926	0.235471	0.1	
-0.0278782	0.153479	0.1	
0.0139627	0.124614	0.1	
-0.0254114	0.106009	0.1	
0.0186333	0.101613	0.0479424	
-0.0142517	-0.205249	0.1	
-0.0529805	-0.19738	0	
0.0279075	-0.16395	0	
0.0148093	-0.246449	0	
-0.244028	0.149971	0	
-0.237687	0.180874	0.1	
-0.242461	0.118505	0.1	
-0.1869	0.140647	0.1	
-0.379429	-0.0366192	0	
-0.373197	-0.0467972	0.1	
-0.312659	-0.0214623	0.1	
-0.372975	0.0289182	0.1	
-0.29175	-0.237189	0.1	
-0.223685	-0.271786	0	
-0.298599	-0.245054	0	
-0.225546	-0.215121	0.1	
-0.0615368	-0.322264	0.1	
-0.0137107	-0.295895	0.1	
-0.0276628	-0.367444	0.1	
0.00378559	-0.316996	0	
-0.112928	-0.360216	0	
-0.130611	-0.430628	0.05	
-0.0536856	-0.446786	0.05	
-0.104718	-0.361527	0.1	
-0.0659287	-0.28985	0	
-0.0137107	-0.295895	0.1	
-0.0615368	-0.322264	0.1	
0.00378559	-0.316996	0	
0.053688	0.446786	0.0499938	
0.0450774	0.367889	0.1	
0.0381609	0.387454	0	
0.107822	0.355442	0	
0.0381609	0.387454	0	
0.0450774	0.367889	0.1	
-0.00311199	0.32667	0.1	
0.0210919	0.316201	0	
0.281012	0.0229437	0	
0.296534	0.101262	0	
0.287454	0.0808414	0.1	
0.363227	0.0380543	0	
-0.13855	0.104902	0.1	
-0.169647	0.0846842	0	
-0.0880857	0.11829	0	
-0.0733988	0.0716859	0.0422482	
0.00604814	0.236488	0	
0.0872949	0.269115	0	
0.0312955	0.232251	0.1	
0.0750467	0.185499	0	
0.212116	0.396871	0.049999	
0.180378	0.336857	0.1	
0.120589	0.374273	0.1	
0.18581	0.349201	0	
-0.0276628	-0.367444	0.1	
0.044217	-0.387842	0.1	
0.00378559	-0.316996	0	
0.0511003	-0.317442	0.1	
0.281012	0.0229437	0	
0.255462	0.038247	0.1	
0.213357	0.0766959	0	
0.201967	-0.00950962	0	
0.0725059	-0.197526	0.1	
0.138545	-0.218367	0.1	
0.082636	-0.254415	0.1	
0.0922363	-0.215793	0	
-0.351668	0.187175	0.1	
-0.430623	0.130628	0.049953	
-0.32913	0.168426	0	
-0.355442	0.107822	0.1	
0.107822	0.355442	0	
0.0447484	0.293988	0.1	
0.0450774	0.367889	0.1	
0.0210919	0.316201	0	
-0.287124	0.235637	0	
-0.347855	0.285477	0.0500334	
-0.396865	0.212129	0.0500047	
-0.351668	0.187175	0.1	
-0.0201457	0.00856081	0.1	
0.00677135	0.0163475	0.1	
-0.00500969	-0.0120945	0.1	
0.0060848	-2.90377e-05	0.0422367	
-0.372975	0.0289182	0.1	
-0.362114	0.10176	0	
-0.355442	0.107822	0.1	
-0.304909	0.0444641	0.1	
-0.320541	0.0201981	0	
-0.362114	0.10176	0	
-0.372975	0.0289182	0.1	
-0.304909	0.0444641	0.1	
0.00604814	0.236488	0	
0.0236281	0.174203	0.1	
-0.00652201	0.151895	0	
0.0750467	0.185499	0	
0.082636	-0.254415	0.1	
0.0148093	-0.246449	0	
0.0839363	-0.30145	0	
0.0511003	-0.317442	0.1	
0.0450774	0.367889	0.1	
0.117493	0.309521	0.1	
0.0447484	0.293988	0.1	
0.107822	0.355442	0	
-0.0606984	0.0243229	0.1	
-0.0436673	0.0180876	0.0496986	
-0.0944203	0.0353385	0.1	
-0.0733988	0.0716859	0.0422482	
0.138545	-0.218367	0.1	
0.147007	-0.259035	0	
0.216652	-0.249073	0	
0.199452	-0.267103	0.1	
0.228237	0.281807	0	
0.238182	0.208514	0.1	
0.173936	0.254382	0.1	
0.154944	0.223937	0	
0.18581	0.349201	0	
0.180378	0.336857	0.1	
0.120589	0.374273	0.1	
0.107822	0.355442	0	
-0.320541	0.0201981	0	
-0.362114	0.10176	0	
-0.389559	0.0336032	0	
-0.372975	0.0289182	0.1	
-0.0730421	0.296762	0	
-0.0339688	0.375665	0	
-0.108028	0.370407	0	
-0.0572929	0.316053	0.1	
-0.169647	0.0846842	0	
-0.0880857	0.11829	0	
-0.155635	0.172227	0	
-0.13855	0.104902	0.1	
0.199452	-0.267103	0.1	
0.257787	-0.293807	0.1	
0.187286	-0.334755	0.1	
0.25204	-0.306462	0	
0.225509	-0.136032	0.1	
0.261818	-0.161797	0	
0.287371	-0.120299	0.1	
0.268615	-0.174062	0.1	
-0.355442	0.107822	0.1	
-0.362114	0.10176	0	
-0.296313	0.0995627	0	
-0.304909	0.0444641	0.1	
-0.265692	-0.195501	0	
-0.298599	-0.245054	0	
-0.223685	-0.271786	0	
-0.225546	-0.215121	0.1	
-0.0997698	0.0308567	0	
-0.169647	0.0846842	0	
-0.181323	-0.0027565	0	
-0.140177	0.0445127	0.1	
0.0401753	-0.0586342	0.1	
-0.0200153	-0.0483211	0.048598	
0	-0.045	0.1	
0.0512771	-0.0404658	0.045086	
0.0632975	0.0980676	0	
0.0396544	0.04868	0.0438187	
0.0741079	0.088115	0.1	
0.0186333	0.101613	0.0479424	
-0.116127	0.293072	0.1	
-0.0730421	0.296762	0	
-0.108028	0.370407	0	
-0.10824	0.362258	0.1	
-0.0944203	0.0353385	0.1	
-0.0436673	0.0180876	0.0496986	
-0.0606984	0.0243229	0.1	
-0.088703	-0.0138649	0.0491848	
0.174426	-0.185564	0	
0.211584	-0.20097	0.1	
0.138545	-0.218367	0.1	
0.216652	-0.249073	0	
-0.247343	0.061739	0.1	
-0.296313	0.0995627	0	
-0.248332	0.050693	0	
-0.304909	0.0444641	0.1	
0.212116	0.396871	0.049999	
0.120589	0.374273	0.1	
0.130628	0.430623	0.049953	
0.18581	0.349201	0	
-0.320541	0.0201981	0	
-0.296313	0.0995627	0	
-0.362114	0.10176	0	
-0.304909	0.0444641	0.1	
-0.0383965	-0.372403	0	
-0.0615368	-0.322264	0.1	
-0.112928	-0.360216	0	
-0.104718	-0.361527	0.1	
0	0.045	0.1	
0.0250698	0.0602098	0.1	
0.0318198	0.0318198	0.1	
0.0396544	0.04868	0.0438187	
0.147007	-0.259035	0	
0.082636	-0.254415	0.1	
0.0839363	-0.30145	0	
0.134408	-0.294741	0.1	
-0.327578	-0.175094	0	
-0.265692	-0.195501	0	
-0.275518	-0.12132	0	
-0.269145	-0.181189	0.1	
-0.248332	0.050693	0	
-0.256491	-0.0362829	0	
-0.181323	-0.0027565	0	
-0.253293	0.00301969	0.1	
0.285477	-0.347855	0.0499669	
0.187286	-0.334755	0.1	
0.257787	-0.293807	0.1	
0.25204	-0.306462	0	
0.0550025	0.059172	0.1	
0.0250698	0.0602098	0.1	
0.0405437	0.0931998	0.1	
0.0396544	0.04868	0.0438187	
-0.217513	0.254621	0.1	
-0.248262	0.29482	0	
-0.287124	0.235637	0	
-0.292926	0.235471	0.1	
-0.053688	0.446786	0.0500062	
-0.130628	0.430623	0.050047	
-0.108028	0.370407	0	
-0.10824	0.362258	0.1	
-0.173995	-0.331361	0.1	
-0.130611	-0.430628	0.05	
-0.112928	-0.360216	0	
-0.104718	-0.361527	0.1	
-0.248262	0.29482	0	
-0.285477	0.347855	0.049986	
-0.347855	0.285477	0.0500334	
-0.251772	0.306785	0.1	
0.109857	-0.362973	0.1	
0.0839363	-0.30145	0	
0.111895	-0.372646	0	
0.0511003	-0.317442	0.1	
0.285475	0.347856	0.0500185	
0.347853	0.285478	0.0500065	
0.245754	0.289669	0.1	
0.297412	0.240191	0	
0.0447484	0.293988	0.1	
-0.0135764	0.270208	0.1	
0.0210919	0.316201	0	
0.00604814	0.236488	0	
0.228237	0.281807	0	
0.180378	0.336857	0.1	
0.245754	0.289669	0.1	
0.18581	0.349201	0	
-0.0572929	0.316053	0.1	
-0.108028	0.370407	0	
-0.0730421	0.296762	0	
-0.10824	0.362258	0.1	
0.228237	0.281807	0	
0.173936	0.254382	0.1	
0.180378	0.336857	0.1	
0.155004	0.296903	0	
-0.355442	0.107822	0.1	
-0.446786	0.053688	0.0499938	
-0.362114	0.10176	0	
-0.372975	0.0289182	0.1	
0.0405437	0.0931998	0.1	
0.0741079	0.088115	0.1	
0.0396544	0.04868	0.0438187	
0.0186333	0.101613	0.0479424	
-0.0611924	0.0535755	0.1	
-0.0318198	0.0318198	0.1	
-0.0606984	0.0243229	0.1	
-0.0436673	0.0180876	0.0496986	
-0.0730421	0.296762	0	
-0.0339688	0.375665	0	
-0.00311199	0.32667	0.1	
0.0210919	0.316201	0	
-0.0737761	0.00176994	0.1	
-0.045	0	0.1	
-0.0712343	-0.0265969	0.1	
-0.088703	-0.0138649	0.0491848	
0.384421	-0.0378621	0	
0.45	0	0.05	
0.374822	-0.0324999	0.1	
0.446786	-0.053688	0.0499938	
0.446786	0.053688	0.0500062	
0.355442	0.107822	0.1	
0.430623	0.130628	0.050047	
0.369533	0.112832	0	
0.211584	-0.20097	0.1	
0.225509	-0.136032	0.1	
0.261818	-0.161797	0	
0.174426	-0.185564	0	
0.285477	-0.347855	0.0499669	
0.212129	-0.396865	0.0500047	
0.187286	-0.334755	0.1	
0.25204	-0.306462	0	
0.0318198	0.0318198	0.1	
0.0060848	-2.90377e-05	0.0422367	
0.00677135	0.0163475	0.1	
0.0396544	0.04868	0.0438187	
0.117493	0.309521	0.1	
0.0906227	0.254757	0.1	
0.0872949	0.269115	0	
0.155004	0.296903	0	
0.154944	0.223937	0	
0.144601	0.131477	0	
0.124146	0.156872	0.1	
0.0750467	0.185499	0	
0.347855	-0.285477	0.0499717	
0.287124	-0.235637	0.1	
0.339399	-0.183579	0	
0.29265	-0.244884	0	
-0.379429	-0.0366192	0	
-0.312659	-0.0214623	0.1	
-0.318623	-0.0616012	0	
-0.320541	0.0201981	0	
-0.217835	-0.151685	0.1	
-0.190622	-0.0884834	0	
-0.201609	-0.173762	0	
-0.275518	-0.12132	0	
-0.0944203	0.0353385	0.1	
-0.0997698	0.0308567	0	
-0.0733988	0.0716859	0.0422482	
-0.088703	-0.0138649	0.0491848	
0.26859	-0.0619166	0	
0.324791	-0.0252069	0	
0.281012	0.0229437	0	
0.251733	-0.014256	0.1	
0.0839363	-0.30145	0	
0.0922363	-0.215793	0	
0.082636	-0.254415	0.1	
0.147007	-0.259035	0	
0.216652	-0.249073	0	
0.211584	-0.20097	0.1	
0.138545	-0.218367	0.1	
0.199452	-0.267103	0.1	
0.287454	0.0808414	0.1	
0.314556	0.0156287	0.1	
0.281012	0.0229437	0	
0.363227	0.0380543	0	
-0.356724	-0.11546	0.1	
-0.396863	-0.212131	0.0499815	
-0.327578	-0.175094	0	
-0.331484	-0.17939	0.1	
0.213357	0.0766959	0	
0.230865	0.135658	0.1	
0.287454	0.0808414	0.1	
0.296534	0.101262	0	
-0.217835	-0.151685	0.1	
-0.201609	-0.173762	0	
-0.16441	-0.183508	0.1	
-0.225546	-0.215121	0.1	
-0.396865	0.212129	0.0500047	
-0.430623	0.130628	0.049953	
-0.32913	0.168426	0	
-0.351668	0.187175	0.1	
0.26859	-0.0619166	0	
0.303447	-0.0554764	0.1	
0.251733	-0.014256	0.1	
0.240073	-0.0744514	0.1	
-0.0496677	-0.250381	0.1	
-0.0137107	-0.295895	0.1	
-0.0615368	-0.322264	0.1	
-0.0659287	-0.28985	0	
-0.0276546	-0.0671169	0.1	
0.00260765	-0.105267	0.0427151	
-0.0251864	-0.106886	0.1	
-0.0647576	-0.0686517	0.0541732	
-0.0276546	-0.0671169	0.1	
0.00728726	-0.0832273	0.1	
-0.0251864	-0.106886	0.1	
0.00260765	-0.105267	0.0427151	
0.154944	0.223937	0	
0.238182	0.208514	0.1	
0.179715	0.179275	0.1	
0.237285	0.176133	0	
0.355442	0.107822	0.1	
0.349981	0.18562	0.1	
0.430623	0.130628	0.050047	
0.369533	0.112832	0	
-0.320541	0.0201981	0	
-0.248332	0.050693	0	
-0.304909	0.0444641	0.1	
-0.253293	0.00301969	0.1	
0.314556	0.0156287	0.1	
0.281012	0.0229437	0	
0.324791	-0.0252069	0	
0.251733	-0.014256	0.1	
0.201967	-0.00950962	0	
0.26859	-0.0619166	0	
0.240073	-0.0744514	0.1	
0.190166	-0.0983881	0	
-0.111587	-0.287654	0.1	
-0.173995	-0.331361	0.1	
-0.13795	-0.29702	0	
-0.104718	-0.361527	0.1	
0.287371	-0.120299	0.1	
0.348465	-0.103096	0	
0.357114	-0.107098	0.1	
0.331486	-0.177371	0.1	
-0.0496677	-0.250381	0.1	
-0.0615368	-0.322264	0.1	
-0.111587	-0.287654	0.1	
-0.0659287	-0.28985	0	
-0.0674604	0.249371	0.1	
-0.0730421	0.296762	0	
-0.116127	0.293072	0.1	
-0.0572929	0.316053	0.1	
-0.296313	0.0995627	0	
-0.244028	0.149971	0	
-0.300257	0.152847	0.1	
-0.242461	0.118505	0.1	
-0.320541	0.0201981	0	
-0.389559	0.0336032	0	
-0.379429	-0.0366192	0	
-0.372975	0.0289182	0.1	
0.111895	-0.372646	0	
0.0839363	-0.30145	0	
0.0404591	-0.377182	0	
0.0511003	-0.317442	0.1	
-0.0615368	-0.322264	0.1	
-0.0383965	-0.372403	0	
-0.0659287	-0.28985	0	
0.00378559	-0.316996	0	
-0.0383965	-0.372403	0	
-0.112928	-0.360216	0	
-0.0615368	-0.322264	0.1	
-0.0659287	-0.28985	0	
0.111895	-0.372646	0	
0.175084	-0.3275	0	
0.0839363	-0.30145	0	
0.134408	-0.294741	0.1	
0.245754	0.289669	0.1	
0.285475	0.347856	0.0500185	
0.228237	0.281807	0	
0.18581	0.349201	0	
-0.312659	-0.0214623	0.1	
-0.312956	-0.0762135	0.1	
-0.373197	-0.0467972	0.1	
-0.318623	-0.0616012	0	
0.225509	-0.136032	0.1	
0.26859	-0.0619166	0	
0.261818	-0.161797	0	
0.190166	-0.0983881	0	
-0.446786	0.053688	0.0499938	
-0.45	0	0.05	
-0.389559	0.0336032	0	
-0.372975	0.0289182	0.1	
-0.133674	-0.228308	0	
-0.0529805	-0.19738	0	
-0.12308	-0.143942	0	
-0.110394	-0.216726	0.1	
-0.32913	0.168426	0	
-0.287124	0.235637	0	
-0.396865	0.212129	0.0500047	
-0.351668	0.187175	0.1	
0.304312	0.234791	0.1	
0.396862	0.212133	0.0500072	
0.349981	0.18562	0.1	
0.329177	0.174808	0	
0.363227	0.0380543	0	
0.387235	0.0357483	0.1	
0.374822	-0.0324999	0.1	
0.384421	-0.0378621	0	
0.304312	0.234791	0.1	
0.245754	0.289669	0.1	
0.347853	0.285478	0.0500065	
0.297412	0.240191	0	
-0.053688	0.446786	0.0500062	
-0.0339688	0.375665	0	
0	0.45	0.05	
-0.0358979	0.379949	0.1	
-0.201609	-0.173762	0	
-0.217835	-0.151685	0.1	
-0.265692	-0.195501	0	
-0.225546	-0.215121	0.1	
-0.182284	0.324323	0.1	
-0.248262	0.29482	0	
-0.173131	0.322508	0	
-0.217513	0.254621	0.1	
-0.287124	0.235637	0	
-0.248262	0.29482	0	
-0.347855	0.285477	0.0500334	
-0.292926	0.235471	0.1	
-0.244028	0.149971	0	
-0.248332	0.050693	0	
-0.169647	0.0846842	0	
-0.242461	0.118505	0.1	
-0.0383965	-0.372403	0	
-0.0536856	-0.446786	0.05	
0	-0.45	0.05	
-0.0276628	-0.367444	0.1	
-0.133674	-0.228308	0	
-0.170075	-0.251953	0.1	
-0.111587	-0.287654	0.1	
-0.110394	-0.216726	0.1	
0.0922363	-0.215793	0	
0.082636	-0.254415	0.1	
0.0148093	-0.246449	0	
0.0839363	-0.30145	0	
-0.110394	-0.216726	0.1	
-0.133674	-0.228308	0	
-0.170075	-0.251953	0.1	
-0.16441	-0.183508	0.1	
-0.446786	-0.053688	0.0499938	
-0.373197	-0.0467972	0.1	
-0.365881	-0.111705	0	
-0.379429	-0.0366192	0	
0.348465	-0.103096	0	
0.261818	-0.161797	0	
0.339399	-0.183579	0	
0.287371	-0.120299	0.1	
-0.0619298	-0.0870419	0.1	
-0.0276546	-0.0671169	0.1	
-0.0251864	-0.106886	0.1	
-0.0647576	-0.0686517	0.0541732	
-0.244028	0.149971	0	
-0.155635	0.172227	0	
-0.207714	0.236511	0	
-0.237687	0.180874	0.1	
0.0632975	0.0980676	0	
0.144601	0.131477	0	
0.114043	0.0943971	0.1	
0.132963	0.044259	0	
0.00378559	-0.316996	0	
-0.0659287	-0.28985	0	
-0.0137107	-0.295895	0.1	
0.0148093	-0.246449	0	
0.120589	0.374273	0.1	
0.130628	0.430623	0.049953	
0.18581	0.349201	0	
0.107822	0.355442	0	
0.26859	-0.0619166	0	
0.348465	-0.103096	0	
0.303447	-0.0554764	0.1	
0.287371	-0.120299	0.1	
-0.173995	-0.331361	0.1	
-0.212128	-0.396865	0.0499723	
-0.250007	-0.374161	0.1	
-0.237792	-0.287474	0.1	
0.199452	-0.267103	0.1	
0.187286	-0.334755	0.1	
0.175084	-0.3275	0	
0.25204	-0.306462	0	
-0.0232097	0.208019	0.1	
-0.00652201	0.151895	0	
-0.0758641	0.204419	0	
0.00604814	0.236488	0	
-0.318623	-0.0616012	0	
-0.373197	-0.0467972	0.1	
-0.312659	-0.0214623	0.1	
-0.379429	-0.0366192	0	
0.173936	0.254382	0.1	
0.179715	0.179275	0.1	
0.129359	0.208003	0.1	
0.154944	0.223937	0	
-0.182284	0.324323	0.1	
-0.173131	0.322508	0	
-0.212129	0.396865	0.0500166	
-0.10824	0.362258	0.1	
-0.190622	-0.0884834	0	
-0.201609	-0.173762	0	
-0.12308	-0.143942	0	
-0.160221	-0.122206	0.1	
-0.248332	0.050693	0	
-0.320541	0.0201981	0	
-0.256491	-0.0362829	0	
-0.253293	0.00301969	0.1	
-0.207714	0.236511	0	
-0.173131	0.322508	0	
-0.248262	0.29482	0	
-0.217513	0.254621	0.1	
-0.430623	0.130628	0.049953	
-0.446786	0.053688	0.0499938	
-0.362114	0.10176	0	
-0.355442	0.107822	0.1	
-0.138104	0.243902	0	
-0.155635	0.172227	0	
-0.0758641	0.204419	0	
-0.121547	0.224354	0.1	
0.110168	-0.152489	0.1	
0.130886	-0.100339	0.1	
0.108307	-0.130924	0	
0.062652	-0.118801	0.041886	
0.238182	0.208514	0.1	
0.245754	0.289669	0.1	
0.297412	0.240191	0	
0.228237	0.281807	0	
0.304312	0.234791	0.1	
0.349981	0.18562	0.1	
0.294509	0.157311	0.1	
0.329177	0.174808	0	
-0.212128	-0.396865	0.0499723	
-0.285476	-0.347855	0.0499731	
-0.250007	-0.374161	0.1	
-0.237792	-0.287474	0.1	
-0.0276628	-0.367444	0.1	
-0.0383965	-0.372403	0	
-0.0615368	-0.322264	0.1	
0.00378559	-0.316996	0	
0.180378	0.336857	0.1	
0.117493	0.309521	0.1	
0.107822	0.355442	0	
0.155004	0.296903	0	
0.374822	-0.0324999	0.1	
0.363227	0.0380543	0	
0.384421	-0.0378621	0	
0.324791	-0.0252069	0	
-0.327578	-0.175094	0	
-0.396863	-0.212131	0.0499815	
-0.356724	-0.11546	0.1	
-0.365881	-0.111705	0	
-0.223685	-0.271786	0	
-0.170075	-0.251953	0.1	
-0.173995	-0.331361	0.1	
-0.13795	-0.29702	0	
-0.275518	-0.12132	0	
-0.327578	-0.175094	0	
-0.356724	-0.11546	0.1	
-0.365881	-0.111705	0	
-0.0415815	-0.110392	0	
-0.0607822	-0.132192	0.1	
0.00260765	-0.105267	0.0427151	
-0.0647576	-0.0686517	0.0541732	
0.329177	0.174808	0	
0.294509	0.157311	0.1	
0.297412	0.240191	0	
0.237285	0.176133	0	
-0.169647	0.0846842	0	
-0.248332	0.050693	0	
-0.181323	-0.0027565	0	
-0.19804	0.0242816	0.1	
0.303447	-0.0554764	0.1	
0.348465	-0.103096	0	
0.357114	-0.107098	0.1	
0.287371	-0.120299	0.1	
0.132963	0.044259	0	
0.144601	0.131477	0	
0.160735	0.0621263	0.1	
0.213357	0.0766959	0	
-0.0712343	-0.0265969	0.1	
-0.0200153	-0.0483211	0.048598	
-0.0318198	-0.0318198	0.1	
-0.0647576	-0.0686517	0.0541732	
0.00677135	0.0163475	0.1	
0.0202986	-0.00819178	0.1	
-0.00500969	-0.0120945	0.1	
0.0060848	-2.90377e-05	0.0422367	
-0.244028	0.149971	0	
-0.169647	0.0846842	0	
-0.155635	0.172227	0	
-0.1869	0.140647	0.1	
-0.173131	0.322508	0	
-0.0730421	0.296762	0	
-0.108028	0.370407	0	
-0.116127	0.293072	0.1	
0.175084	-0.3275	0	
0.187286	-0.334755	0.1	
0.212129	-0.396865	0.0500047	
0.25204	-0.306462	0	
0.296534	0.101262	0	
0.355442	0.107822	0.1	
0.287454	0.0808414	0.1	
0.363227	0.0380543	0	
0.296534	0.101262	0	
0.230865	0.135658	0.1	
0.294509	0.157311	0.1	
0.237285	0.176133	0	
0.18581	0.349201	0	
0.228237	0.281807	0	
0.180378	0.336857	0.1	
0.155004	0.296903	0	
0.187286	-0.334755	0.1	
0.175084	-0.3275	0	
0.109857	-0.362973	0.1	
0.134408	-0.294741	0.1	
0.00378559	-0.316996	0	
-0.0137107	-0.295895	0.1	
-0.0276628	-0.367444	0.1	
0.0511003	-0.317442	0.1	
-0.0496677	-0.250381	0.1	
-0.0659287	-0.28985	0	
-0.0529805	-0.19738	0	
0.0148093	-0.246449	0	
-0.0944203	0.0353385	0.1	
-0.0733988	0.0716859	0.0422482	
-0.0436673	0.0180876	0.0496986	
-0.088703	-0.0138649	0.0491848	
-0.104718	-0.361527	0.1	
-0.0536856	-0.446786	0.05	
-0.0383965	-0.372403	0	
-0.0276628	-0.367444	0.1	
0.257787	-0.293807	0.1	
0.347855	-0.285477	0.0499717	
0.25204	-0.306462	0	
0.29265	-0.244884	0	
-0.182284	0.324323	0.1	
-0.116127	0.293072	0.1	
-0.173131	0.322508	0	
-0.10824	0.362258	0.1	
-0.373197	-0.0467972	0.1	
-0.430623	-0.130628	0.049953	
-0.446786	-0.053688	0.0499938	
-0.365881	-0.111705	0	
0.045	0	0.1	
0.0662467	-0.0253248	0.1	
0.0318198	-0.0318198	0.1	
0.0512771	-0.0404658	0.045086	
0.387235	0.0357483	0.1	
0.355442	0.107822	0.1	
0.369533	0.112832	0	
0.363227	0.0380543	0	
-0.111587	-0.287654	0.1	
-0.173995	-0.331361	0.1	
-0.170075	-0.251953	0.1	
-0.13795	-0.29702	0	
0.190166	-0.0983881	0	
0.261818	-0.161797	0	
0.225509	-0.136032	0.1	
0.174426	-0.185564	0	
0.187286	-0.334755	0.1	
0.172208	-0.415746	0.1	
0.109857	-0.362973	0.1	
0.212129	-0.396865	0.0500047	
0.174426	-0.185564	0	
0.168154	-0.150165	0.1	
0.190166	-0.0983881	0	
0.108307	-0.130924	0	
0.045	0	0.1	
0.0202986	-0.00819178	0.1	
0.0060848	-2.90377e-05	0.0422367	
0.0512771	-0.0404658	0.045086	
-0.0730421	0.296762	0	
-0.138104	0.243902	0	
-0.0758641	0.204419	0	
-0.0674604	0.249371	0.1	
-0.244028	0.149971	0	
-0.296313	0.0995627	0	
-0.248332	0.050693	0	
-0.242461	0.118505	0.1	
-0.173131	0.322508	0	
-0.116127	0.293072	0.1	
-0.182284	0.324323	0.1	
-0.161049	0.262379	0.1	
-0.112529	-0.0425202	0.1	
-0.0647576	-0.0686517	0.0541732	
-0.108753	-0.0943056	0.1	
-0.142279	-0.0393203	0.0487826	
-0.217835	-0.151685	0.1	
-0.201609	-0.173762	0	
-0.265692	-0.195501	0	
-0.275518	-0.12132	0	
-0.0674604	0.249371	0.1	
-0.0758641	0.204419	0	
-0.0730421	0.296762	0	
0.00604814	0.236488	0	
-0.00500969	-0.0120945	0.1	
0.0060848	-2.90377e-05	0.0422367	
0	-0.045	0.1	
-0.0200153	-0.0483211	0.048598	
-0.285477	0.347855	0.049986	
-0.248262	0.29482	0	
-0.250007	0.374161	0	
-0.212129	0.396865	0.0500166	
-0.296313	0.0995627	0	
-0.32913	0.168426	0	
-0.355442	0.107822	0.1	
-0.300257	0.152847	0.1	
-0.223685	-0.271786	0	
-0.285476	-0.347855	0.0499731	
-0.182092	-0.340669	0	
-0.237792	-0.287474	0.1	
0.348465	-0.103096	0	
0.384421	-0.0378621	0	
0.357114	-0.107098	0.1	
0.430623	-0.130628	0.049953	
0.349981	0.18562	0.1	
0.355442	0.107822	0.1	
0.329177	0.174808	0	
0.369533	0.112832	0	
-0.396863	-0.212131	0.0499815	
-0.430623	-0.130628	0.049953	
-0.356724	-0.11546	0.1	
-0.365881	-0.111705	0	
0.430623	-0.130628	0.049953	
0.396865	-0.212129	0.0499751	
0.415746	-0.172208	0.1	
0.331486	-0.177371	0.1	
-0.32913	0.168426	0	
-0.244028	0.149971	0	
-0.287124	0.235637	0	
-0.300257	0.152847	0.1	
0.347855	-0.285477	0.0499717	
0.285477	-0.347855	0.0499669	
0.257787	-0.293807	0.1	
0.25204	-0.306462	0	
0.0922363	-0.215793	0	
0.174426	-0.185564	0	
0.138545	-0.218367	0.1	
0.147007	-0.259035	0	
-0.347846	-0.285488	0.0499977	
-0.318198	-0.318198	0.1	
-0.237792	-0.287474	0.1	
-0.29175	-0.237189	0.1	
0.374161	-0.250007	0.1	
0.331486	-0.177371	0.1	
0.396865	-0.212129	0.0499751	
0.347855	-0.285477	0.0499717	
0.180378	0.336857	0.1	
0.117493	0.309521	0.1	
0.120589	0.374273	0.1	
0.107822	0.355442	0	
0.0868431	-0.0680824	0.1	
0.0864603	-0.112342	0.1	
0.0488551	-0.0983509	0.1	
0.062652	-0.118801	0.041886	
-0.362114	0.10176	0	
-0.32913	0.168426	0	
-0.430623	0.130628	0.049953	
-0.355442	0.107822	0.1	
-0.212129	0.396865	0.0500166	
-0.248262	0.29482	0	
-0.173131	0.322508	0	
-0.182284	0.324323	0.1	
-0.13795	-0.29702	0	
-0.173995	-0.331361	0.1	
-0.112928	-0.360216	0	
-0.104718	-0.361527	0.1	
-0.223685	-0.271786	0	
-0.298599	-0.245054	0	
-0.285476	-0.347855	0.0499731	
-0.237792	-0.287474	0.1	
-0.29175	-0.237189	0.1	
-0.237792	-0.287474	0.1	
-0.223685	-0.271786	0	
-0.225546	-0.215121	0.1	
-0.207714	0.236511	0	
-0.138104	0.243902	0	
-0.173131	0.322508	0	
-0.161049	0.262379	0.1	
-0.0182151	0.0644617	0	
-0.00652201	0.151895	0	
-0.0733988	0.0716859	0.0422482	
0.0186333	0.101613	0.0479424	
0.415746	-0.172208	0.1	
0.357114	-0.107098	0.1	
0.430623	-0.130628	0.049953	
0.331486	-0.177371	0.1	
0.168154	-0.150165	0.1	
0.211584	-0.20097	0.1	
0.138545	-0.218367	0.1	
0.174426	-0.185564	0	
-0.173995	-0.331361	0.1	
-0.182092	-0.340669	0	
-0.223685	-0.271786	0	
-0.13795	-0.29702	0	
0.0868431	-0.0680824	0.1	
0.0488551	-0.0983509	0.1	
0.0512771	-0.0404658	0.045086	
0.062652	-0.118801	0.041886	
0.130628	-0.430623	0.050047	
0.109857	-0.362973	0.1	
0.172208	-0.415746	0.1	
0.212129	-0.396865	0.0500047	
0.245754	0.289669	0.1	
0.238182	0.208514	0.1	
0.173936	0.254382	0.1	
0.228237	0.281807	0	
0.173936	0.254382	0.1	
0.180378	0.336857	0.1	
0.245754	0.289669	0.1	
0.228237	0.281807	0	
-0.212129	0.396865	0.0500166	
-0.130628	0.430623	0.050047	
-0.172208	0.415746	0.1	
-0.10824	0.362258	0.1	
-0.318198	-0.318198	0.1	
-0.285476	-0.347855	0.0499731	
-0.347846	-0.285488	0.0499977	
-0.237792	-0.287474	0.1	
-0.256491	-0.0362829	0	
-0.318623	-0.0616012	0	
-0.312659	-0.0214623	0.1	
-0.320541	0.0201981	0	
0.396862	0.212133	0.0500072	
0.304312	0.234791	0.1	
0.297412	0.240191	0	
0.329177	0.174808	0	
0.281012	0.0229437	0	
0.26859	-0.0619166	0	
0.251733	-0.014256	0.1	
0.201967	-0.00950962	0	
0.173936	0.254382	0.1	
0.117493	0.309521	0.1	
0.180378	0.336857	0.1	
0.155004	0.296903	0	
0.0450774	0.367889	0.1	
0.0447484	0.293988	0.1	
-0.00311199	0.32667	0.1	
0.0210919	0.316201	0	
-0.29175	-0.237189	0.1	
-0.347846	-0.285488	0.0499977	
-0.374161	-0.250007	0.1	
-0.331484	-0.17939	0.1	
0.0210919	0.316201	0	
-0.0135764	0.270208	0.1	
-0.0730421	0.296762	0	
0.00604814	0.236488	0	
-0.223685	-0.271786	0	
-0.173995	-0.331361	0.1	
-0.170075	-0.251953	0.1	
-0.237792	-0.287474	0.1	
0.132963	0.044259	0	
0.12107	-0.0431928	0	
0.201967	-0.00950962	0	
0.0969794	0.021072	0.0441191	
-0.248262	0.29482	0	
-0.287124	0.235637	0	
-0.207714	0.236511	0	
-0.217513	0.254621	0.1	
-0.130628	0.430623	0.050047	
-0.172208	0.415746	0	
-0.108028	0.370407	0	
-0.212129	0.396865	0.0500166	
0.396862	0.212133	0.0500072	
0.304312	0.234791	0.1	
0.347853	0.285478	0.0500065	
0.297412	0.240191	0	
-0.0251864	-0.106886	0.1	
0.0142935	-0.12453	0.1	
-0.0203113	-0.154489	0.1	
0.00260765	-0.105267	0.0427151	
-0.182092	-0.340669	0	
-0.173995	-0.331361	0.1	
-0.112928	-0.360216	0	
-0.13795	-0.29702	0	
0.287454	0.0808414	0.1	
0.314556	0.0156287	0.1	
0.255462	0.038247	0.1	
0.281012	0.0229437	0	
0.0714224	0.0228299	0.1	
0.104819	-0.00331638	0.1	
0.0662467	-0.0253248	0.1	
0.0969794	0.021072	0.0441191	
0.355442	0.107822	0.1	
0.314556	0.0156287	0.1	
0.287454	0.0808414	0.1	
0.363227	0.0380543	0	
0.0839363	-0.30145	0	
0.0148093	-0.246449	0	
0.00378559	-0.316996	0	
0.0511003	-0.317442	0.1	
-0.244028	0.149971	0	
-0.237687	0.180874	0.1	
-0.300257	0.152847	0.1	
-0.242461	0.118505	0.1	
0.281012	0.0229437	0	
0.314556	0.0156287	0.1	
0.255462	0.038247	0.1	
0.251733	-0.014256	0.1	
-0.396863	-0.212131	0.0499815	
-0.374161	-0.250007	0.1	
-0.347846	-0.285488	0.0499977	
-0.331484	-0.17939	0.1	
0.349981	0.18562	0.1	
0.355442	0.107822	0.1	
0.294509	0.157311	0.1	
0.329177	0.174808	0	
0.0714224	0.0228299	0.1	
0.0318198	0.0318198	0.1	
0.0550025	0.059172	0.1	
0.0396544	0.04868	0.0438187	
0.396862	0.212133	0.0500072	
0.415746	0.172208	0	
0.430623	0.130628	0.050047	
0.369533	0.112832	0	
-0.365881	-0.111705	0	
-0.373197	-0.0467972	0.1	
-0.318623	-0.0616012	0	
-0.379429	-0.0366192	0	
0.130628	-0.430623	0.050047	
0.172208	-0.415746	0	
0.111895	-0.372646	0	
0.212129	-0.396865	0.0500047	
-0.104718	-0.361527	0.1	
-0.0383965	-0.372403	0	
-0.0615368	-0.322264	0.1	
-0.0276628	-0.367444	0.1	
-0.173995	-0.331361	0.1	
-0.212128	-0.396865	0.0499723	
-0.130611	-0.430628	0.05	
-0.172208	-0.415746	0.1	
-0.112928	-0.360216	0	
-0.172208	-0.415746	0	
-0.130611	-0.430628	0.05	
-0.182092	-0.340669	0	
0.287454	0.0808414	0.1	
0.213357	0.0766959	0	
0.296534	0.101262	0	
0.281012	0.0229437	0	
-0.138104	0.243902	0	
-0.207714	0.236511	0	
-0.155635	0.172227	0	
-0.175847	0.204716	0.1	
0.147007	-0.259035	0	
0.138545	-0.218367	0.1	
0.134408	-0.294741	0.1	
0.199452	-0.267103	0.1	
-0.0436673	0.0180876	0.0496986	
-0.0200153	-0.0483211	0.048598	
-0.0318198	-0.0318198	0.1	
-0.088703	-0.0138649	0.0491848	
-0.244028	0.149971	0	
-0.207714	0.236511	0	
-0.287124	0.235637	0	
-0.237687	0.180874	0.1	
0.446786	-0.053688	0.0499938	
0.384421	-0.0378621	0	
0.441353	-0.0877906	0	
0.430623	-0.130628	0.049953	
0.250007	0.374161	0.1	
0.180378	0.336857	0.1	
0.212116	0.396871	0.049999	
0.285475	0.347856	0.0500185	
0.0450774	0.367889	0.1	
0.0381609	0.387454	0	
0.107822	0.355442	0	
0.0210919	0.316201	0	
0.25204	-0.306462	0	
0.216652	-0.249073	0	
0.257787	-0.293807	0.1	
0.29265	-0.244884	0	
0.180378	0.336857	0.1	
0.250007	0.374161	0.1	
0.245754	0.289669	0.1	
0.285475	0.347856	0.0500185	
0.355442	0.107822	0.1	
0.296534	0.101262	0	
0.369533	0.112832	0	
0.363227	0.0380543	0	
0.154944	0.223937	0	
0.228237	0.281807	0	
0.238182	0.208514	0.1	
0.237285	0.176133	0	
-0.0276628	-0.367444	0.1	
-0.0383965	-0.372403	0	
0.00378559	-0.316996	0	
0.0404591	-0.377182	0	
0.287124	-0.235637	0.1	
0.331486	-0.177371	0.1	
0.374161	-0.250007	0.1	
0.347855	-0.285477	0.0499717	
-0.347846	-0.285488	0.0499977	
-0.298599	-0.245054	0	
-0.374161	-0.250007	0	
-0.396863	-0.212131	0.0499815	
0.00728726	-0.0832273	0.1	
-0.0276546	-0.0671169	0.1	
0	-0.045	0.1	
-0.0200153	-0.0483211	0.048598	
-0.112928	-0.360216	0	
-0.0536856	-0.446786	0.05	
-0.0877906	-0.441353	0	
-0.0383965	-0.372403	0	
-0.0536856	-0.446786	0.05	
-0.0877906	-0.441353	0	
-0.130611	-0.430628	0.05	
-0.112928	-0.360216	0	
0.175084	-0.3275	0	
0.147007	-0.259035	0	
0.134408	-0.294741	0.1	
0.199452	-0.267103	0.1	
-0.00500969	-0.0120945	0.1	
0	-0.045	0.1	
-0.0318198	-0.0318198	0.1	
-0.0200153	-0.0483211	0.048598	
0.245754	0.289669	0.1	
0.285475	0.347856	0.0500185	
0.297412	0.240191	0	
0.228237	0.281807	0	
-0.32913	0.168426	0	
-0.351668	0.187175	0.1	
-0.355442	0.107822	0.1	
-0.300257	0.152847	0.1	
0.053688	0.446786	0.0499938	
0.0877906	0.441353	0.1	
0.120589	0.374273	0.1	
0.130628	0.430623	0.049953	
-0.212128	-0.396865	0.0499723	
-0.130611	-0.430628	0.05	
-0.172208	-0.415746	0	
-0.182092	-0.340669	0	
-0.130611	-0.430628	0.05	
-0.173995	-0.331361	0.1	
-0.172208	-0.415746	0.1	
-0.104718	-0.361527	0.1	
-0.0730421	0.296762	0	
-0.173131	0.322508	0	
-0.138104	0.243902	0	
-0.116127	0.293072	0.1	
-0.133674	-0.228308	0	
-0.111587	-0.287654	0.1	
-0.170075	-0.251953	0.1	
-0.13795	-0.29702	0	
-0.223685	-0.271786	0	
-0.182092	-0.340669	0	
-0.173995	-0.331361	0.1	
-0.237792	-0.287474	0.1	
0.120589	0.374273	0.1	
0.117493	0.309521	0.1	
0.0450774	0.367889	0.1	
0.107822	0.355442	0	
-0.133674	-0.228308	0	
-0.223685	-0.271786	0	
-0.170075	-0.251953	0.1	
-0.201609	-0.173762	0	
0.0447484	0.293988	0.1	
0.0210919	0.316201	0	
0.0872949	0.269115	0	
0.00604814	0.236488	0	
-0.00500969	-0.0120945	0.1	
-0.0436673	0.0180876	0.0496986	
0.0060848	-2.90377e-05	0.0422367	
-0.0200153	-0.0483211	0.048598	
-0.237792	-0.287474	0.1	
-0.223685	-0.271786	0	
-0.298599	-0.245054	0	
-0.29175	-0.237189	0.1	
-0.182284	0.324323	0.1	
-0.212129	0.396865	0.0500166	
-0.172208	0.415746	0.1	
-0.10824	0.362258	0.1	
0.0662467	-0.0253248	0.1	
0.0986719	-0.0360043	0.1	
0.0868431	-0.0680824	0.1	
0.0512771	-0.0404658	0.045086	
-0.296313	0.0995627	0	
-0.32913	0.168426	0	
-0.362114	0.10176	0	
-0.355442	0.107822	0.1	
-0.347855	0.285477	0.0500334	
-0.374161	0.250007	0	
-0.287124	0.235637	0	
-0.396865	0.212129	0.0500047	
0.296534	0.101262	0	
0.294509	0.157311	0.1	
0.355442	0.107822	0.1	
0.329177	0.174808	0	
-0.111446	-0.0565624	0	
-0.190622	-0.0884834	0	
-0.12308	-0.143942	0	
-0.142279	-0.0393203	0.0487826	
-0.441353	0.0877906	0.1	
-0.446786	0.053688	0.0499938	
-0.430623	0.130628	0.049953	
-0.355442	0.107822	0.1	
0.329177	0.174808	0	
0.355442	0.107822	0.1	
0.296534	0.101262	0	
0.369533	0.112832	0	
-0.396863	-0.212131	0.0499815	
-0.298599	-0.245054	0	
-0.374161	-0.250007	0	
-0.327578	-0.175094	0	
0.0207402	-0.174187	0.1	
0.062652	-0.118801	0.041886	
0.0279075	-0.16395	0	
0.00260765	-0.105267	0.0427151	
0.0447484	0.293988	0.1	
0.117493	0.309521	0.1	
0.0906227	0.254757	0.1	
0.0872949	0.269115	0	
0.363227	0.0380543	0	
0.374822	-0.0324999	0.1	
0.314556	0.0156287	0.1	
0.324791	-0.0252069	0	
0.175084	-0.3275	0	
0.147007	-0.259035	0	
0.0839363	-0.30145	0	
0.134408	-0.294741	0.1	
-0.430623	0.130628	0.049953	
-0.32913	0.168426	0	
-0.415746	0.172208	0	
-0.396865	0.212129	0.0500047	
0.355442	0.107822	0.1	
0.387235	0.0357483	0.1	
0.314556	0.0156287	0.1	
0.363227	0.0380543	0	
0.430623	-0.130628	0.049953	
0.339399	-0.183579	0	
0.415746	-0.172208	0	
0.396865	-0.212129	0.0499751	
-0.133674	-0.228308	0	
-0.12308	-0.143942	0	
-0.201609	-0.173762	0	
-0.16441	-0.183508	0.1	
-0.373197	-0.0467972	0.1	
-0.356724	-0.11546	0.1	
-0.430623	-0.130628	0.049953	
-0.365881	-0.111705	0	
0.396865	-0.212129	0.0499751	
0.339399	-0.183579	0	
0.374161	-0.250007	0	
0.347855	-0.285477	0.0499717	
0.446786	-0.053688	0.0499938	
0.441353	-0.0877906	0.1	
0.357114	-0.107098	0.1	
0.430623	-0.130628	0.049953	
0.318198	0.318198	0	
0.347853	0.285478	0.0500065	
0.285475	0.347856	0.0500185	
0.297412	0.240191	0	
-0.13795	-0.29702	0	
-0.133674	-0.228308	0	
-0.111587	-0.287654	0.1	
-0.0659287	-0.28985	0	
0.387235	0.0357483	0.1	
0.355442	0.107822	0.1	
0.441353	0.0877906	0.1	
0.446786	0.053688	0.0500062	
0.287124	-0.235637	0.1	
0.257787	-0.293807	0.1	
0.216652	-0.249073	0	
0.29265	-0.244884	0	
0.0450774	0.367889	0.1	
0.0877906	0.441353	0.1	
0.120589	0.374273	0.1	
0.053688	0.446786	0.0499938	
0.0714224	0.0228299	0.1	
0.0396544	0.04868	0.0438187	
0.0858783	0.0607949	0.1	
0.0969794	0.021072	0.0441191	
0.314556	0.0156287	0.1	
0.387235	0.0357483	0.1	
0.374822	-0.0324999	0.1	
0.363227	0.0380543	0	
0.415746	0.172208	0	
0.396862	0.212133	0.0500072	
0.329177	0.174808	0	
0.369533	0.112832	0	
-0.237792	-0.287474	0.1	
-0.170075	-0.251953	0.1	
-0.223685	-0.271786	0	
-0.225546	-0.215121	0.1	
-0.372975	0.0289182	0.1	
-0.312659	-0.0214623	0.1	
-0.320541	0.0201981	0	
-0.304909	0.0444641	0.1	
0.348465	-0.103096	0	
0.26859	-0.0619166	0	
0.261818	-0.161797	0	
0.287371	-0.120299	0.1	
0.238182	0.208514	0.1	
0.294509	0.157311	0.1	
0.230865	0.135658	0.1	
0.237285	0.176133	0	
-0.0358979	0.379949	0.1	
-0.0877906	0.441353	0.1	
-0.053688	0.446786	0.0500062	
-0.10824	0.362258	0.1	
0.441353	-0.0877906	0.1	
0.357114	-0.107098	0.1	
0.374822	-0.0324999	0.1	
0.446786	-0.053688	0.0499938	
0.294509	0.157311	0.1	
0.355442	0.107822	0.1	
0.287454	0.0808414	0.1	
0.296534	0.101262	0	
0.0511003	-0.317442	0.1	
0.0839363	-0.30145	0	
0.082636	-0.254415	0.1	
0.134408	-0.294741	0.1	
0.179715	0.179275	0.1	
0.144601	0.131477	0	
0.154944	0.223937	0	
0.237285	0.176133	0	
0.109857	-0.362973	0.1	
0.0839363	-0.30145	0	
0.0511003	-0.317442	0.1	
0.134408	-0.294741	0.1	
0.172208	-0.415746	0	
0.175084	-0.3275	0	
0.111895	-0.372646	0	
0.212129	-0.396865	0.0500047	
-0.248262	0.29482	0	
-0.173131	0.322508	0	
-0.250007	0.374161	0	
-0.212129	0.396865	0.0500166	
-0.351668	0.187175	0.1	
-0.347855	0.285477	0.0500334	
-0.374161	0.250007	0.1	
-0.292926	0.235471	0.1	
0.296534	0.101262	0	
0.213357	0.0766959	0	
0.230865	0.135658	0.1	
0.237285	0.176133	0	
0.228237	0.281807	0	
0.297412	0.240191	0	
0.238182	0.208514	0.1	
0.237285	0.176133	0	
0.324791	-0.0252069	0	
0.374822	-0.0324999	0.1	
0.314556	0.0156287	0.1	
0.303447	-0.0554764	0.1	
0.199452	-0.267103	0.1	
0.175084	-0.3275	0	
0.216652	-0.249073	0	
0.25204	-0.306462	0	
-0.396865	0.212129	0.0500047	
-0.347855	0.285477	0.0500334	
-0.374161	0.250007	0.1	
-0.351668	0.187175	0.1	
0.238182	0.208514	0.1	
0.230865	0.135658	0.1	
0.179715	0.179275	0.1	
0.237285	0.176133	0	
-0.355442	0.107822	0.1	
-0.441353	0.0877906	0.1	
-0.446786	0.053688	0.0499938	
-0.372975	0.0289182	0.1	
-0.430623	-0.130628	0.049953	
-0.356724	-0.11546	0.1	
-0.415746	-0.172208	0.1	
-0.396863	-0.212131	0.0499815	
-0.396863	-0.212131	0.0499815	
-0.415746	-0.172208	0	
-0.430623	-0.130628	0.049953	
-0.365881	-0.111705	0	
0.250007	-0.374161	0	
0.212129	-0.396865	0.0500047	
0.285477	-0.347855	0.0499669	
0.25204	-0.306462	0	
-0.0276546	-0.0671169	0.1	
-0.0200153	-0.0483211	0.048598	
0.00728726	-0.0832273	0.1	
0.00260765	-0.105267	0.0427151	
0.0872949	0.269115	0	
0.107822	0.355442	0	
0.117493	0.309521	0.1	
0.155004	0.296903	0	
0.0488551	-0.0983509	0.1	
0.0512771	-0.0404658	0.045086	
0.062652	-0.118801	0.041886	
0.00260765	-0.105267	0.0427151	
0.287124	-0.235637	0.1	
0.211584	-0.20097	0.1	
0.216652	-0.249073	0	
0.199452	-0.267103	0.1	
0.00728726	-0.0832273	0.1	
0.0488551	-0.0983509	0.1	
0.0142935	-0.12453	0.1	
0.00260765	-0.105267	0.0427151	
-0.0529805	-0.19738	0	
0.0279075	-0.16395	0	
-0.0415815	-0.110392	0	
0.00260765	-0.105267	0.0427151	
0.216652	-0.249073	0	
0.257787	-0.293807	0.1	
0.287124	-0.235637	0.1	
0.199452	-0.267103	0.1	
0.347853	0.285478	0.0500065	
0.245754	0.289669	0.1	
0.318198	0.318198	0.1	
0.285475	0.347856	0.0500185	
-0.223685	-0.271786	0	
-0.201609	-0.173762	0	
-0.265692	-0.195501	0	
-0.225546	-0.215121	0.1	
0.347855	-0.285477	0.0499717	
0.339399	-0.183579	0	
0.374161	-0.250007	0	
0.29265	-0.244884	0	
0.0404591	-0.377182	0	
0.0839363	-0.30145	0	
0.00378559	-0.316996	0	
0.0511003	-0.317442	0.1	
0.347853	0.285478	0.0500065	
0.374161	0.250007	0	
0.396862	0.212133	0.0500072	
0.297412	0.240191	0	
-0.318198	0.318198	0	
-0.248262	0.29482	0	
-0.285477	0.347855	0.049986	
-0.347855	0.285477	0.0500334	
-0.0877906	0.441353	0.1	
-0.130628	0.430623	0.050047	
-0.053688	0.446786	0.0500062	
-0.10824	0.362258	0.1	
0.155004	0.296903	0	
0.228237	0.281807	0	
0.173936	0.254382	0.1	
0.154944	0.223937	0	
0.348465	-0.103096	0	
0.324791	-0.0252069	0	
0.26859	-0.0619166	0	
0.303447	-0.0554764	0.1	
-0.0276546	-0.0671169	0.1	
-0.0200153	-0.0483211	0.048598	
0.00260765	-0.105267	0.0427151	
-0.0647576	-0.0686517	0.0541732	
0.329177	0.174808	0	
0.296534	0.101262	0	
0.294509	0.157311	0.1	
0.237285	0.176133	0	
0.212116	0.396871	0.049999	
0.130628	0.430623	0.049953	
0.172208	0.415746	0	
0.18581	0.349201	0	
0.318198	-0.318198	0	
0.285477	-0.347855	0.0499669	
0.347855	-0.285477	0.0499717	
0.25204	-0.306462	0	
0.430623	0.130628	0.050047	
0.349981	0.18562	0.1	
0.415746	0.172208	0.1	
0.396862	0.212133	0.0500072	
0.044217	-0.387842	0.1	
0.0877906	-0.441353	0.1	
0.053688	-0.446786	0.0500062	
0.130628	-0.430623	0.050047	
0.134408	-0.294741	0.1	
0.187286	-0.334755	0.1	
0.175084	-0.3275	0	
0.199452	-0.267103	0.1	
-0.396863	-0.212131	0.0499815	
-0.356724	-0.11546	0.1	
-0.415746	-0.172208	0.1	
-0.331484	-0.17939	0.1	
-0.374161	0.250007	0	
-0.32913	0.168426	0	
-0.287124	0.235637	0	
-0.396865	0.212129	0.0500047	
-0.0358979	0.379949	0.1	
0	0.45	0.05	
0	0.45	0.1	
0.0450774	0.367889	0.1	
-0.296313	0.0995627	0	
-0.320541	0.0201981	0	
-0.248332	0.050693	0	
-0.304909	0.0444641	0.1	
-0.251772	0.306785	0.1	
-0.318198	0.318198	0.1	
-0.347855	0.285477	0.0500334	
-0.292926	0.235471	0.1	
-0.212129	0.396865	0.0500166	
-0.250007	0.374161	0.1	
-0.285477	0.347855	0.049986	
-0.251772	0.306785	0.1	
-0.347855	0.285477	0.0500334	
-0.285477	0.347855	0.049986	
-0.318198	0.318198	0.1	
-0.251772	0.306785	0.1	
-0.415746	0.172208	0.1	
-0.430623	0.130628	0.049953	
-0.396865	0.212129	0.0500047	
-0.351668	0.187175	0.1	
0.347855	-0.285477	0.0499717	
0.257787	-0.293807	0.1	
0.287124	-0.235637	0.1	
0.29265	-0.244884	0	
-0.0383965	-0.372403	0	
0	-0.45	0.05	
0	-0.45	0	
0.0404591	-0.377182	0	
-0.415746	-0.172208	0	
-0.396863	-0.212131	0.0499815	
-0.327578	-0.175094	0	
-0.365881	-0.111705	0	
-0.172208	0.415746	0	
-0.173131	0.322508	0	
-0.108028	0.370407	0	
-0.212129	0.396865	0.0500166	
-0.0583523	0.0875158	0.1	
-0.0949426	0.0752698	0.1	
-0.0791922	0.124893	0.1	
-0.0733988	0.0716859	0.0422482	
0.25204	-0.306462	0	
0.347855	-0.285477	0.0499717	
0.318198	-0.318198	0	
0.29265	-0.244884	0	
0.153315	0.00689278	0.1	
0.104819	-0.00331638	0.1	
0.114815	0.0394603	0.1	
0.0969794	0.021072	0.0441191	
0.285475	0.347856	0.0500185	
0.212116	0.396871	0.049999	
0.250007	0.374161	0	
0.18581	0.349201	0	
0.45	0	0	
0.45	0	0.05	
0.363227	0.0380543	0	
0.384421	-0.0378621	0	
-0.296313	0.0995627	0	
-0.244028	0.149971	0	
-0.32913	0.168426	0	
-0.300257	0.152847	0.1	
-0.351668	0.187175	0.1	
-0.415746	0.172208	0.1	
-0.430623	0.130628	0.049953	
-0.355442	0.107822	0.1	
0.199452	-0.267103	0.1	
0.216652	-0.249073	0	
0.257787	-0.293807	0.1	
0.25204	-0.306462	0	
-0.104461	0.000932435	0.1	
-0.0944203	0.0353385	0.1	
-0.0737761	0.00176994	0.1	
-0.088703	-0.0138649	0.0491848	
0.430623	0.130628	0.050047	
0.441353	0.0877906	0.1	
0.355442	0.107822	0.1	
0.446786	0.053688	0.0500062	
0.446786	0.053688	0.0500062	
0.430623	0.130628	0.050047	
0.441353	0.0877906	0	
0.369533	0.112832	0	
0.0550025	0.059172	0.1	
0.0318198	0.0318198	0.1	
0.0250698	0.0602098	0.1	
0.0396544	0.04868	0.0438187	
0.187286	-0.334755	0.1	
0.212129	-0.396865	0.0500047	
0.285477	-0.347855	0.0499669	
0.250007	-0.374161	0.1	
0.175084	-0.3275	0	
0.216652	-0.249073	0	
0.147007	-0.259035	0	
0.199452	-0.267103	0.1	
0.261818	-0.161797	0	
0.211584	-0.20097	0.1	
0.174426	-0.185564	0	
0.216652	-0.249073	0	
-0.441353	-0.0877906	0.1	
-0.373197	-0.0467972	0.1	
-0.430623	-0.130628	0.049953	
-0.446786	-0.053688	0.0499938	
-0.365881	-0.111705	0	
-0.441353	-0.0877906	0	
-0.446786	-0.053688	0.0499938	
-0.379429	-0.0366192	0	
-0.32913	0.168426	0	
-0.415746	0.172208	0	
-0.362114	0.10176	0	
-0.430623	0.130628	0.049953	
0.0691478	0.134694	0.1	
0.0405437	0.0931998	0.1	
0.0139627	0.124614	0.1	
0.0186333	0.101613	0.0479424	
0.245754	0.289669	0.1	
0.318198	0.318198	0.1	
0.304312	0.234791	0.1	
0.347853	0.285478	0.0500065	
-0.133674	-0.228308	0	
-0.170075	-0.251953	0.1	
-0.223685	-0.271786	0	
-0.13795	-0.29702	0	
0.0877906	-0.441353	0.1	
0.044217	-0.387842	0.1	
0.109857	-0.362973	0.1	
0.130628	-0.430623	0.050047	
0.212129	-0.396865	0.0500047	
0.250007	-0.374161	0	
0.175084	-0.3275	0	
0.25204	-0.306462	0	
-0.157075	-0.0653284	0.1	
-0.112529	-0.0425202	0.1	
-0.108753	-0.0943056	0.1	
-0.142279	-0.0393203	0.0487826	
-0.318198	-0.318198	0	
-0.298599	-0.245054	0	
-0.347846	-0.285488	0.0499977	
-0.285476	-0.347855	0.0499731	
-0.0944203	0.0353385	0.1	
-0.0949426	0.0752698	0.1	
-0.0611924	0.0535755	0.1	
-0.0733988	0.0716859	0.0422482	
0.0405437	0.0931998	0.1	
0.0250698	0.0602098	0.1	
0.00442099	0.0829354	0.1	
0.0186333	0.101613	0.0479424	
-0.0182151	0.0644617	0	
-0.00652201	0.151895	0	
-0.0880857	0.11829	0	
-0.0733988	0.0716859	0.0422482	
-0.250007	0.374161	0.1	
-0.212129	0.396865	0.0500166	
-0.182284	0.324323	0.1	
-0.251772	0.306785	0.1	
-0.250007	-0.374161	0	
-0.285476	-0.347855	0.0499731	
-0.212128	-0.396865	0.0499723	
-0.182092	-0.340669	0	
-0.0712343	-0.0265969	0.1	
-0.088703	-0.0138649	0.0491848	
-0.0200153	-0.0483211	0.048598	
-0.0647576	-0.0686517	0.0541732	
0.285477	-0.347855	0.0499669	
0.257787	-0.293807	0.1	
0.187286	-0.334755	0.1	
0.250007	-0.374161	0.1	
0.441353	0.0877906	0	
0.446786	0.053688	0.0500062	
0.369533	0.112832	0	
0.363227	0.0380543	0	
0.130628	0.430623	0.049953	
0.172208	0.415746	0.1	
0.120589	0.374273	0.1	
0.212116	0.396871	0.049999	
0.053688	-0.446786	0.0500062	
0.0877906	-0.441353	0	
0.111895	-0.372646	0	
0.130628	-0.430623	0.050047	
0.0750467	0.185499	0	
-0.00652201	0.151895	0	
0.0632975	0.0980676	0	
0.0186333	0.101613	0.0479424	
-0.0276628	-0.367444	0.1	
0	-0.45	0.1	
0	-0.45	0.05	
0.044217	-0.387842	0.1	
0.374161	0.250007	0	
0.396862	0.212133	0.0500072	
0.297412	0.240191	0	
0.329177	0.174808	0	
-0.446786	-0.053688	0.0499938	
-0.430623	-0.130628	0.049953	
-0.441353	-0.0877906	0	
-0.365881	-0.111705	0	
0.45	0	0	
0.45	0	0.05	
0.446786	0.053688	0.0500062	
0.363227	0.0380543	0	
0.0060848	-2.90377e-05	0.0422367	
-0.0200153	-0.0483211	0.048598	
0.0398215	-0.0765894	0	
0.0512771	-0.0404658	0.045086	
-0.362114	0.10176	0	
-0.441353	0.0877906	0	
-0.389559	0.0336032	0	
-0.446786	0.053688	0.0499938	
0.18581	0.349201	0	
0.130628	0.430623	0.049953	
0.172208	0.415746	0	
0.107822	0.355442	0	
-0.0415815	-0.110392	0	
-0.111446	-0.0565624	0	
-0.12308	-0.143942	0	
-0.0647576	-0.0686517	0.0541732	
-0.373197	-0.0467972	0.1	
-0.45	0	0.05	
-0.45	0	0.1	
-0.372975	0.0289182	0.1	
0.111895	-0.372646	0	
0.0404591	-0.377182	0	
0.0877906	-0.441353	0	
0.053688	-0.446786	0.0500062	
-0.0538392	-0.0535857	0.1	
-0.080591	-0.0588792	0.1	
-0.0712343	-0.0265969	0.1	
-0.0647576	-0.0686517	0.0541732	
-0.112529	-0.0425202	0.1	
-0.088703	-0.0138649	0.0491848	
-0.080591	-0.0588792	0.1	
-0.0647576	-0.0686517	0.0541732	
0.180378	0.336857	0.1	
0.120589	0.374273	0.1	
0.172208	0.415746	0.1	
0.212116	0.396871	0.049999	
-0.045	0	0.1	
-0.0606984	0.0243229	0.1	
-0.0318198	0.0318198	0.1	
-0.0436673	0.0180876	0.0496986	
-0.0182151	0.0644617	0	
0.0060848	-2.90377e-05	0.0422367	
0.0396544	0.04868	0.0438187	
-0.0436673	0.0180876	0.0496986	
0.0450774	0.367889	0.1	
0	0.45	0.05	
0	0.45	0.1	
0.053688	0.446786	0.0499938	
0.415746	-0.172208	0	
0.348465	-0.103096	0	
0.339399	-0.183579	0	
0.430623	-0.130628	0.049953	
0.396862	0.212133	0.0500072	
0.349981	0.18562	0.1	
0.374161	0.250007	0.1	
0.304312	0.234791	0.1	
0.0587245	-0.143156	0.1	
0.0864603	-0.112342	0.1	
0.110168	-0.152489	0.1	
0.062652	-0.118801	0.041886	
0.0587245	-0.143156	0.1	
0.0142935	-0.12453	0.1	
0.0488551	-0.0983509	0.1	
0.062652	-0.118801	0.041886	
0.0405437	0.0931998	0.1	
0.0396544	0.04868	0.0438187	
0.0250698	0.0602098	0.1	
0.0186333	0.101613	0.0479424	
-0.0536856	-0.446786	0.05	
-0.130611	-0.430628	0.05	
-0.0877906	-0.441353	0.1	
-0.104718	-0.361527	0.1	
0	0.45	0	
0	0.45	0.05	
-0.0339688	0.375665	0	
0.0381609	0.387454	0	
-0.379429	-0.0366192	0	
-0.45	0	0	
-0.45	0	0.05	
-0.389559	0.0336032	0	
0.297412	0.240191	0	
0.285475	0.347856	0.0500185	
0.318198	0.318198	0	
0.228237	0.281807	0	
0.348465	-0.103096	0	
0.441353	-0.0877906	0	
0.384421	-0.0378621	0	
0.430623	-0.130628	0.049953	
-0.0712343	-0.0265969	0.1	
-0.080591	-0.0588792	0.1	
-0.112529	-0.0425202	0.1	
-0.088703	-0.0138649	0.0491848	
-0.373197	-0.0467972	0.1	
-0.45	0	0.1	
-0.45	0	0.05	
-0.446786	-0.053688	0.0499938	
0.374161	0.250007	0.1	
0.396862	0.212133	0.0500072	
0.304312	0.234791	0.1	
0.347853	0.285478	0.0500065	
0.12107	-0.0431928	0	
0.0512771	-0.0404658	0.045086	
0.0398215	-0.0765894	0	
0.062652	-0.118801	0.041886	
-0.248262	0.29482	0	
-0.318198	0.318198	0	
-0.287124	0.235637	0	
-0.347855	0.285477	0.0500334	
0.314556	0.0156287	0.1	
0.281012	0.0229437	0	
0.363227	0.0380543	0	
0.324791	-0.0252069	0	
-0.130628	0.430623	0.050047	
-0.108028	0.370407	0	
-0.0877906	0.441353	0	
-0.053688	0.446786	0.0500062	
0.415746	0.172208	0.1	
0.355442	0.107822	0.1	
0.349981	0.18562	0.1	
0.430623	0.130628	0.050047	
-0.446786	0.053688	0.0499938	
-0.362114	0.10176	0	
-0.441353	0.0877906	0	
-0.430623	0.130628	0.049953	
-0.0536856	-0.446786	0.05	
0	-0.45	0.05	
0	-0.45	0	
-0.0383965	-0.372403	0	
-0.108028	0.370407	0	
-0.0339688	0.375665	0	
-0.0877906	0.441353	0	
-0.053688	0.446786	0.0500062	
-0.112529	-0.0425202	0.1	
-0.088703	-0.0138649	0.0491848	
-0.0647576	-0.0686517	0.0541732	
-0.142279	-0.0393203	0.0487826	
0.374822	-0.0324999	0.1	
0.45	0	0.1	
0.45	0	0.05	
0.387235	0.0357483	0.1	
-0.0536856	-0.446786	0.05	
0	-0.45	0.1	
0	-0.45	0.05	
-0.0276628	-0.367444	0.1	
0.0868431	-0.0680824	0.1	
0.0401753	-0.0586342	0.1	
0.0662467	-0.0253248	0.1	
0.0512771	-0.0404658	0.045086	
0.228237	0.281807	0	
0.285475	0.347856	0.0500185	
0.250007	0.374161	0	
0.18581	0.349201	0	
-0.441353	-0.0877906	0.1	
-0.373197	-0.0467972	0.1	
-0.356724	-0.11546	0.1	
-0.430623	-0.130628	0.049953	
0.108307	-0.130924	0	
0.0279075	-0.16395	0	
0.0922363	-0.215793	0	
0.062652	-0.118801	0.041886	
-0.318198	-0.318198	0	
-0.298599	-0.245054	0	
-0.285476	-0.347855	0.0499731	
-0.223685	-0.271786	0	
-0.045	0	0.1	
-0.0318198	0.0318198	0.1	
-0.0201457	0.00856081	0.1	
-0.0436673	0.0180876	0.0496986	
-0.104718	-0.361527	0.1	
-0.0877906	-0.441353	0.1	
-0.0536856	-0.446786	0.05	
-0.0276628	-0.367444	0.1	
-0.153293	-0.011499	0.1	
-0.157075	-0.0653284	0.1	
-0.203899	-0.0323666	0.1	
-0.142279	-0.0393203	0.0487826	
0.0516213	0.0106253	0	
0.0060848	-2.90377e-05	0.0422367	
0.0398215	-0.0765894	0	
0.0512771	-0.0404658	0.045086	
-0.250007	-0.374161	0	
-0.285476	-0.347855	0.0499731	
-0.182092	-0.340669	0	
-0.223685	-0.271786	0	
0.0488551	-0.0983509	0.1	
0.062652	-0.118801	0.041886	
0.0142935	-0.12453	0.1	
0.00260765	-0.105267	0.0427151	
0.257787	-0.293807	0.1	
0.318198	-0.318198	0.1	
0.285477	-0.347855	0.0499669	
0.347855	-0.285477	0.0499717	
-0.0538392	-0.0535857	0.1	
-0.0276546	-0.0671169	0.1	
-0.0619298	-0.0870419	0.1	
-0.0647576	-0.0686517	0.0541732	
0.114815	0.0394603	0.1	
0.0714224	0.0228299	0.1	
0.0858783	0.0607949	0.1	
0.0969794	0.021072	0.0441191	
0.374822	-0.0324999	0.1	
0.45	0	0.05	
0.45	0	0.1	
0.446786	-0.053688	0.0499938	
0.0398215	-0.0765894	0	
-0.0200153	-0.0483211	0.048598	
-0.0415815	-0.110392	0	
0.00260765	-0.105267	0.0427151	
0.0404591	-0.377182	0	
0	-0.45	0.05	
0	-0.45	0	
0.053688	-0.446786	0.0500062	
-0.0611924	0.0535755	0.1	
-0.0949426	0.0752698	0.1	
-0.0583523	0.0875158	0.1	
-0.0733988	0.0716859	0.0422482	
-0.446786	0.053688	0.0499938	
-0.45	0	0.1	
-0.45	0	0.05	
-0.372975	0.0289182	0.1	
0.0142935	-0.12453	0.1	
-0.0251864	-0.106886	0.1	
0.00728726	-0.0832273	0.1	
0.00260765	-0.105267	0.0427151	
-0.153293	-0.011499	0.1	
-0.104461	0.000932435	0.1	
-0.112529	-0.0425202	0.1	
-0.142279	-0.0393203	0.0487826	
0.0398215	-0.0765894	0	
0.0060848	-2.90377e-05	0.0422367	
-0.0299174	-0.0229457	0	
-0.0200153	-0.0483211	0.048598	
-0.0339688	0.375665	0	
0	0.45	0.05	
0	0.45	0	
-0.053688	0.446786	0.0500062	
0.0516213	0.0106253	0	
0.0632975	0.0980676	0	
0.0396544	0.04868	0.0438187	
0.0969794	0.021072	0.0441191	
-0.45	0	0	
-0.45	0	0.05	
-0.446786	-0.053688	0.0499938	
-0.379429	-0.0366192	0	
0.0318198	-0.0318198	0.1	
0.0662467	-0.0253248	0.1	
0.0401753	-0.0586342	0.1	
0.0512771	-0.0404658	0.045086	
0.0516213	0.0106253	0	
0.0396544	0.04868	0.0438187	
0.0060848	-2.90377e-05	0.0422367	
0.0512771	-0.0404658	0.045086	
0	-0.045	0.1	
-0.0276546	-0.0671169	0.1	
-0.0318198	-0.0318198	0.1	
-0.0200153	-0.0483211	0.048598	
-0.080591	-0.0588792	0.1	
-0.088703	-0.0138649	0.0491848	
-0.0712343	-0.0265969	0.1	
-0.0647576	-0.0686517	0.0541732	
-0.080591	-0.0588792	0.1	
-0.0619298	-0.0870419	0.1	
-0.108753	-0.0943056	0.1	
-0.0647576	-0.0686517	0.0541732	
-0.0997698	0.0308567	0	
-0.0299174	-0.0229457	0	
-0.0182151	0.0644617	0	
-0.0436673	0.0180876	0.0496986	
-0.0299174	-0.0229457	0	
0.0516213	0.0106253	0	
-0.0182151	0.0644617	0	
0.0060848	-2.90377e-05	0.0422367	
-0.0182151	0.0644617	0	
0.0516213	0.0106253	0	
0.0632975	0.0980676	0	
0.0396544	0.04868	0.0438187	
0.0396544	0.04868	0.0438187	
0.0512771	-0.0404658	0.045086	
0.0516213	0.0106253	0	
0.0969794	0.021072	0.0441191	
0.12107	-0.0431928	0	
0.0398215	-0.0765894	0	
0.108307	-0.130924	0	
0.062652	-0.118801	0.041886	
-0.0415815	-0.110392	0	
-0.0299174	-0.0229457	0	
-0.111446	-0.0565624	0	
-0.0647576	-0.0686517	0.0541732	
-0.0415815	-0.110392	0	
0.0398215	-0.0765894	0	
-0.0299174	-0.0229457	0	
-0.0200153	-0.0483211	0.048598	
-0.0299174	-0.0229457	0	
0.0398215	-0.0765894	0	
0.0516213	0.0106253	0	
0.0060848	-2.90377e-05	0.0422367	
-0.111446	-0.0565624	0	
-0.088703	-0.0138649	0.0491848	
-0.0997698	0.0308567	0	
-0.142279	-0.0393203	0.0487826	
-0.0880857	0.11829	0	
-0.0997698	0.0308567	0	
-0.0182151	0.0644617	0	
-0.0733988	0.0716859	0.0422482	
0.044217	-0.387842	0.1	
0	-0.45	0.1	
0	-0.45	0.05	
0.053688	-0.446786	0.0500062	
-0.169647	0.0846842	0	
-0.0997698	0.0308567	0	
-0.0880857	0.11829	0	
-0.0733988	0.0716859	0.0422482	
-0.053688	0.446786	0.0500062	
0	0.45	0.05	
0	0.45	0.1	
-0.0358979	0.379949	0.1	
-0.111446	-0.0565624	0	
-0.0997698	0.0308567	0	
-0.181323	-0.0027565	0	
-0.142279	-0.0393203	0.0487826	
-0.0182151	0.0644617	0	
0.0632975	0.0980676	0	
-0.00652201	0.151895	0	
0.0186333	0.101613	0.0479424	
-0.111446	-0.0565624	0	
-0.0299174	-0.0229457	0	
-0.0997698	0.0308567	0	
-0.088703	-0.0138649	0.0491848	
0.0139627	0.124614	0.1	
0.00442099	0.0829354	0.1	
-0.0254114	0.106009	0.1	
0.0186333	0.101613	0.0479424	
0.0398215	-0.0765894	0	
-0.0415815	-0.110392	0	
0.0279075	-0.16395	0	
0.00260765	-0.105267	0.0427151	
-0.0415815	-0.110392	0	
-0.0200153	-0.0483211	0.048598	
-0.0299174	-0.0229457	0	
-0.0647576	-0.0686517	0.0541732	
-0.0436673	0.0180876	0.0496986	
-0.0733988	0.0716859	0.0422482	
-0.0997698	0.0308567	0	
-0.088703	-0.0138649	0.0491848	
0.0516213	0.0106253	0	
0.132963	0.044259	0	
0.0632975	0.0980676	0	
0.0969794	0.021072	0.0441191	
0.318198	-0.318198	0.1	
0.257787	-0.293807	0.1	
0.287124	-0.235637	0.1	
0.347855	-0.285477	0.0499717	
0.0488551	-0.0983509	0.1	
0.0864603	-0.112342	0.1	
0.0587245	-0.143156	0.1	
0.062652	-0.118801	0.041886	
0.0398215	-0.0765894	0	
0.12107	-0.0431928	0	
0.0516213	0.0106253	0	
0.0512771	-0.0404658	0.045086	
-0.104461	0.000932435	0.1	
-0.088703	-0.0138649	0.0491848	
-0.112529	-0.0425202	0.1	
-0.142279	-0.0393203	0.0487826	
0.0516213	0.0106253	0	
0.12107	-0.0431928	0	
0.132963	0.044259	0	
0.0969794	0.021072	0.0441191	
0	0.45	0.05	
0	0.45	0	
0.053688	0.446786	0.0499938	
0.0381609	0.387454	0	
-0.111446	-0.0565624	0	
-0.0299174	-0.0229457	0	
-0.088703	-0.0138649	0.0491848	
-0.0647576	-0.0686517	0.0541732	
0.108307	-0.130924	0	
0.0398215	-0.0765894	0	
0.0279075	-0.16395	0	
0.062652	-0.118801	0.041886	
0.0516213	0.0106253	0	
0.0512771	-0.0404658	0.045086	
0.12107	-0.0431928	0	
0.0969794	0.021072	0.0441191	
-0.0299174	-0.0229457	0	
0.0060848	-2.90377e-05	0.0422367	
-0.0182151	0.0644617	0	
-0.0436673	0.0180876	0.0496986	
0.45	0	0	
0.45	0	0.05	
0.384421	-0.0378621	0	
0.446786	-0.053688	0.0499938	
-0.0997698	0.0308567	0	
-0.0436673	0.0180876	0.0496986	
-0.0182151	0.0644617	0	
-0.0733988	0.0716859	0.0422482	
0.387235	0.0357483	0.1	
0.45	0	0.1	
0.45	0	0.05	
0.446786	0.053688	0.0500062	
-0.0299174	-0.0229457	0	
-0.0436673	0.0180876	0.0496986	
-0.0997698	0.0308567	0	
-0.088703	-0.0138649	0.0491848	
-0.0182151	0.0644617	0	
0.0060848	-2.90377e-05	0.0422367	
0.0516213	0.0106253	0	
0.0396544	0.04868	0.0438187	
0.446786	0.053688	0.0500062	
0.441353	0.0877906	0	
0.45	0	0	
0.363227	0.0380543	0	
0.114815	0.0394603	0.1	
0.104819	-0.00331638	0.1	
0.0714224	0.0228299	0.1	
0.0969794	0.021072	0.0441191	
-0.389559	0.0336032	0	
-0.45	0	0	
-0.45	0	0.05	
-0.446786	0.053688	0.0499938	
-0.0536856	-0.446786	0.05	
0	-0.45	0	
-0.0877906	-0.441353	0	
-0.0383965	-0.372403	0	
-0.0877906	-0.441353	0.1	
0	-0.45	0.1	
-0.0536856	-0.446786	0.05	
-0.0276628	-0.367444	0.1	
-0.0200153	-0.0483211	0.048598	
-0.088703	-0.0138649	0.0491848	
-0.0299174	-0.0229457	0	
-0.0647576	-0.0686517	0.0541732	
-0.0299174	-0.0229457	0	
-0.0200153	-0.0483211	0.048598	
-0.0436673	0.0180876	0.0496986	
-0.088703	-0.0138649	0.0491848	
-0.181323	-0.0027565	0	
-0.190622	-0.0884834	0	
-0.111446	-0.0565624	0	
-0.142279	-0.0393203	0.0487826	
0	0.45	0.1	
0.0877906	0.441353	0.1	
0.0450774	0.367889	0.1	
0.053688	0.446786	0.0499938	
-0.104461	0.000932435	0.1	
-0.0712343	-0.0265969	0.1	
-0.112529	-0.0425202	0.1	
-0.088703	-0.0138649	0.0491848	
-0.0182151	0.0644617	0	
0.0396544	0.04868	0.0438187	
0.0632975	0.0980676	0	
0.0186333	0.101613	0.0479424	
0.0398215	-0.0765894	0	
0.0512771	-0.0404658	0.045086	
-0.0200153	-0.0483211	0.048598	
0.00260765	-0.105267	0.0427151	
0.441353	-0.0877906	0.1	
0.374822	-0.0324999	0.1	
0.45	0	0.1	
0.446786	-0.053688	0.0499938	
-0.441353	0.0877906	0.1	
-0.45	0	0.1	
-0.446786	0.053688	0.0499938	
-0.372975	0.0289182	0.1	
-0.396863	-0.212131	0.0499815	
-0.374161	-0.250007	0	
-0.415746	-0.172208	0	
-0.327578	-0.175094	0	
-0.0415815	-0.110392	0	
0.00260765	-0.105267	0.0427151	
-0.0200153	-0.0483211	0.048598	
-0.0647576	-0.0686517	0.0541732	
-0.373197	-0.0467972	0.1	
-0.441353	-0.0877906	0.1	
-0.45	0	0.1	
-0.446786	-0.053688	0.0499938	
-0.0339688	0.375665	0	
0	0.45	0	
-0.0877906	0.441353	0	
-0.053688	0.446786	0.0500062	
-0.415746	0.172208	0.1	
-0.441353	0.0877906	0.1	
-0.430623	0.130628	0.049953	
-0.355442	0.107822	0.1	
0.430623	-0.130628	0.049953	
0.441353	-0.0877906	0.1	
0.357114	-0.107098	0.1	
0.415746	-0.172208	0.1	
-0.285476	-0.347855	0.0499731	
-0.250007	-0.374161	0	
-0.318198	-0.318198	0	
-0.223685	-0.271786	0	
-0.318198	-0.318198	0.1	
-0.250007	-0.374161	0.1	
-0.285476	-0.347855	0.0499731	
-0.237792	-0.287474	0.1	
-0.111446	-0.0565624	0	
-0.0647576	-0.0686517	0.0541732	
-0.088703	-0.0138649	0.0491848	
-0.142279	-0.0393203	0.0487826	
-0.446786	-0.053688	0.0499938	
-0.441353	-0.0877906	0	
-0.45	0	0	
-0.379429	-0.0366192	0	
0.374161	-0.250007	0.1	
0.318198	-0.318198	0.1	
0.287124	-0.235637	0.1	
0.347855	-0.285477	0.0499717	
-0.374161	0.250007	0	
-0.415746	0.172208	0	
-0.32913	0.168426	0	
-0.396865	0.212129	0.0500047	
-0.173995	-0.331361	0.1	
-0.250007	-0.374161	0.1	
-0.212128	-0.396865	0.0499723	
-0.172208	-0.415746	0.1	
-0.0737761	0.00176994	0.1	
-0.0712343	-0.0265969	0.1	
-0.104461	0.000932435	0.1	
-0.088703	-0.0138649	0.0491848	
0.0405437	0.0931998	0.1	
0.00442099	0.0829354	0.1	
0.0139627	0.124614	0.1	
0.0186333	0.101613	0.0479424	
0	-0.45	0	
0.0877906	-0.441353	0	
0.0404591	-0.377182	0	
0.053688	-0.446786	0.0500062	
0.396865	-0.212129	0.0499751	
0.415746	-0.172208	0.1	
0.331486	-0.177371	0.1	
0.374161	-0.250007	0.1	
0.172208	-0.415746	0	
0.250007	-0.374161	0	
0.175084	-0.3275	0	
0.212129	-0.396865	0.0500047	
0.396862	0.212133	0.0500072	
0.374161	0.250007	0	
0.415746	0.172208	0	
0.329177	0.174808	0	
0.0877906	0.441353	0	
0.172208	0.415746	0	
0.130628	0.430623	0.049953	
0.107822	0.355442	0	
-0.112529	-0.0425202	0.1	
-0.157075	-0.0653284	0.1	
-0.153293	-0.011499	0.1	
-0.142279	-0.0393203	0.0487826	
-0.318198	-0.318198	0.1	
-0.347846	-0.285488	0.0499977	
-0.374161	-0.250007	0.1	
-0.29175	-0.237189	0.1	
-0.172208	0.415746	0.1	
-0.250007	0.374161	0.1	
-0.212129	0.396865	0.0500166	
-0.182284	0.324323	0.1	
0.0398215	-0.0765894	0	
0.062652	-0.118801	0.041886	
0.0512771	-0.0404658	0.045086	
0.00260765	-0.105267	0.0427151	
-0.318198	0.318198	0.1	
-0.374161	0.250007	0.1	
-0.347855	0.285477	0.0500334	
-0.292926	0.235471	0.1	
-0.356724	-0.11546	0.1	
-0.415746	-0.172208	0.1	
-0.441353	-0.0877906	0.1	
-0.430623	-0.130628	0.049953	
-0.396863	-0.212131	0.0499815	
-0.415746	-0.172208	0.1	
-0.374161	-0.250007	0.1	
-0.331484	-0.17939	0.1	
-0.0877906	-0.441353	0	
-0.172208	-0.415746	0	
-0.130611	-0.430628	0.05	
-0.112928	-0.360216	0	
0.348465	-0.103096	0	
0.415746	-0.172208	0	
0.441353	-0.0877906	0	
0.430623	-0.130628	0.049953	
-0.053688	0.446786	0.0500062	
0	0.45	0.1	
-0.0877906	0.441353	0.1	
-0.0358979	0.379949	0.1	
0.250007	0.374161	0	
0.318198	0.318198	0	
0.285475	0.347856	0.0500185	
0.228237	0.281807	0	
-0.173131	0.322508	0	
-0.172208	0.415746	0	
-0.250007	0.374161	0	
-0.212129	0.396865	0.0500166	
0.0877906	-0.441353	0.1	
0.109857	-0.362973	0.1	
0.172208	-0.415746	0.1	
0.130628	-0.430623	0.050047	
-0.318198	0.318198	0	
-0.374161	0.250007	0	
-0.287124	0.235637	0	
-0.347855	0.285477	0.0500334	
0.415746	0.172208	0.1	
0.441353	0.0877906	0.1	
0.355442	0.107822	0.1	
0.430623	0.130628	0.050047	
-0.362114	0.10176	0	
-0.415746	0.172208	0	
-0.441353	0.0877906	0	
-0.430623	0.130628	0.049953	
0.0398215	-0.0765894	0	
0.0279075	-0.16395	0	
0.062652	-0.118801	0.041886	
0.00260765	-0.105267	0.0427151	
-0.0877906	0.441353	0.1	
-0.172208	0.415746	0.1	
-0.130628	0.430623	0.050047	
-0.10824	0.362258	0.1	
0.053688	0.446786	0.0499938	
0	0.45	0	
0.0877906	0.441353	0	
0.0381609	0.387454	0	
0.245754	0.289669	0.1	
0.250007	0.374161	0.1	
0.318198	0.318198	0.1	
0.285475	0.347856	0.0500185	
-0.389559	0.0336032	0	
-0.441353	0.0877906	0	
-0.45	0	0	
-0.446786	0.053688	0.0499938	
0	-0.45	0.1	
0.044217	-0.387842	0.1	
0.0877906	-0.441353	0.1	
0.053688	-0.446786	0.0500062	
0.387235	0.0357483	0.1	
0.441353	0.0877906	0.1	
0.45	0	0.1	
0.446786	0.053688	0.0500062	
-0.0877906	-0.441353	0.1	
-0.130611	-0.430628	0.05	
-0.172208	-0.415746	0.1	
-0.104718	-0.361527	0.1	
-0.0619298	-0.0870419	0.1	
-0.080591	-0.0588792	0.1	
-0.0538392	-0.0535857	0.1	
-0.0647576	-0.0686517	0.0541732	
0.180378	0.336857	0.1	
0.172208	0.415746	0.1	
0.250007	0.374161	0.1	
0.212116	0.396871	0.049999	
0.212129	-0.396865	0.0500047	
0.187286	-0.334755	0.1	
0.172208	-0.415746	0.1	
0.250007	-0.374161	0.1	
0.304312	0.234791	0.1	
0.318198	0.318198	0.1	
0.374161	0.250007	0.1	
0.347853	0.285478	0.0500065	
0.347855	-0.285477	0.0499717	
0.374161	-0.250007	0	
0.318198	-0.318198	0	
0.29265	-0.244884	0	
0.415746	0.172208	0	
0.441353	0.0877906	0	
0.430623	0.130628	0.050047	
0.369533	0.112832	0	
0.384421	-0.0378621	0	
0.441353	-0.0877906	0	
0.45	0	0	
0.446786	-0.053688	0.0499938	
-0.248262	0.29482	0	
-0.250007	0.374161	0	
-0.318198	0.318198	0	
-0.285477	0.347855	0.049986	
0.0877906	-0.441353	0	
0.172208	-0.415746	0	
0.111895	-0.372646	0	
0.130628	-0.430623	0.050047	
-0.415746	-0.172208	0	
-0.441353	-0.0877906	0	
-0.430623	-0.130628	0.049953	
-0.365881	-0.111705	0	
0.0060848	-2.90377e-05	0.0422367	
-0.0436673	0.0180876	0.0496986	
-0.0299174	-0.0229457	0	
-0.0200153	-0.0483211	0.048598	
-0.0877906	0.441353	0	
-0.172208	0.415746	0	
-0.108028	0.370407	0	
-0.130628	0.430623	0.050047	
0.318198	-0.318198	0.1	
0.257787	-0.293807	0.1	
0.285477	-0.347855	0.0499669	
0.250007	-0.374161	0.1	
0.120589	0.374273	0.1	
0.0877906	0.441353	0.1	
0.172208	0.415746	0.1	
0.130628	0.430623	0.049953	
0.339399	-0.183579	0	
0.374161	-0.250007	0	
0.415746	-0.172208	0	
0.396865	-0.212129	0.0499751	
0.347853	0.285478	0.0500065	
0.318198	0.318198	0	
0.374161	0.250007	0	
0.297412	0.240191	0	
0.374161	0.250007	0.1	
0.415746	0.172208	0.1	
0.349981	0.18562	0.1	
0.396862	0.212133	0.0500072	
0.285477	-0.347855	0.0499669	
0.318198	-0.318198	0	
0.250007	-0.374161	0	
0.25204	-0.306462	0	
-0.396865	0.212129	0.0500047	
-0.374161	0.250007	0.1	
-0.415746	0.172208	0.1	
-0.351668	0.187175	0.1	
-0.298599	-0.245054	0	
-0.374161	-0.250007	0	
-0.318198	-0.318198	0	
-0.347846	-0.285488	0.0499977	
-0.212128	-0.396865	0.0499723	
-0.172208	-0.415746	0	
-0.250007	-0.374161	0	
-0.182092	-0.340669	0	
-0.285477	0.347855	0.049986	
-0.250007	0.374161	0.1	
-0.318198	0.318198	0.1	
-0.251772	0.306785	0.1	
0.172208	0.415746	0	
0.250007	0.374161	0	
0.212116	0.396871	0.049999	
0.18581	0.349201	0	
0.201967	-0.00950962	0	
0.136366	-0.0453365	0.1	
0.190166	-0.0983881	0	
0.194544	-0.0323862	0.1	
0.201967	-0.00950962	0	
0.190166	-0.0983881	0	
0.136366	-0.0453365	0.1	
0.12107	-0.0431928	0	
-0.256491	-0.0362829	0	
-0.209136	-0.0909343	0.1	
-0.275518	-0.12132	0	
-0.190622	-0.0884834	0	
-0.275518	-0.12132	0	
-0.209136	-0.0909343	0.1	
-0.256491	-0.0362829	0	
-0.258057	-0.0572365	0.1	
-0.110394	-0.216726	0.1	
-0.0659287	-0.28985	0	
-0.0529805	-0.19738	0	
-0.0496677	-0.250381	0.1	
-0.110394	-0.216726	0.1	
-0.0529805	-0.19738	0	
-0.0659287	-0.28985	0	
-0.133674	-0.228308	0	
0.0279075	-0.16395	0	
0.0204871	-0.24099	0.1	
-0.0142517	-0.205249	0.1	
0.0148093	-0.246449	0	
-0.0142517	-0.205249	0.1	
0.0204871	-0.24099	0.1	
0.0279075	-0.16395	0	
0.0207402	-0.174187	0.1	
-0.142279	-0.0393203	0.0487826	
-0.104461	0.000932435	0.1	
-0.140177	0.0445127	0.1	
-0.153293	-0.011499	0.1	
-0.142279	-0.0393203	0.0487826	
-0.140177	0.0445127	0.1	
-0.104461	0.000932435	0.1	
-0.088703	-0.0138649	0.0491848	
-0.142279	-0.0393203	0.0487826	
-0.19804	0.0242816	0.1	
-0.140177	0.0445127	0.1	
-0.181323	-0.0027565	0	
-0.142279	-0.0393203	0.0487826	
-0.140177	0.0445127	0.1	
-0.19804	0.0242816	0.1	
-0.153293	-0.011499	0.1	
0.29265	-0.244884	0	
0.268615	-0.174062	0.1	
0.216652	-0.249073	0	
0.287124	-0.235637	0.1	
0.29265	-0.244884	0	
0.216652	-0.249073	0	
0.268615	-0.174062	0.1	
0.261818	-0.161797	0	
0.237285	0.176133	0	
0.168985	0.119579	0.1	
0.213357	0.0766959	0	
0.230865	0.135658	0.1	
0.237285	0.176133	0	
0.213357	0.0766959	0	
0.168985	0.119579	0.1	
0.144601	0.131477	0	
0.0922363	-0.215793	0	
0.0204871	-0.24099	0.1	
0.0279075	-0.16395	0	
0.0148093	-0.246449	0	
0.0279075	-0.16395	0	
0.0204871	-0.24099	0.1	
0.0922363	-0.215793	0	
0.0725059	-0.197526	0.1	
0.0186333	0.101613	0.0479424	
0.0250698	0.0602098	0.1	
0	0.045	0.1	
0.0396544	0.04868	0.0438187	
0.0186333	0.101613	0.0479424	
0	0.045	0.1	
0.0250698	0.0602098	0.1	
0.00442099	0.0829354	0.1	
-0.0318198	-0.0318198	0.1	
-0.0647576	-0.0686517	0.0541732	
-0.0276546	-0.0671169	0.1	
-0.0538392	-0.0535857	0.1	
-0.0276546	-0.0671169	0.1	
-0.0647576	-0.0686517	0.0541732	
-0.0318198	-0.0318198	0.1	
-0.0200153	-0.0483211	0.048598	
0.044217	-0.387842	0.1	
0.111895	-0.372646	0	
0.0511003	-0.317442	0.1	
0.109857	-0.362973	0.1	
0.0511003	-0.317442	0.1	
0.111895	-0.372646	0	
0.044217	-0.387842	0.1	
0.0404591	-0.377182	0	
0.0906227	0.254757	0.1	
0.154944	0.223937	0	
0.0750467	0.185499	0	
0.0872949	0.269115	0	
0.0750467	0.185499	0	
0.154944	0.223937	0	
0.0906227	0.254757	0.1	
0.129359	0.208003	0.1	
0.0060848	-2.90377e-05	0.0422367	
0.0512771	-0.0404658	0.045086	
0	-0.045	0.1	
-0.0200153	-0.0483211	0.048598	
-0.0606984	0.0243229	0.1	
-0.088703	-0.0138649	0.0491848	
-0.045	0	0.1	
-0.0737761	0.00176994	0.1	
-0.045	0	0.1	
-0.088703	-0.0138649	0.0491848	
-0.0606984	0.0243229	0.1	
-0.0436673	0.0180876	0.0496986	
0.00260765	-0.105267	0.0427151	
0.0401753	-0.0586342	0.1	
-0.0200153	-0.0483211	0.048598	
0.00728726	-0.0832273	0.1	
0.00260765	-0.105267	0.0427151	
-0.0200153	-0.0483211	0.048598	
0.0401753	-0.0586342	0.1	
0.0512771	-0.0404658	0.045086	
-0.0358979	0.379949	0.1	
0.0381609	0.387454	0	
-0.00311199	0.32667	0.1	
-0.0339688	0.375665	0	
-0.00311199	0.32667	0.1	
0.0381609	0.387454	0	
-0.0358979	0.379949	0.1	
0.0450774	0.367889	0.1	
-0.10824	0.362258	0.1	
-0.0339688	0.375665	0	
-0.053688	0.446786	0.0500062	
-0.0358979	0.379949	0.1	
-0.10824	0.362258	0.1	
-0.053688	0.446786	0.0500062	
-0.0339688	0.375665	0	
-0.108028	0.370407	0	
-0.312956	-0.0762135	0.1	
-0.365881	-0.111705	0	
-0.373197	-0.0467972	0.1	
-0.318623	-0.0616012	0	
-0.373197	-0.0467972	0.1	
-0.365881	-0.111705	0	
-0.312956	-0.0762135	0.1	
-0.356724	-0.11546	0.1	
-0.209136	-0.0909343	0.1	
-0.142279	-0.0393203	0.0487826	
-0.160221	-0.122206	0.1	
-0.190622	-0.0884834	0	
-0.160221	-0.122206	0.1	
-0.142279	-0.0393203	0.0487826	
-0.209136	-0.0909343	0.1	
-0.157075	-0.0653284	0.1	
0.339399	-0.183579	0	
0.268615	-0.174062	0.1	
0.287371	-0.120299	0.1	
0.261818	-0.161797	0	
0.287371	-0.120299	0.1	
0.268615	-0.174062	0.1	
0.339399	-0.183579	0	
0.331486	-0.177371	0.1	
0.107822	0.355442	0	
0.053688	0.446786	0.0499938	
0.0877906	0.441353	0	
0.0381609	0.387454	0	
0.107822	0.355442	0	
0.0877906	0.441353	0	
0.053688	0.446786	0.0499938	
0.130628	0.430623	0.049953	
-0.104718	-0.361527	0.1	
-0.13795	-0.29702	0	
-0.0615368	-0.322264	0.1	
-0.112928	-0.360216	0	
-0.104718	-0.361527	0.1	
-0.0615368	-0.322264	0.1	
-0.13795	-0.29702	0	
-0.111587	-0.287654	0.1	
-0.0659287	-0.28985	0	
-0.0615368	-0.322264	0.1	
-0.13795	-0.29702	0	
-0.112928	-0.360216	0	
-0.0659287	-0.28985	0	
-0.13795	-0.29702	0	
-0.0615368	-0.322264	0.1	
-0.111587	-0.287654	0.1	
-0.269145	-0.181189	0.1	
-0.331484	-0.17939	0.1	
-0.265692	-0.195501	0	
-0.29175	-0.237189	0.1	
-0.269145	-0.181189	0.1	
-0.265692	-0.195501	0	
-0.331484	-0.17939	0.1	
-0.327578	-0.175094	0	
-0.298599	-0.245054	0	
-0.265692	-0.195501	0	
-0.331484	-0.17939	0.1	
-0.29175	-0.237189	0.1	
-0.298599	-0.245054	0	
-0.331484	-0.17939	0.1	
-0.265692	-0.195501	0	
-0.327578	-0.175094	0	
-0.351668	0.187175	0.1	
-0.287124	0.235637	0	
-0.300257	0.152847	0.1	
-0.32913	0.168426	0	
-0.300257	0.152847	0.1	
-0.287124	0.235637	0	
-0.351668	0.187175	0.1	
-0.292926	0.235471	0.1	
0.331486	-0.177371	0.1	
0.348465	-0.103096	0	
0.430623	-0.130628	0.049953	
0.339399	-0.183579	0	
0.331486	-0.177371	0.1	
0.430623	-0.130628	0.049953	
0.348465	-0.103096	0	
0.357114	-0.107098	0.1	
0.0512771	-0.0404658	0.045086	
0.0202986	-0.00819178	0.1	
0	-0.045	0.1	
0.0318198	-0.0318198	0.1	
0.0512771	-0.0404658	0.045086	
0	-0.045	0.1	
0.0202986	-0.00819178	0.1	
0.0060848	-2.90377e-05	0.0422367	
0.357114	-0.107098	0.1	
0.384421	-0.0378621	0	
0.324791	-0.0252069	0	
0.374822	-0.0324999	0.1	
0.324791	-0.0252069	0	
0.384421	-0.0378621	0	
0.357114	-0.107098	0.1	
0.348465	-0.103096	0	
0.324791	-0.0252069	0	
0.303447	-0.0554764	0.1	
0.357114	-0.107098	0.1	
0.374822	-0.0324999	0.1	
0.357114	-0.107098	0.1	
0.303447	-0.0554764	0.1	
0.324791	-0.0252069	0	
0.348465	-0.103096	0	
0.0632975	0.0980676	0.2	
0.114043	0.0943971	0.1	
0.0858783	0.0607949	0.1	
0.0741079	0.088115	0.1	
0.132963	0.044259	0.2	
0.204676	0.0233192	0.1	
0.153315	0.00689278	0.1	
0.160735	0.0621263	0.1	
0	0.045	0.1	
0.00442099	0.0829354	0.1	
-0.0269211	0.0671862	0.1	
0.0186333	0.101613	0.152058	
-0.0791922	0.124893	0.1	
-0.0278782	0.153479	0.1	
-0.075941	0.18593	0.1	
-0.0880857	0.11829	0.2	
-0.0254114	0.106009	0.1	
-0.0278782	0.153479	0.1	
-0.0791922	0.124893	0.1	
-0.0880857	0.11829	0.2	
0.0858783	0.0607949	0.1	
0.0632975	0.0980676	0.2	
0.0741079	0.088115	0.1	
0.0396544	0.04868	0.156181	
0.160735	0.0621263	0.1	
0.114043	0.0943971	0.1	
0.114815	0.0394603	0.1	
0.0969794	0.021072	0.155881	
0	0.045	0.1	
-0.0269211	0.0671862	0.1	
-0.0318198	0.0318198	0.1	
-0.0436673	0.0180876	0.150301	
0.0986719	-0.0360043	0.1	
0.136366	-0.0453365	0.1	
0.104819	-0.00331638	0.1	
0.0969794	0.021072	0.155881	
0.0279075	-0.16395	0.2	
-0.0142517	-0.205249	0.1	
-0.0203113	-0.154489	0.1	
0.0207402	-0.174187	0.1	
0.0741079	0.088115	0.1	
0.0632975	0.0980676	0.2	
0.114043	0.0943971	0.1	
0.0691478	0.134694	0.1	
-0.0566812	-0.183891	0.1	
-0.0607822	-0.132192	0.1	
-0.109965	-0.155382	0.1	
-0.0529805	-0.19738	0.2	
0	0.045	0.1	
-0.0182151	0.0644617	0.2	
-0.0269211	0.0671862	0.1	
-0.0436673	0.0180876	0.150301	
0.183564	-0.0903245	0.1	
0.136366	-0.0453365	0.1	
0.190166	-0.0983881	0.2	
0.194544	-0.0323862	0.1	
-0.0203113	-0.154489	0.1	
-0.0607822	-0.132192	0.1	
-0.0566812	-0.183891	0.1	
-0.0529805	-0.19738	0.2	
0.136366	-0.0453365	0.1	
0.0868431	-0.0680824	0.1	
0.12107	-0.0431928	0.2	
0.0986719	-0.0360043	0.1	
-0.108753	-0.0943056	0.1	
-0.109965	-0.155382	0.1	
-0.0607822	-0.132192	0.1	
-0.12308	-0.143942	0.2	
-0.19804	0.0242816	0.1	
-0.253293	0.00301969	0.1	
-0.203899	-0.0323666	0.1	
-0.181323	-0.0027565	0.2	
-0.075941	0.18593	0.1	
-0.0278782	0.153479	0.1	
-0.0232097	0.208019	0.1	
-0.0758641	0.204419	0.2	
-0.13855	0.104902	0.1	
-0.140177	0.0445127	0.1	
-0.0949426	0.0752698	0.1	
-0.0733988	0.0716859	0.157752	
-0.12308	-0.143942	0.2	
-0.0607822	-0.132192	0.1	
-0.108753	-0.0943056	0.1	
-0.0647576	-0.0686517	0.145827	
-0.0254114	0.106009	0.1	
-0.0880857	0.11829	0.2	
-0.0791922	0.124893	0.1	
-0.0733988	0.0716859	0.157752	
0.0632975	0.0980676	0.2	
0.0858783	0.0607949	0.1	
0.114043	0.0943971	0.1	
0.0969794	0.021072	0.155881	
-0.29431	0.0991694	0.1	
-0.247343	0.061739	0.1	
-0.242461	0.118505	0.1	
-0.296313	0.0995627	0.2	
-0.1869	0.140647	0.1	
-0.242461	0.118505	0.1	
-0.191044	0.0809942	0.1	
-0.169647	0.0846842	0.2	
0.0236281	0.174203	0.1	
0.0750467	0.185499	0.2	
0.0783782	0.19473	0.1	
0.0312955	0.232251	0.1	
-0.131315	0.16418	0.1	
-0.0791922	0.124893	0.1	
-0.075941	0.18593	0.1	
-0.0880857	0.11829	0.2	
0.0139627	0.124614	0.1	
0.0236281	0.174203	0.1	
-0.0278782	0.153479	0.1	
0.0186333	0.101613	0.152058	
0.183564	-0.0903245	0.1	
0.190166	-0.0983881	0.2	
0.136366	-0.0453365	0.1	
0.130886	-0.100339	0.1	
0.0236281	0.174203	0.1	
0.0691478	0.134694	0.1	
0.0750467	0.185499	0.2	
0.0186333	0.101613	0.152058	
0.240073	-0.0744514	0.1	
0.26859	-0.0619166	0.2	
0.225509	-0.136032	0.1	
0.287371	-0.120299	0.1	
0.0864603	-0.112342	0.1	
0.130886	-0.100339	0.1	
0.0868431	-0.0680824	0.1	
0.062652	-0.118801	0.158114	
-0.109965	-0.155382	0.1	
-0.16441	-0.183508	0.1	
-0.110394	-0.216726	0.1	
-0.12308	-0.143942	0.2	
0.240073	-0.0744514	0.1	
0.201967	-0.00950962	0.2	
0.251733	-0.014256	0.1	
0.194544	-0.0323862	0.1	
-0.12308	-0.143942	0.2	
-0.108753	-0.0943056	0.1	
-0.160221	-0.122206	0.1	
-0.142279	-0.0393203	0.151217	
-0.191044	0.0809942	0.1	
-0.242461	0.118505	0.1	
-0.247343	0.061739	0.1	
-0.248332	0.050693	0.2	
0.204676	0.0233192	0.1	
0.255462	0.038247	0.1	
0.201967	-0.00950962	0.2	
0.251733	-0.014256	0.1	
-0.0201457	0.00856081	0.1	
0.00677135	0.0163475	0.1	
0	0.045	0.1	
-0.0436673	0.0180876	0.150301	
-0.0182151	0.0644617	0.2	
0	0.045	0.1	
-0.0269211	0.0671862	0.1	
0.0186333	0.101613	0.152058	
-0.203899	-0.0323666	0.1	
-0.153293	-0.011499	0.1	
-0.19804	0.0242816	0.1	
-0.142279	-0.0393203	0.151217	
-0.0572929	0.316053	0.1	
-0.0135764	0.270208	0.1	
-0.00311199	0.32667	0.1	
-0.0730421	0.296762	0.2	
0.144601	0.131477	0.2	
0.114043	0.0943971	0.1	
0.0691478	0.134694	0.1	
0.124146	0.156872	0.1	
-0.0318198	-0.0318198	0.1	
-0.00500969	-0.0120945	0.1	
-0.0201457	0.00856081	0.1	
-0.0436673	0.0180876	0.150301	
0.0868431	-0.0680824	0.1	
0.130886	-0.100339	0.1	
0.12107	-0.0431928	0.2	
0.062652	-0.118801	0.158114	
-0.108753	-0.0943056	0.1	
-0.157075	-0.0653284	0.1	
-0.160221	-0.122206	0.1	
-0.142279	-0.0393203	0.151217	
-0.175847	0.204716	0.1	
-0.237687	0.180874	0.1	
-0.1869	0.140647	0.1	
-0.155635	0.172227	0.2	
-0.0583523	0.0875158	0.1	
-0.0254114	0.106009	0.1	
-0.0791922	0.124893	0.1	
-0.0733988	0.0716859	0.157752	
-0.0712343	-0.0265969	0.1	
-0.0318198	-0.0318198	0.1	
-0.045	0	0.1	
-0.088703	-0.0138649	0.150815	
0.0236281	0.174203	0.1	
0.0783782	0.19473	0.1	
0.0750467	0.185499	0.2	
0.0691478	0.134694	0.1	
-0.0278782	0.153479	0.1	
-0.0232097	0.208019	0.1	
-0.00652201	0.151895	0.2	
0.0236281	0.174203	0.1	
0.0906227	0.254757	0.1	
0.0783782	0.19473	0.1	
0.0750467	0.185499	0.2	
0.0312955	0.232251	0.1	
-0.0254114	0.106009	0.1	
-0.0278782	0.153479	0.1	
-0.0880857	0.11829	0.2	
-0.00652201	0.151895	0.2	
0.0691478	0.134694	0.1	
0.0783782	0.19473	0.1	
0.0750467	0.185499	0.2	
0.124146	0.156872	0.1	
0.12107	-0.0431928	0.2	
0.0868431	-0.0680824	0.1	
0.136366	-0.0453365	0.1	
0.130886	-0.100339	0.1	
0.0986719	-0.0360043	0.1	
0.0868431	-0.0680824	0.1	
0.12107	-0.0431928	0.2	
0.0512771	-0.0404658	0.154914	
0.114043	0.0943971	0.1	
0.0858783	0.0607949	0.1	
0.114815	0.0394603	0.1	
0.0969794	0.021072	0.155881	
-0.0566812	-0.183891	0.1	
-0.109965	-0.155382	0.1	
-0.110394	-0.216726	0.1	
-0.0529805	-0.19738	0.2	
-0.131315	0.16418	0.1	
-0.1869	0.140647	0.1	
-0.13855	0.104902	0.1	
-0.155635	0.172227	0.2	
-0.0758641	0.204419	0.2	
-0.075941	0.18593	0.1	
-0.0278782	0.153479	0.1	
-0.0880857	0.11829	0.2	
0.114815	0.0394603	0.1	
0.153315	0.00689278	0.1	
0.160735	0.0621263	0.1	
0.0969794	0.021072	0.155881	
0.0783782	0.19473	0.1	
0.129359	0.208003	0.1	
0.0750467	0.185499	0.2	
0.124146	0.156872	0.1	
0.201967	-0.00950962	0.2	
0.132963	0.044259	0.2	
0.204676	0.0233192	0.1	
0.153315	0.00689278	0.1	
-0.140177	0.0445127	0.1	
-0.104461	0.000932435	0.1	
-0.0944203	0.0353385	0.1	
-0.088703	-0.0138649	0.150815	
-0.00652201	0.151895	0.2	
-0.0733988	0.0716859	0.157752	
-0.0254114	0.106009	0.1	
0.0186333	0.101613	0.152058	
-0.0318198	0.0318198	0.1	
-0.0269211	0.0671862	0.1	
-0.0611924	0.0535755	0.1	
-0.0436673	0.0180876	0.150301	
-0.0566812	-0.183891	0.1	
-0.0142517	-0.205249	0.1	
-0.0203113	-0.154489	0.1	
-0.0529805	-0.19738	0.2	
0.160735	0.0621263	0.1	
0.144601	0.131477	0.2	
0.168985	0.119579	0.1	
0.114043	0.0943971	0.1	
-0.0529805	-0.19738	0.2	
-0.0142517	-0.205249	0.1	
-0.0203113	-0.154489	0.1	
0.0279075	-0.16395	0.2	
0.183564	-0.0903245	0.1	
0.190166	-0.0983881	0.2	
0.240073	-0.0744514	0.1	
0.194544	-0.0323862	0.1	
-0.13855	0.104902	0.1	
-0.0791922	0.124893	0.1	
-0.131315	0.16418	0.1	
-0.0880857	0.11829	0.2	
-0.0254114	0.106009	0.1	
-0.0278782	0.153479	0.1	
-0.00652201	0.151895	0.2	
0.0186333	0.101613	0.152058	
0.0207402	-0.174187	0.1	
0.0725059	-0.197526	0.1	
0.0587245	-0.143156	0.1	
0.062652	-0.118801	0.158114	
0.153315	0.00689278	0.1	
0.104819	-0.00331638	0.1	
0.136366	-0.0453365	0.1	
0.0969794	0.021072	0.155881	
-0.0232097	0.208019	0.1	
-0.0135764	0.270208	0.1	
-0.0674604	0.249371	0.1	
0.00604814	0.236488	0.2	
0.0750467	0.185499	0.2	
0.129359	0.208003	0.1	
0.0783782	0.19473	0.1	
0.0906227	0.254757	0.1	
0.129359	0.208003	0.1	
0.179715	0.179275	0.1	
0.154944	0.223937	0.2	
0.124146	0.156872	0.1	
0.0401753	-0.0586342	0.1	
0	-0.045	0.1	
0.00728726	-0.0832273	0.1	
-0.0200153	-0.0483211	0.151402	
-0.0254114	0.106009	0.1	
-0.0583523	0.0875158	0.1	
-0.0269211	0.0671862	0.1	
-0.0733988	0.0716859	0.157752	
-0.19804	0.0242816	0.1	
-0.140177	0.0445127	0.1	
-0.191044	0.0809942	0.1	
-0.169647	0.0846842	0.2	
0.0858783	0.0607949	0.1	
0.0741079	0.088115	0.1	
0.0550025	0.059172	0.1	
0.0396544	0.04868	0.156181	
-0.191044	0.0809942	0.1	
-0.247343	0.061739	0.1	
-0.19804	0.0242816	0.1	
-0.248332	0.050693	0.2	
-0.0712343	-0.0265969	0.1	
-0.0538392	-0.0535857	0.1	
-0.0318198	-0.0318198	0.1	
-0.0647576	-0.0686517	0.145827	
-0.0203113	-0.154489	0.1	
-0.0607822	-0.132192	0.1	
-0.0415815	-0.110392	0.2	
0.00260765	-0.105267	0.157285	
-0.131315	0.16418	0.1	
-0.075941	0.18593	0.1	
-0.121547	0.224354	0.1	
-0.0758641	0.204419	0.2	
-0.0529805	-0.19738	0.2	
-0.0607822	-0.132192	0.1	
-0.109965	-0.155382	0.1	
-0.12308	-0.143942	0.2	
0.0279075	-0.16395	0.2	
0.0207402	-0.174187	0.1	
0.0725059	-0.197526	0.1	
0.0204871	-0.24099	0.1	
-0.247343	0.061739	0.1	
-0.29431	0.0991694	0.1	
-0.304909	0.0444641	0.1	
-0.296313	0.0995627	0.2	
0.0318198	0.0318198	0.1	
0	0.045	0.1	
0.00677135	0.0163475	0.1	
0.0396544	0.04868	0.156181	
0.153315	0.00689278	0.1	
0.204676	0.0233192	0.1	
0.201967	-0.00950962	0.2	
0.194544	-0.0323862	0.1	
-0.0529805	-0.19738	0.2	
-0.0203113	-0.154489	0.1	
-0.0607822	-0.132192	0.1	
-0.0415815	-0.110392	0.2	
0.12107	-0.0431928	0.2	
0.190166	-0.0983881	0.2	
0.136366	-0.0453365	0.1	
0.194544	-0.0323862	0.1	
-0.116127	0.293072	0.1	
-0.121547	0.224354	0.1	
-0.0674604	0.249371	0.1	
-0.138104	0.243902	0.2	
-0.0318198	0.0318198	0.1	
-0.0201457	0.00856081	0.1	
0	0.045	0.1	
-0.0436673	0.0180876	0.150301	
-0.111587	-0.287654	0.1	
-0.0496677	-0.250381	0.1	
-0.110394	-0.216726	0.1	
-0.0659287	-0.28985	0.2	
0.0632975	0.0980676	0.2	
0.0396544	0.04868	0.156181	
0.0858783	0.0607949	0.1	
0.0969794	0.021072	0.155881	
-0.0254114	0.106009	0.1	
-0.0733988	0.0716859	0.157752	
-0.0269211	0.0671862	0.1	
0.0186333	0.101613	0.152058	
-0.0201457	0.00856081	0.1	
-0.045	0	0.1	
-0.0318198	-0.0318198	0.1	
-0.0436673	0.0180876	0.150301	
-0.109965	-0.155382	0.1	
-0.108753	-0.0943056	0.1	
-0.160221	-0.122206	0.1	
-0.12308	-0.143942	0.2	
-0.0203113	-0.154489	0.1	
-0.0251864	-0.106886	0.1	
-0.0607822	-0.132192	0.1	
0.00260765	-0.105267	0.157285	
0.0236281	0.174203	0.1	
-0.0232097	0.208019	0.1	
0.00604814	0.236488	0.2	
0.0312955	0.232251	0.1	
0.384421	-0.0378621	0.2	
0.45	0	0.15	
0.374822	-0.0324999	0.1	
0.387235	0.0357483	0.1	
-0.0606984	0.0243229	0.1	
-0.0611924	0.0535755	0.1	
-0.0944203	0.0353385	0.1	
-0.0733988	0.0716859	0.157752	
-0.217835	-0.151685	0.1	
-0.265692	-0.195501	0.2	
-0.269145	-0.181189	0.1	
-0.225546	-0.215121	0.1	
0.129359	0.208003	0.1	
0.154944	0.223937	0.2	
0.0750467	0.185499	0.2	
0.124146	0.156872	0.1	
0.204676	0.0233192	0.1	
0.132963	0.044259	0.2	
0.213357	0.0766959	0.2	
0.160735	0.0621263	0.1	
-0.0758641	0.204419	0.2	
-0.131315	0.16418	0.1	
-0.075941	0.18593	0.1	
-0.0880857	0.11829	0.2	
-0.0278782	0.153479	0.1	
-0.0232097	0.208019	0.1	
-0.0758641	0.204419	0.2	
-0.00652201	0.151895	0.2	
-0.256491	-0.0362829	0.2	
-0.203899	-0.0323666	0.1	
-0.253293	0.00301969	0.1	
-0.181323	-0.0027565	0.2	
-0.0529805	-0.19738	0.2	
-0.109965	-0.155382	0.1	
-0.110394	-0.216726	0.1	
-0.12308	-0.143942	0.2	
0.190166	-0.0983881	0.2	
0.201967	-0.00950962	0.2	
0.240073	-0.0744514	0.1	
0.194544	-0.0323862	0.1	
-0.29431	0.0991694	0.1	
-0.242461	0.118505	0.1	
-0.300257	0.152847	0.1	
-0.296313	0.0995627	0.2	
-0.160221	-0.122206	0.1	
-0.16441	-0.183508	0.1	
-0.109965	-0.155382	0.1	
-0.12308	-0.143942	0.2	
-0.00652201	0.151895	0.2	
-0.0880857	0.11829	0.2	
-0.0254114	0.106009	0.1	
-0.0733988	0.0716859	0.157752	
0.0864603	-0.112342	0.1	
0.110168	-0.152489	0.1	
0.130886	-0.100339	0.1	
0.062652	-0.118801	0.158114	
0	-0.045	0.1	
0.0202986	-0.00819178	0.1	
-0.00500969	-0.0120945	0.1	
0.0060848	-2.90377e-05	0.157763	
-0.0251864	-0.106886	0.1	
-0.0607822	-0.132192	0.1	
0.00260765	-0.105267	0.157285	
-0.0647576	-0.0686517	0.145827	
-0.155635	0.172227	0.2	
-0.13855	0.104902	0.1	
-0.131315	0.16418	0.1	
-0.0880857	0.11829	0.2	
-0.0944203	0.0353385	0.1	
-0.0737761	0.00176994	0.1	
-0.0606984	0.0243229	0.1	
-0.088703	-0.0138649	0.150815	
0.153315	0.00689278	0.1	
0.136366	-0.0453365	0.1	
0.12107	-0.0431928	0.2	
0.0969794	0.021072	0.155881	
-0.13855	0.104902	0.1	
-0.169647	0.0846842	0.2	
-0.140177	0.0445127	0.1	
-0.0733988	0.0716859	0.157752	
0.0714224	0.0228299	0.1	
0.045	0	0.1	
0.0662467	-0.0253248	0.1	
0.0969794	0.021072	0.155881	
0.0986719	-0.0360043	0.1	
0.104819	-0.00331638	0.1	
0.0662467	-0.0253248	0.1	
0.0969794	0.021072	0.155881	
-0.140177	0.0445127	0.1	
-0.0944203	0.0353385	0.1	
-0.0997698	0.0308567	0.2	
-0.088703	-0.0138649	0.150815	
-0.275518	-0.12132	0.2	
-0.279108	-0.122562	0.1	
-0.217835	-0.151685	0.1	
-0.269145	-0.181189	0.1	
-0.140177	0.0445127	0.1	
-0.0944203	0.0353385	0.1	
-0.0949426	0.0752698	0.1	
-0.0733988	0.0716859	0.157752	
0.190166	-0.0983881	0.2	
0.12107	-0.0431928	0.2	
0.136366	-0.0453365	0.1	
0.130886	-0.100339	0.1	
0.0986719	-0.0360043	0.1	
0.12107	-0.0431928	0.2	
0.136366	-0.0453365	0.1	
0.0969794	0.021072	0.155881	
-0.217835	-0.151685	0.1	
-0.160221	-0.122206	0.1	
-0.209136	-0.0909343	0.1	
-0.190622	-0.0884834	0.2	
0.26859	-0.0619166	0.2	
0.225509	-0.136032	0.1	
0.190166	-0.0983881	0.2	
0.240073	-0.0744514	0.1	
0.0691478	0.134694	0.1	
0.0750467	0.185499	0.2	
0.144601	0.131477	0.2	
0.124146	0.156872	0.1	
-0.0997698	0.0308567	0.2	
-0.140177	0.0445127	0.1	
-0.088703	-0.0138649	0.150815	
-0.142279	-0.0393203	0.151217	
0.00677135	0.0163475	0.1	
0.0202986	-0.00819178	0.1	
0.0318198	0.0318198	0.1	
0.0060848	-2.90377e-05	0.157763	
0.45	0	0.15	
0.384421	-0.0378621	0.2	
0.363227	0.0380543	0.2	
0.387235	0.0357483	0.1	
-0.265692	-0.195501	0.2	
-0.275518	-0.12132	0.2	
-0.217835	-0.151685	0.1	
-0.269145	-0.181189	0.1	
0.0922363	-0.215793	0.2	
0.110168	-0.152489	0.1	
0.0725059	-0.197526	0.1	
0.062652	-0.118801	0.158114	
0.0401753	-0.0586342	0.1	
0.00728726	-0.0832273	0.1	
0.0488551	-0.0983509	0.1	
0.00260765	-0.105267	0.157285	
0.183564	-0.0903245	0.1	
0.168154	-0.150165	0.1	
0.190166	-0.0983881	0.2	
0.130886	-0.100339	0.1	
0.201967	-0.00950962	0.2	
0.153315	0.00689278	0.1	
0.12107	-0.0431928	0.2	
0.0969794	0.021072	0.155881	
-0.304909	0.0444641	0.1	
-0.29431	0.0991694	0.1	
-0.355442	0.107822	0.1	
-0.296313	0.0995627	0.2	
0.0139627	0.124614	0.1	
0.0691478	0.134694	0.1	
0.0236281	0.174203	0.1	
0.0186333	0.101613	0.152058	
0.255462	0.038247	0.1	
0.201967	-0.00950962	0.2	
0.213357	0.0766959	0.2	
0.204676	0.0233192	0.1	
-0.140177	0.0445127	0.1	
-0.0997698	0.0308567	0.2	
-0.0944203	0.0353385	0.1	
-0.0733988	0.0716859	0.157752	
-0.256491	-0.0362829	0.2	
-0.253293	0.00301969	0.1	
-0.203899	-0.0323666	0.1	
-0.258057	-0.0572365	0.1	
-0.379429	-0.0366192	0.2	
-0.389559	0.0336032	0.2	
-0.372975	0.0289182	0.1	
-0.45	0	0.15	
-0.170075	-0.251953	0.1	
-0.16441	-0.183508	0.1	
-0.225546	-0.215121	0.1	
-0.201609	-0.173762	0.2	
0.0202986	-0.00819178	0.1	
0.0318198	-0.0318198	0.1	
0.045	0	0.1	
0.0512771	-0.0404658	0.154914	
0.0207402	-0.174187	0.1	
0.0142935	-0.12453	0.1	
-0.0203113	-0.154489	0.1	
0.00260765	-0.105267	0.157285	
0.160735	0.0621263	0.1	
0.168985	0.119579	0.1	
0.213357	0.0766959	0.2	
0.216596	0.0778377	0.1	
-0.12308	-0.143942	0.2	
-0.0415815	-0.110392	0.2	
-0.0607822	-0.132192	0.1	
-0.0647576	-0.0686517	0.145827	
0.0632975	0.0980676	0.2	
0.0691478	0.134694	0.1	
0.0741079	0.088115	0.1	
0.0186333	0.101613	0.152058	
0.0725059	-0.197526	0.1	
0.082636	-0.254415	0.1	
0.0922363	-0.215793	0.2	
0.0204871	-0.24099	0.1	
-0.169647	0.0846842	0.2	
-0.19804	0.0242816	0.1	
-0.140177	0.0445127	0.1	
-0.181323	-0.0027565	0.2	
0.213357	0.0766959	0.2	
0.204676	0.0233192	0.1	
0.160735	0.0621263	0.1	
0.216596	0.0778377	0.1	
0.0447484	0.293988	0.1	
0.00604814	0.236488	0.2	
-0.0135764	0.270208	0.1	
0.0312955	0.232251	0.1	
0.160735	0.0621263	0.1	
0.132963	0.044259	0.2	
0.114043	0.0943971	0.1	
0.0969794	0.021072	0.155881	
-0.247343	0.061739	0.1	
-0.253293	0.00301969	0.1	
-0.19804	0.0242816	0.1	
-0.248332	0.050693	0.2	
-0.0529805	-0.19738	0.2	
0.0279075	-0.16395	0.2	
-0.0203113	-0.154489	0.1	
0.00260765	-0.105267	0.157285	
0.114043	0.0943971	0.1	
0.0632975	0.0980676	0.2	
0.144601	0.131477	0.2	
0.0691478	0.134694	0.1	
-0.275518	-0.12132	0.2	
-0.312956	-0.0762135	0.1	
-0.318623	-0.0616012	0.2	
-0.258057	-0.0572365	0.1	
-0.175847	0.204716	0.1	
-0.131315	0.16418	0.1	
-0.121547	0.224354	0.1	
-0.155635	0.172227	0.2	
0.255462	0.038247	0.1	
0.281012	0.0229437	0.2	
0.201967	-0.00950962	0.2	
0.251733	-0.014256	0.1	
-0.242461	0.118505	0.1	
-0.191044	0.0809942	0.1	
-0.169647	0.0846842	0.2	
-0.248332	0.050693	0.2	
-0.203899	-0.0323666	0.1	
-0.209136	-0.0909343	0.1	
-0.157075	-0.0653284	0.1	
-0.142279	-0.0393203	0.151217	
-0.075941	0.18593	0.1	
-0.0232097	0.208019	0.1	
-0.0674604	0.249371	0.1	
-0.0758641	0.204419	0.2	
0.132963	0.044259	0.2	
0.160735	0.0621263	0.1	
0.153315	0.00689278	0.1	
0.0969794	0.021072	0.155881	
0.201967	-0.00950962	0.2	
0.204676	0.0233192	0.1	
0.251733	-0.014256	0.1	
0.194544	-0.0323862	0.1	
0.268615	-0.174062	0.1	
0.287124	-0.235637	0.1	
0.216652	-0.249073	0.2	
0.211584	-0.20097	0.1	
0	0.045	0.1	
0.0396544	0.04868	0.156181	
-0.0182151	0.0644617	0.2	
-0.0436673	0.0180876	0.150301	
0.240073	-0.0744514	0.1	
0.225509	-0.136032	0.1	
0.190166	-0.0983881	0.2	
0.183564	-0.0903245	0.1	
0.045	0	0.1	
0.0714224	0.0228299	0.1	
0.0318198	0.0318198	0.1	
0.0396544	0.04868	0.156181	
0.00604814	0.236488	0.2	
0.0750467	0.185499	0.2	
0.0236281	0.174203	0.1	
0.0312955	0.232251	0.1	
-0.237687	0.180874	0.1	
-0.175847	0.204716	0.1	
-0.207714	0.236511	0.2	
-0.155635	0.172227	0.2	
-0.0339688	0.375665	0.2	
-0.0572929	0.316053	0.1	
-0.00311199	0.32667	0.1	
-0.0730421	0.296762	0.2	
-0.0269211	0.0671862	0.1	
0.00442099	0.0829354	0.1	
-0.0254114	0.106009	0.1	
0.0186333	0.101613	0.152058	
-0.209136	-0.0909343	0.1	
-0.258057	-0.0572365	0.1	
-0.275518	-0.12132	0.2	
-0.190622	-0.0884834	0.2	
-0.0415815	-0.110392	0.2	
-0.0529805	-0.19738	0.2	
-0.0203113	-0.154489	0.1	
0.00260765	-0.105267	0.157285	
0.160735	0.0621263	0.1	
0.132963	0.044259	0.2	
0.144601	0.131477	0.2	
0.114043	0.0943971	0.1	
-0.13855	0.104902	0.1	
-0.0949426	0.0752698	0.1	
-0.0791922	0.124893	0.1	
-0.0733988	0.0716859	0.157752	
-0.191044	0.0809942	0.1	
-0.13855	0.104902	0.1	
-0.1869	0.140647	0.1	
-0.169647	0.0846842	0.2	
-0.217835	-0.151685	0.1	
-0.279108	-0.122562	0.1	
-0.275518	-0.12132	0.2	
-0.209136	-0.0909343	0.1	
-0.312956	-0.0762135	0.1	
-0.312659	-0.0214623	0.1	
-0.318623	-0.0616012	0.2	
-0.258057	-0.0572365	0.1	
0.132963	0.044259	0.2	
0.153315	0.00689278	0.1	
0.201967	-0.00950962	0.2	
0.0969794	0.021072	0.155881	
-0.279108	-0.122562	0.1	
-0.312956	-0.0762135	0.1	
-0.275518	-0.12132	0.2	
-0.258057	-0.0572365	0.1	
-0.253293	0.00301969	0.1	
-0.19804	0.0242816	0.1	
-0.248332	0.050693	0.2	
-0.181323	-0.0027565	0.2	
0.0236281	0.174203	0.1	
0.0750467	0.185499	0.2	
-0.00652201	0.151895	0.2	
0.0186333	0.101613	0.152058	
0.238182	0.208514	0.1	
0.297412	0.240191	0.2	
0.294509	0.157311	0.1	
0.304312	0.234791	0.1	
0.0207402	-0.174187	0.1	
-0.0203113	-0.154489	0.1	
0.0279075	-0.16395	0.2	
0.00260765	-0.105267	0.157285	
0.331486	-0.177371	0.1	
0.287124	-0.235637	0.1	
0.339399	-0.183579	0.2	
0.268615	-0.174062	0.1	
0.12107	-0.0431928	0.2	
0.0512771	-0.0404658	0.154914	
0.0868431	-0.0680824	0.1	
0.062652	-0.118801	0.158114	
-0.258057	-0.0572365	0.1	
-0.275518	-0.12132	0.2	
-0.279108	-0.122562	0.1	
-0.209136	-0.0909343	0.1	
-0.0572929	0.316053	0.1	
-0.10824	0.362258	0.1	
-0.108028	0.370407	0.2	
-0.0339688	0.375665	0.2	
0.0741079	0.088115	0.1	
0.0405437	0.0931998	0.1	
0.0550025	0.059172	0.1	
0.0396544	0.04868	0.156181	
0.130886	-0.100339	0.1	
0.168154	-0.150165	0.1	
0.108307	-0.130924	0.2	
0.110168	-0.152489	0.1	
0.0318198	0.0318198	0.1	
0.0202986	-0.00819178	0.1	
0.045	0	0.1	
0.0060848	-2.90377e-05	0.157763	
-0.0276628	-0.367444	0.1	
0.0404591	-0.377182	0.2	
0	-0.45	0.15	
0.044217	-0.387842	0.1	
-0.0730421	0.296762	0.2	
-0.0135764	0.270208	0.1	
-0.00311199	0.32667	0.1	
0.0210919	0.316201	0.2	
-0.161049	0.262379	0.1	
-0.175847	0.204716	0.1	
-0.121547	0.224354	0.1	
-0.138104	0.243902	0.2	
-0.0572929	0.316053	0.1	
-0.00311199	0.32667	0.1	
-0.0358979	0.379949	0.1	
-0.0339688	0.375665	0.2	
0.00604814	0.236488	0.2	
-0.00652201	0.151895	0.2	
-0.0232097	0.208019	0.1	
0.0236281	0.174203	0.1	
0	-0.045	0.1	
0.0401753	-0.0586342	0.1	
0.0318198	-0.0318198	0.1	
0.0512771	-0.0404658	0.154914	
-0.209136	-0.0909343	0.1	
-0.275518	-0.12132	0.2	
-0.217835	-0.151685	0.1	
-0.190622	-0.0884834	0.2	
0.287124	-0.235637	0.1	
0.29265	-0.244884	0.2	
0.339399	-0.183579	0.2	
0.268615	-0.174062	0.1	
-0.0607822	-0.132192	0.1	
-0.0251864	-0.106886	0.1	
-0.0619298	-0.0870419	0.1	
-0.0647576	-0.0686517	0.145827	
0.0714224	0.0228299	0.1	
0.0858783	0.0607949	0.1	
0.0550025	0.059172	0.1	
0.0396544	0.04868	0.156181	
0.138545	-0.218367	0.1	
0.0922363	-0.215793	0.2	
0.174426	-0.185564	0.2	
0.110168	-0.152489	0.1	
-0.0880857	0.11829	0.2	
-0.0278782	0.153479	0.1	
-0.0758641	0.204419	0.2	
-0.00652201	0.151895	0.2	
0.204676	0.0233192	0.1	
0.213357	0.0766959	0.2	
0.255462	0.038247	0.1	
0.216596	0.0778377	0.1	
-0.190622	-0.0884834	0.2	
-0.12308	-0.143942	0.2	
-0.160221	-0.122206	0.1	
-0.142279	-0.0393203	0.151217	
-0.1869	0.140647	0.1	
-0.242461	0.118505	0.1	
-0.169647	0.0846842	0.2	
-0.244028	0.149971	0.2	
-0.10824	0.362258	0.1	
-0.0572929	0.316053	0.1	
-0.0358979	0.379949	0.1	
-0.0339688	0.375665	0.2	
0.110168	-0.152489	0.1	
0.138545	-0.218367	0.1	
0.0922363	-0.215793	0.2	
0.0725059	-0.197526	0.1	
-0.0318198	-0.0318198	0.1	
-0.0436673	0.0180876	0.150301	
-0.045	0	0.1	
-0.088703	-0.0138649	0.150815	
-0.29175	-0.237189	0.1	
-0.265692	-0.195501	0.2	
-0.298599	-0.245054	0.2	
-0.225546	-0.215121	0.1	
-0.0566812	-0.183891	0.1	
-0.110394	-0.216726	0.1	
-0.0496677	-0.250381	0.1	
-0.0529805	-0.19738	0.2	
0.0381609	0.387454	0.2	
-0.00311199	0.32667	0.1	
-0.0339688	0.375665	0.2	
0.0450774	0.367889	0.1	
-0.16441	-0.183508	0.1	
-0.160221	-0.122206	0.1	
-0.217835	-0.151685	0.1	
-0.201609	-0.173762	0.2	
0.213357	0.0766959	0.2	
0.230865	0.135658	0.1	
0.287454	0.0808414	0.1	
0.216596	0.0778377	0.1	
-0.155635	0.172227	0.2	
-0.1869	0.140647	0.1	
-0.13855	0.104902	0.1	
-0.169647	0.0846842	0.2	
-0.279108	-0.122562	0.1	
-0.312956	-0.0762135	0.1	
-0.356724	-0.11546	0.1	
-0.275518	-0.12132	0.2	
0.0741079	0.088115	0.1	
0.0691478	0.134694	0.1	
0.0405437	0.0931998	0.1	
0.0186333	0.101613	0.152058	
-0.248332	0.050693	0.2	
-0.242461	0.118505	0.1	
-0.247343	0.061739	0.1	
-0.296313	0.0995627	0.2	
-0.0758641	0.204419	0.2	
-0.0232097	0.208019	0.1	
-0.0674604	0.249371	0.1	
0.00604814	0.236488	0.2	
0.168154	-0.150165	0.1	
0.138545	-0.218367	0.1	
0.174426	-0.185564	0.2	
0.110168	-0.152489	0.1	
-0.0496677	-0.250381	0.1	
-0.0142517	-0.205249	0.1	
-0.0529805	-0.19738	0.2	
0.0148093	-0.246449	0.2	
0.0750467	0.185499	0.2	
0.0872949	0.269115	0.2	
0.0906227	0.254757	0.1	
0.0312955	0.232251	0.1	
-0.140177	0.0445127	0.1	
-0.13855	0.104902	0.1	
-0.191044	0.0809942	0.1	
-0.169647	0.0846842	0.2	
-0.108753	-0.0943056	0.1	
-0.111446	-0.0565624	0.2	
-0.12308	-0.143942	0.2	
-0.0647576	-0.0686517	0.145827	
0.00677135	0.0163475	0.1	
0.0060848	-2.90377e-05	0.157763	
0	0.045	0.1	
-0.0436673	0.0180876	0.150301	
0.287454	0.0808414	0.1	
0.255462	0.038247	0.1	
0.213357	0.0766959	0.2	
0.216596	0.0778377	0.1	
-0.12308	-0.143942	0.2	
-0.111446	-0.0565624	0.2	
-0.108753	-0.0943056	0.1	
-0.142279	-0.0393203	0.151217	
-0.269145	-0.181189	0.1	
-0.327578	-0.175094	0.2	
-0.279108	-0.122562	0.1	
-0.331484	-0.17939	0.1	
-0.0278782	0.153479	0.1	
0.0236281	0.174203	0.1	
-0.00652201	0.151895	0.2	
0.0186333	0.101613	0.152058	
-0.0572929	0.316053	0.1	
-0.0674604	0.249371	0.1	
-0.0135764	0.270208	0.1	
-0.0730421	0.296762	0.2	
0	0.045	0.1	
0.0060848	-2.90377e-05	0.157763	
0.0396544	0.04868	0.156181	
-0.0436673	0.0180876	0.150301	
-0.155635	0.172227	0.2	
-0.131315	0.16418	0.1	
-0.121547	0.224354	0.1	
-0.0758641	0.204419	0.2	
-0.13855	0.104902	0.1	
-0.0791922	0.124893	0.1	
-0.0880857	0.11829	0.2	
-0.0733988	0.0716859	0.157752	
-0.0997698	0.0308567	0.2	
-0.181323	-0.0027565	0.2	
-0.140177	0.0445127	0.1	
-0.142279	-0.0393203	0.151217	
0.168154	-0.150165	0.1	
0.108307	-0.130924	0.2	
0.190166	-0.0983881	0.2	
0.130886	-0.100339	0.1	
-0.0566812	-0.183891	0.1	
-0.0496677	-0.250381	0.1	
-0.0142517	-0.205249	0.1	
-0.0529805	-0.19738	0.2	
-0.1869	0.140647	0.1	
-0.131315	0.16418	0.1	
-0.175847	0.204716	0.1	
-0.155635	0.172227	0.2	
-0.0607822	-0.132192	0.1	
-0.0619298	-0.0870419	0.1	
-0.108753	-0.0943056	0.1	
-0.0647576	-0.0686517	0.145827	
0.180378	0.336857	0.1	
0.285477	0.347855	0.149953	
0.18581	0.349201	0.2	
0.245754	0.289669	0.1	
0.0714224	0.0228299	0.1	
0.0396544	0.04868	0.156181	
0.045	0	0.1	
0.0969794	0.021072	0.155881	
-0.0496677	-0.250381	0.1	
-0.0142517	-0.205249	0.1	
0.0148093	-0.246449	0.2	
0.0204871	-0.24099	0.1	
-0.138104	0.243902	0.2	
-0.121547	0.224354	0.1	
-0.0674604	0.249371	0.1	
-0.0758641	0.204419	0.2	
0.045	0	0.1	
0.0396544	0.04868	0.156181	
0.0060848	-2.90377e-05	0.157763	
0.0512771	-0.0404658	0.154914	
0.0872949	0.269115	0.2	
0.0447484	0.293988	0.1	
0.0906227	0.254757	0.1	
0.0312955	0.232251	0.1	
0.132963	0.044259	0.2	
0.0632975	0.0980676	0.2	
0.114043	0.0943971	0.1	
0.0969794	0.021072	0.155881	
-0.121547	0.224354	0.1	
-0.075941	0.18593	0.1	
-0.0674604	0.249371	0.1	
-0.0758641	0.204419	0.2	
0.0750467	0.185499	0.2	
0.0691478	0.134694	0.1	
0.0632975	0.0980676	0.2	
0.0186333	0.101613	0.152058	
-0.161049	0.262379	0.1	
-0.121547	0.224354	0.1	
-0.116127	0.293072	0.1	
-0.138104	0.243902	0.2	
0.26859	-0.0619166	0.2	
0.261818	-0.161797	0.2	
0.225509	-0.136032	0.1	
0.287371	-0.120299	0.1	
-0.0318198	-0.0318198	0.1	
-0.00500969	-0.0120945	0.1	
-0.0436673	0.0180876	0.150301	
-0.0200153	-0.0483211	0.151402	
0.110168	-0.152489	0.1	
0.0587245	-0.143156	0.1	
0.0725059	-0.197526	0.1	
0.062652	-0.118801	0.158114	
-0.0730421	0.296762	0.2	
-0.0674604	0.249371	0.1	
-0.0135764	0.270208	0.1	
0.00604814	0.236488	0.2	
-0.0182151	0.0644617	0.2	
0.0396544	0.04868	0.156181	
0	0.045	0.1	
0.0186333	0.101613	0.152058	
-0.237687	0.180874	0.1	
-0.1869	0.140647	0.1	
-0.155635	0.172227	0.2	
-0.244028	0.149971	0.2	
-0.00311199	0.32667	0.1	
-0.0358979	0.379949	0.1	
-0.0339688	0.375665	0.2	
0.0450774	0.367889	0.1	
0.430623	-0.130628	0.149953	
0.446786	-0.053688	0.149994	
0.357114	-0.107098	0.1	
0.384421	-0.0378621	0.2	
0.174426	-0.185564	0.2	
0.225509	-0.136032	0.1	
0.211584	-0.20097	0.1	
0.168154	-0.150165	0.1	
0.0210919	0.316201	0.2	
-0.0135764	0.270208	0.1	
-0.00311199	0.32667	0.1	
0.0447484	0.293988	0.1	
0.363227	0.0380543	0.2	
0.369533	0.112832	0.2	
0.446786	0.053688	0.149994	
0.387235	0.0357483	0.1	
-0.10824	0.362258	0.1	
-0.130628	0.430623	0.150047	
-0.212133	0.396862	0.150011	
-0.108028	0.370407	0.2	
-0.169647	0.0846842	0.2	
-0.191044	0.0809942	0.1	
-0.19804	0.0242816	0.1	
-0.248332	0.050693	0.2	
-0.279108	-0.122562	0.1	
-0.275518	-0.12132	0.2	
-0.327578	-0.175094	0.2	
-0.269145	-0.181189	0.1	
0.190166	-0.0983881	0.2	
0.12107	-0.0431928	0.2	
0.201967	-0.00950962	0.2	
0.194544	-0.0323862	0.1	
0.179715	0.179275	0.1	
0.173936	0.254382	0.1	
0.154944	0.223937	0.2	
0.238182	0.208514	0.1	
0.255462	0.038247	0.1	
0.213357	0.0766959	0.2	
0.281012	0.0229437	0.2	
0.287454	0.0808414	0.1	
0.12107	-0.0431928	0.2	
0.0986719	-0.0360043	0.1	
0.0512771	-0.0404658	0.154914	
0.0969794	0.021072	0.155881	
0.268615	-0.174062	0.1	
0.216652	-0.249073	0.2	
0.261818	-0.161797	0.2	
0.211584	-0.20097	0.1	
0.168154	-0.150165	0.1	
0.190166	-0.0983881	0.2	
0.225509	-0.136032	0.1	
0.183564	-0.0903245	0.1	
0.174426	-0.185564	0.2	
0.190166	-0.0983881	0.2	
0.225509	-0.136032	0.1	
0.168154	-0.150165	0.1	
0.168985	0.119579	0.1	
0.144601	0.131477	0.2	
0.213357	0.0766959	0.2	
0.230865	0.135658	0.1	
0.213357	0.0766959	0.2	
0.144601	0.131477	0.2	
0.168985	0.119579	0.1	
0.160735	0.0621263	0.1	
-0.0232097	0.208019	0.1	
-0.0135764	0.270208	0.1	
0.00604814	0.236488	0.2	
0.0312955	0.232251	0.1	
0.230865	0.135658	0.1	
0.213357	0.0766959	0.2	
0.168985	0.119579	0.1	
0.216596	0.0778377	0.1	
-0.256491	-0.0362829	0.2	
-0.275518	-0.12132	0.2	
-0.258057	-0.0572365	0.1	
-0.190622	-0.0884834	0.2	
0.0210919	0.316201	0.2	
-0.00311199	0.32667	0.1	
-0.0339688	0.375665	0.2	
0.0381609	0.387454	0.2	
-0.379429	-0.0366192	0.2	
-0.372975	0.0289182	0.1	
-0.373197	-0.0467972	0.1	
-0.45	0	0.15	
-0.181323	-0.0027565	0.2	
-0.190622	-0.0884834	0.2	
-0.203899	-0.0323666	0.1	
-0.142279	-0.0393203	0.151217	
0.0447484	0.293988	0.1	
0.0872949	0.269115	0.2	
0.00604814	0.236488	0.2	
0.0312955	0.232251	0.1	
-0.256491	-0.0362829	0.2	
-0.312659	-0.0214623	0.1	
-0.253293	0.00301969	0.1	
-0.258057	-0.0572365	0.1	
-0.160221	-0.122206	0.1	
-0.217835	-0.151685	0.1	
-0.201609	-0.173762	0.2	
-0.190622	-0.0884834	0.2	
0.251733	-0.014256	0.1	
0.26859	-0.0619166	0.2	
0.201967	-0.00950962	0.2	
0.240073	-0.0744514	0.1	
0.12107	-0.0431928	0.2	
0.130886	-0.100339	0.1	
0.108307	-0.130924	0.2	
0.062652	-0.118801	0.158114	
-0.29431	0.0991694	0.1	
-0.300257	0.152847	0.1	
-0.355442	0.107822	0.1	
-0.296313	0.0995627	0.2	
0.173936	0.254382	0.1	
0.154944	0.223937	0.2	
0.155004	0.296903	0.2	
0.0906227	0.254757	0.1	
-0.203899	-0.0323666	0.1	
-0.19804	0.0242816	0.1	
-0.181323	-0.0027565	0.2	
-0.142279	-0.0393203	0.151217	
-0.320541	0.0201981	0.2	
-0.312659	-0.0214623	0.1	
-0.253293	0.00301969	0.1	
-0.256491	-0.0362829	0.2	
0.212129	-0.396865	0.149953	
0.130628	-0.430623	0.149953	
0.111895	-0.372646	0.2	
0.109857	-0.362973	0.1	
-0.12308	-0.143942	0.2	
-0.0529805	-0.19738	0.2	
-0.0607822	-0.132192	0.1	
-0.0415815	-0.110392	0.2	
0.0404591	-0.377182	0.2	
-0.0383965	-0.372403	0.2	
-0.0276628	-0.367444	0.1	
0	-0.45	0.15	
-0.133674	-0.228308	0.2	
-0.111587	-0.287654	0.1	
-0.110394	-0.216726	0.1	
-0.0659287	-0.28985	0.2	
-0.133674	-0.228308	0.2	
-0.110394	-0.216726	0.1	
-0.16441	-0.183508	0.1	
-0.12308	-0.143942	0.2	
-0.292926	0.235471	0.1	
-0.300257	0.152847	0.1	
-0.237687	0.180874	0.1	
-0.287124	0.235637	0.2	
-0.0269211	0.0671862	0.1	
-0.0436673	0.0180876	0.150301	
-0.0182151	0.0644617	0.2	
-0.0733988	0.0716859	0.157752	
0.0922363	-0.215793	0.2	
0.147007	-0.259035	0.2	
0.082636	-0.254415	0.1	
0.138545	-0.218367	0.1	
0	0.045	0.1	
0.0060848	-2.90377e-05	0.157763	
0.00677135	0.0163475	0.1	
0.0396544	0.04868	0.156181	
-0.0269211	0.0671862	0.1	
-0.0583523	0.0875158	0.1	
-0.0611924	0.0535755	0.1	
-0.0733988	0.0716859	0.157752	
0.0204871	-0.24099	0.1	
0.082636	-0.254415	0.1	
0.0148093	-0.246449	0.2	
0.0511003	-0.317442	0.1	
0.0986719	-0.0360043	0.1	
0.0662467	-0.0253248	0.1	
0.0512771	-0.0404658	0.154914	
0.0969794	0.021072	0.155881	
0.446786	-0.053688	0.149994	
0.374822	-0.0324999	0.1	
0.357114	-0.107098	0.1	
0.384421	-0.0378621	0.2	
-0.285477	0.347854	0.150033	
-0.251772	0.306785	0.1	
-0.212133	0.396862	0.150011	
-0.248262	0.29482	0.2	
0.114043	0.0943971	0.1	
0.144601	0.131477	0.2	
0.168985	0.119579	0.1	
0.124146	0.156872	0.1	
-0.16441	-0.183508	0.1	
-0.160221	-0.122206	0.1	
-0.201609	-0.173762	0.2	
-0.12308	-0.143942	0.2	
-0.292926	0.235471	0.1	
-0.217513	0.254621	0.1	
-0.251772	0.306785	0.1	
-0.248262	0.29482	0.2	
0.339399	-0.183579	0.2	
0.430623	-0.130628	0.149953	
0.396865	-0.212129	0.149953	
0.331486	-0.177371	0.1	
0.111895	-0.372646	0.2	
0.130628	-0.430623	0.149953	
0.053688	-0.446786	0.149994	
0.044217	-0.387842	0.1	
-0.0606984	0.0243229	0.1	
-0.0436673	0.0180876	0.150301	
-0.0611924	0.0535755	0.1	
-0.0733988	0.0716859	0.157752	
0.0396544	0.04868	0.156181	
0.0512771	-0.0404658	0.154914	
0.045	0	0.1	
0.0969794	0.021072	0.155881	
0.129359	0.208003	0.1	
0.154944	0.223937	0.2	
0.173936	0.254382	0.1	
0.0906227	0.254757	0.1	
-0.0269211	0.0671862	0.1	
-0.0611924	0.0535755	0.1	
-0.0436673	0.0180876	0.150301	
-0.0733988	0.0716859	0.157752	
0.212129	-0.396865	0.149953	
0.111895	-0.372646	0.2	
0.175084	-0.3275	0.2	
0.109857	-0.362973	0.1	
-0.173995	-0.331361	0.1	
-0.237792	-0.287474	0.1	
-0.212128	-0.396865	0.149972	
-0.182092	-0.340669	0.2	
-0.237687	0.180874	0.1	
-0.217513	0.254621	0.1	
-0.292926	0.235471	0.1	
-0.287124	0.235637	0.2	
0.355442	0.107822	0.1	
0.446786	0.053688	0.149994	
0.369533	0.112832	0.2	
0.387235	0.0357483	0.1	
0.430623	0.130628	0.149953	
0.369533	0.112832	0.2	
0.396865	0.212129	0.149953	
0.349981	0.18562	0.1	
0.287371	-0.120299	0.1	
0.348465	-0.103096	0.2	
0.339399	-0.183579	0.2	
0.331486	-0.177371	0.1	
-0.446786	0.0536856	0.15	
-0.372975	0.0289182	0.1	
-0.362114	0.10176	0.2	
-0.389559	0.0336032	0.2	
-0.29175	-0.237189	0.1	
-0.347855	-0.285477	0.149967	
-0.298599	-0.245054	0.2	
-0.331484	-0.17939	0.1	
0.045	0	0.1	
0.0512771	-0.0404658	0.154914	
0.0662467	-0.0253248	0.1	
0.0969794	0.021072	0.155881	
-0.212128	-0.396865	0.149972	
-0.237792	-0.287474	0.1	
-0.285477	-0.347855	0.149972	
-0.182092	-0.340669	0.2	
-0.138104	0.243902	0.2	
-0.175847	0.204716	0.1	
-0.121547	0.224354	0.1	
-0.155635	0.172227	0.2	
-0.237792	-0.287474	0.1	
-0.347855	-0.285477	0.149967	
-0.298599	-0.245054	0.2	
-0.29175	-0.237189	0.1	
0.0279075	-0.16395	0.2	
0.0725059	-0.197526	0.1	
0.0207402	-0.174187	0.1	
0.062652	-0.118801	0.158114	
0.053688	-0.446786	0.149994	
0.0404591	-0.377182	0.2	
0.111895	-0.372646	0.2	
0.044217	-0.387842	0.1	
0.0922363	-0.215793	0.2	
0.108307	-0.130924	0.2	
0.174426	-0.185564	0.2	
0.110168	-0.152489	0.1	
0.130628	0.430623	0.149953	
0.120589	0.374273	0.1	
0.107822	0.355442	0.2	
0.053688	0.446786	0.149994	
0.138545	-0.218367	0.1	
0.147007	-0.259035	0.2	
0.082636	-0.254415	0.1	
0.134408	-0.294741	0.1	
0.261818	-0.161797	0.2	
0.339399	-0.183579	0.2	
0.29265	-0.244884	0.2	
0.268615	-0.174062	0.1	
-0.0730421	0.296762	0.2	
-0.116127	0.293072	0.1	
-0.0674604	0.249371	0.1	
-0.138104	0.243902	0.2	
-0.247343	0.061739	0.1	
-0.304909	0.0444641	0.1	
-0.253293	0.00301969	0.1	
-0.248332	0.050693	0.2	
-0.108753	-0.0943056	0.1	
-0.111446	-0.0565624	0.2	
-0.0647576	-0.0686517	0.145827	
-0.142279	-0.0393203	0.151217	
-0.253293	0.00301969	0.1	
-0.304909	0.0444641	0.1	
-0.312659	-0.0214623	0.1	
-0.320541	0.0201981	0.2	
-0.347855	0.285477	0.150034	
-0.292926	0.235471	0.1	
-0.251772	0.306785	0.1	
-0.248262	0.29482	0.2	
0.045	0	0.1	
0.0318198	0.0318198	0.1	
0.0060848	-2.90377e-05	0.157763	
0.0396544	0.04868	0.156181	
-0.182284	0.324323	0.1	
-0.212133	0.396862	0.150011	
-0.251772	0.306785	0.1	
-0.248262	0.29482	0.2	
0.168154	-0.150165	0.1	
0.174426	-0.185564	0.2	
0.108307	-0.130924	0.2	
0.110168	-0.152489	0.1	
0.117493	0.309521	0.1	
0.173936	0.254382	0.1	
0.155004	0.296903	0.2	
0.0906227	0.254757	0.1	
-0.0659287	-0.28985	0.2	
-0.0137107	-0.295895	0.1	
-0.0496677	-0.250381	0.1	
0.0148093	-0.246449	0.2	
0.044217	-0.387842	0.1	
0.00378559	-0.316996	0.2	
0.0404591	-0.377182	0.2	
0.0511003	-0.317442	0.1	
-0.161049	0.262379	0.1	
-0.175847	0.204716	0.1	
-0.138104	0.243902	0.2	
-0.207714	0.236511	0.2	
-0.173131	0.322508	0.2	
-0.161049	0.262379	0.1	
-0.116127	0.293072	0.1	
-0.138104	0.243902	0.2	
0.26859	-0.0619166	0.2	
0.324791	-0.0252069	0.2	
0.303447	-0.0554764	0.1	
0.251733	-0.014256	0.1	
-0.173995	-0.331361	0.1	
-0.130611	-0.430628	0.15	
-0.112928	-0.360216	0.2	
-0.182092	-0.340669	0.2	
0.304312	0.234791	0.1	
0.238182	0.208514	0.1	
0.297412	0.240191	0.2	
0.245754	0.289669	0.1	
-0.108028	0.370407	0.2	
-0.10824	0.362258	0.1	
-0.116127	0.293072	0.1	
-0.173131	0.322508	0.2	
0.0587245	-0.143156	0.1	
0.0142935	-0.12453	0.1	
0.0207402	-0.174187	0.1	
0.062652	-0.118801	0.158114	
-0.0201457	0.00856081	0.1	
0.0060848	-2.90377e-05	0.157763	
0.00677135	0.0163475	0.1	
-0.0436673	0.0180876	0.150301	
-0.203899	-0.0323666	0.1	
-0.190622	-0.0884834	0.2	
-0.209136	-0.0909343	0.1	
-0.142279	-0.0393203	0.151217	
0.0207402	-0.174187	0.1	
0.062652	-0.118801	0.158114	
0.0142935	-0.12453	0.1	
0.00260765	-0.105267	0.157285	
-0.285477	-0.347855	0.149972	
-0.347855	-0.285477	0.149967	
-0.298599	-0.245054	0.2	
-0.237792	-0.287474	0.1	
0.0922363	-0.215793	0.2	
0.108307	-0.130924	0.2	
0.110168	-0.152489	0.1	
0.062652	-0.118801	0.158114	
-0.0276628	-0.367444	0.1	
0.00378559	-0.316996	0.2	
0.0404591	-0.377182	0.2	
0.044217	-0.387842	0.1	
-0.396865	-0.212129	0.149995	
-0.298599	-0.245054	0.2	
-0.347855	-0.285477	0.149967	
-0.331484	-0.17939	0.1	
0.0447484	0.293988	0.1	
0.107822	0.355442	0.2	
0.0872949	0.269115	0.2	
0.117493	0.309521	0.1	
0.168985	0.119579	0.1	
0.144601	0.131477	0.2	
0.179715	0.179275	0.1	
0.124146	0.156872	0.1	
0.212129	0.396865	0.149953	
0.285477	0.347855	0.149953	
0.18581	0.349201	0.2	
0.180378	0.336857	0.1	
0.339399	-0.183579	0.2	
0.396865	-0.212129	0.149953	
0.347855	-0.285477	0.149953	
0.331486	-0.177371	0.1	
-0.217513	0.254621	0.1	
-0.161049	0.262379	0.1	
-0.173131	0.322508	0.2	
-0.207714	0.236511	0.2	
-0.0758641	0.204419	0.2	
-0.155635	0.172227	0.2	
-0.131315	0.16418	0.1	
-0.0880857	0.11829	0.2	
0.053688	0.446786	0.149994	
0.0381609	0.387454	0.2	
0	0.45	0.15	
0.0450774	0.367889	0.1	
0.130628	-0.430623	0.149953	
0.111895	-0.372646	0.2	
0.109857	-0.362973	0.1	
0.044217	-0.387842	0.1	
0.0872949	0.269115	0.2	
0.155004	0.296903	0.2	
0.154944	0.223937	0.2	
0.0906227	0.254757	0.1	
-0.175847	0.204716	0.1	
-0.161049	0.262379	0.1	
-0.217513	0.254621	0.1	
-0.207714	0.236511	0.2	
0.0868431	-0.0680824	0.1	
0.0401753	-0.0586342	0.1	
0.0488551	-0.0983509	0.1	
0.0512771	-0.0404658	0.154914	
0.324791	-0.0252069	0.2	
0.314556	0.0156287	0.1	
0.303447	-0.0554764	0.1	
0.251733	-0.014256	0.1	
0.144601	0.131477	0.2	
0.154944	0.223937	0.2	
0.179715	0.179275	0.1	
0.124146	0.156872	0.1	
-0.112928	-0.360216	0.2	
-0.0536856	-0.446786	0.15	
-0.104718	-0.361527	0.1	
-0.0383965	-0.372403	0.2	
-0.251772	0.306785	0.1	
-0.217513	0.254621	0.1	
-0.182284	0.324323	0.1	
-0.248262	0.29482	0.2	
0.0401753	-0.0586342	0.1	
0.0488551	-0.0983509	0.1	
0.0512771	-0.0404658	0.154914	
0.00260765	-0.105267	0.157285	
0.0632975	0.0980676	0.2	
0.0750467	0.185499	0.2	
0.144601	0.131477	0.2	
0.0691478	0.134694	0.1	
0.175084	-0.3275	0.2	
0.212129	-0.396865	0.149953	
0.109857	-0.362973	0.1	
0.187286	-0.334755	0.1	
-0.108753	-0.0943056	0.1	
-0.080591	-0.0588792	0.1	
-0.112529	-0.0425202	0.1	
-0.0647576	-0.0686517	0.145827	
-0.217513	0.254621	0.1	
-0.237687	0.180874	0.1	
-0.175847	0.204716	0.1	
-0.207714	0.236511	0.2	
-0.116127	0.293072	0.1	
-0.0572929	0.316053	0.1	
-0.10824	0.362258	0.1	
-0.0730421	0.296762	0.2	
-0.256491	-0.0362829	0.2	
-0.318623	-0.0616012	0.2	
-0.312659	-0.0214623	0.1	
-0.258057	-0.0572365	0.1	
-0.300257	0.152847	0.1	
-0.237687	0.180874	0.1	
-0.287124	0.235637	0.2	
-0.244028	0.149971	0.2	
-0.217513	0.254621	0.1	
-0.161049	0.262379	0.1	
-0.182284	0.324323	0.1	
-0.173131	0.322508	0.2	
-0.0269211	0.0671862	0.1	
-0.0733988	0.0716859	0.157752	
-0.0182151	0.0644617	0.2	
0.0186333	0.101613	0.152058	
0.109857	-0.362973	0.1	
0.111895	-0.372646	0.2	
0.175084	-0.3275	0.2	
0.134408	-0.294741	0.1	
-0.181323	-0.0027565	0.2	
-0.256491	-0.0362829	0.2	
-0.203899	-0.0323666	0.1	
-0.190622	-0.0884834	0.2	
-0.275518	-0.12132	0.2	
-0.356724	-0.11546	0.1	
-0.279108	-0.122562	0.1	
-0.327578	-0.175094	0.2	
0.396865	0.212129	0.149953	
0.369533	0.112832	0.2	
0.329177	0.174808	0.2	
0.349981	0.18562	0.1	
0.082636	-0.254415	0.1	
0.0148093	-0.246449	0.2	
0.0922363	-0.215793	0.2	
0.0204871	-0.24099	0.1	
-0.327578	-0.175094	0.2	
-0.298599	-0.245054	0.2	
-0.396865	-0.212129	0.149995	
-0.331484	-0.17939	0.1	
-0.312956	-0.0762135	0.1	
-0.373197	-0.0467972	0.1	
-0.356724	-0.11546	0.1	
-0.318623	-0.0616012	0.2	
-0.327578	-0.175094	0.2	
-0.356724	-0.11546	0.1	
-0.279108	-0.122562	0.1	
-0.331484	-0.17939	0.1	
-0.237687	0.180874	0.1	
-0.217513	0.254621	0.1	
-0.287124	0.235637	0.2	
-0.207714	0.236511	0.2	
0.0872949	0.269115	0.2	
0.0210919	0.316201	0.2	
0.107822	0.355442	0.2	
0.0447484	0.293988	0.1	
0.294509	0.157311	0.1	
0.297412	0.240191	0.2	
0.329177	0.174808	0.2	
0.304312	0.234791	0.1	
0.201967	-0.00950962	0.2	
0.132963	0.044259	0.2	
0.213357	0.0766959	0.2	
0.204676	0.0233192	0.1	
-0.318623	-0.0616012	0.2	
-0.256491	-0.0362829	0.2	
-0.275518	-0.12132	0.2	
-0.258057	-0.0572365	0.1	
-0.130611	-0.430628	0.15	
-0.173995	-0.331361	0.1	
-0.212128	-0.396865	0.149972	
-0.182092	-0.340669	0.2	
0.109857	-0.362973	0.1	
0.0839363	-0.30145	0.2	
0.111895	-0.372646	0.2	
0.134408	-0.294741	0.1	
-0.0997698	0.0308567	0.2	
-0.140177	0.0445127	0.1	
-0.169647	0.0846842	0.2	
-0.0733988	0.0716859	0.157752	
0.0279075	-0.16395	0.2	
0.0922363	-0.215793	0.2	
0.0725059	-0.197526	0.1	
0.062652	-0.118801	0.158114	
0.294509	0.157311	0.1	
0.296534	0.101262	0.2	
0.230865	0.135658	0.1	
0.287454	0.0808414	0.1	
0.155004	0.296903	0.2	
0.107822	0.355442	0.2	
0.18581	0.349201	0.2	
0.180378	0.336857	0.1	
0.294509	0.157311	0.1	
0.237285	0.176133	0.2	
0.297412	0.240191	0.2	
0.238182	0.208514	0.1	
0.053688	-0.446786	0.149994	
0	-0.45	0.15	
0.0404591	-0.377182	0.2	
0.044217	-0.387842	0.1	
0.216652	-0.249073	0.2	
0.147007	-0.259035	0.2	
0.174426	-0.185564	0.2	
0.138545	-0.218367	0.1	
-0.0712343	-0.0265969	0.1	
-0.0200153	-0.0483211	0.151402	
-0.0318198	-0.0318198	0.1	
-0.088703	-0.0138649	0.150815	
0.053688	0.446786	0.149994	
0.120589	0.374273	0.1	
0.107822	0.355442	0.2	
0.0450774	0.367889	0.1	
-0.0137107	-0.295895	0.1	
0.0148093	-0.246449	0.2	
0.00378559	-0.316996	0.2	
0.0511003	-0.317442	0.1	
-0.269145	-0.181189	0.1	
-0.265692	-0.195501	0.2	
-0.29175	-0.237189	0.1	
-0.225546	-0.215121	0.1	
0.12107	-0.0431928	0.2	
0.190166	-0.0983881	0.2	
0.108307	-0.130924	0.2	
0.130886	-0.100339	0.1	
-0.108028	0.370407	0.2	
-0.212133	0.396862	0.150011	
-0.10824	0.362258	0.1	
-0.173131	0.322508	0.2	
-0.320541	0.0201981	0.2	
-0.372975	0.0289182	0.1	
-0.312659	-0.0214623	0.1	
-0.379429	-0.0366192	0.2	
-0.446786	-0.053688	0.150006	
-0.379429	-0.0366192	0.2	
-0.373197	-0.0467972	0.1	
-0.45	0	0.15	
0.0148093	-0.246449	0.2	
-0.0137107	-0.295895	0.1	
-0.0496677	-0.250381	0.1	
0.0204871	-0.24099	0.1	
0.240073	-0.0744514	0.1	
0.303447	-0.0554764	0.1	
0.26859	-0.0619166	0.2	
0.287371	-0.120299	0.1	
0.339399	-0.183579	0.2	
0.347855	-0.285477	0.149953	
0.287124	-0.235637	0.1	
0.331486	-0.177371	0.1	
0.268615	-0.174062	0.1	
0.261818	-0.161797	0.2	
0.225509	-0.136032	0.1	
0.211584	-0.20097	0.1	
-0.00500969	-0.0120945	0.1	
0.0060848	-2.90377e-05	0.157763	
-0.0201457	0.00856081	0.1	
-0.0436673	0.0180876	0.150301	
-0.223685	-0.271786	0.2	
-0.170075	-0.251953	0.1	
-0.225546	-0.215121	0.1	
-0.201609	-0.173762	0.2	
0.446786	0.053688	0.149994	
0.45	0	0.15	
0.363227	0.0380543	0.2	
0.387235	0.0357483	0.1	
-0.16441	-0.183508	0.1	
-0.170075	-0.251953	0.1	
-0.133674	-0.228308	0.2	
-0.201609	-0.173762	0.2	
0.0148093	-0.246449	0.2	
-0.0137107	-0.295895	0.1	
0.0204871	-0.24099	0.1	
0.0511003	-0.317442	0.1	
-0.347855	0.285477	0.150034	
-0.351668	0.187175	0.1	
-0.292926	0.235471	0.1	
-0.287124	0.235637	0.2	
-0.0254114	0.106009	0.1	
0.0139627	0.124614	0.1	
-0.0278782	0.153479	0.1	
0.0186333	0.101613	0.152058	
0.0279075	-0.16395	0.2	
-0.0529805	-0.19738	0.2	
-0.0142517	-0.205249	0.1	
0.0148093	-0.246449	0.2	
-0.1869	0.140647	0.1	
-0.237687	0.180874	0.1	
-0.242461	0.118505	0.1	
-0.244028	0.149971	0.2	
-0.372975	0.0289182	0.1	
-0.373197	-0.0467972	0.1	
-0.312659	-0.0214623	0.1	
-0.379429	-0.0366192	0.2	
-0.225546	-0.215121	0.1	
-0.298599	-0.245054	0.2	
-0.29175	-0.237189	0.1	
-0.223685	-0.271786	0.2	
-0.0137107	-0.295895	0.1	
-0.0615368	-0.322264	0.1	
-0.0276628	-0.367444	0.1	
0.00378559	-0.316996	0.2	
-0.130611	-0.430628	0.15	
-0.0536856	-0.446786	0.15	
-0.104718	-0.361527	0.1	
-0.112928	-0.360216	0.2	
-0.0659287	-0.28985	0.2	
-0.0615368	-0.322264	0.1	
-0.0137107	-0.295895	0.1	
0.00378559	-0.316996	0.2	
0.053688	0.446786	0.149994	
0.107822	0.355442	0.2	
0.0381609	0.387454	0.2	
0.0450774	0.367889	0.1	
0.0381609	0.387454	0.2	
0.0210919	0.316201	0.2	
-0.00311199	0.32667	0.1	
0.0450774	0.367889	0.1	
0.296534	0.101262	0.2	
0.363227	0.0380543	0.2	
0.281012	0.0229437	0.2	
0.287454	0.0808414	0.1	
-0.0880857	0.11829	0.2	
-0.169647	0.0846842	0.2	
-0.13855	0.104902	0.1	
-0.0733988	0.0716859	0.157752	
0.0872949	0.269115	0.2	
0.0750467	0.185499	0.2	
0.00604814	0.236488	0.2	
0.0312955	0.232251	0.1	
0.18581	0.349201	0.2	
0.120589	0.374273	0.1	
0.212129	0.396865	0.149953	
0.180378	0.336857	0.1	
-0.0276628	-0.367444	0.1	
0.00378559	-0.316996	0.2	
0.044217	-0.387842	0.1	
0.0511003	-0.317442	0.1	
0.213357	0.0766959	0.2	
0.281012	0.0229437	0.2	
0.201967	-0.00950962	0.2	
0.255462	0.038247	0.1	
0.082636	-0.254415	0.1	
0.0922363	-0.215793	0.2	
0.138545	-0.218367	0.1	
0.0725059	-0.197526	0.1	
-0.355442	0.107822	0.1	
-0.351668	0.187175	0.1	
-0.430628	0.130611	0.15	
-0.32913	0.168426	0.2	
0.0447484	0.293988	0.1	
0.0210919	0.316201	0.2	
0.107822	0.355442	0.2	
0.0450774	0.367889	0.1	
-0.396866	0.212126	0.150019	
-0.351668	0.187175	0.1	
-0.347855	0.285477	0.150034	
-0.287124	0.235637	0.2	
-0.00500969	-0.0120945	0.1	
0.00677135	0.0163475	0.1	
-0.0201457	0.00856081	0.1	
0.0060848	-2.90377e-05	0.157763	
-0.304909	0.0444641	0.1	
-0.355442	0.107822	0.1	
-0.372975	0.0289182	0.1	
-0.362114	0.10176	0.2	
-0.320541	0.0201981	0.2	
-0.304909	0.0444641	0.1	
-0.372975	0.0289182	0.1	
-0.362114	0.10176	0.2	
0.00604814	0.236488	0.2	
0.0750467	0.185499	0.2	
-0.00652201	0.151895	0.2	
0.0236281	0.174203	0.1	
0.082636	-0.254415	0.1	
0.0839363	-0.30145	0.2	
0.0148093	-0.246449	0.2	
0.0511003	-0.317442	0.1	
0.117493	0.309521	0.1	
0.0447484	0.293988	0.1	
0.107822	0.355442	0.2	
0.0450774	0.367889	0.1	
-0.0606984	0.0243229	0.1	
-0.0944203	0.0353385	0.1	
-0.0436673	0.0180876	0.150301	
-0.0733988	0.0716859	0.157752	
0.216652	-0.249073	0.2	
0.147007	-0.259035	0.2	
0.138545	-0.218367	0.1	
0.199452	-0.267103	0.1	
0.173936	0.254382	0.1	
0.228237	0.281807	0.2	
0.154944	0.223937	0.2	
0.238182	0.208514	0.1	
0.120589	0.374273	0.1	
0.18581	0.349201	0.2	
0.107822	0.355442	0.2	
0.180378	0.336857	0.1	
-0.362114	0.10176	0.2	
-0.372975	0.0289182	0.1	
-0.320541	0.0201981	0.2	
-0.389559	0.0336032	0.2	
-0.0339688	0.375665	0.2	
-0.108028	0.370407	0.2	
-0.0572929	0.316053	0.1	
-0.0730421	0.296762	0.2	
-0.0880857	0.11829	0.2	
-0.155635	0.172227	0.2	
-0.13855	0.104902	0.1	
-0.169647	0.0846842	0.2	
0.187286	-0.334755	0.1	
0.25204	-0.306462	0.2	
0.257787	-0.293807	0.1	
0.199452	-0.267103	0.1	
0.287371	-0.120299	0.1	
0.261818	-0.161797	0.2	
0.225509	-0.136032	0.1	
0.268615	-0.174062	0.1	
-0.296313	0.0995627	0.2	
-0.355442	0.107822	0.1	
-0.304909	0.0444641	0.1	
-0.362114	0.10176	0.2	
-0.225546	-0.215121	0.1	
-0.265692	-0.195501	0.2	
-0.298599	-0.245054	0.2	
-0.223685	-0.271786	0.2	
-0.140177	0.0445127	0.1	
-0.0997698	0.0308567	0.2	
-0.169647	0.0846842	0.2	
-0.181323	-0.0027565	0.2	
0	-0.045	0.1	
-0.0200153	-0.0483211	0.151402	
0.0401753	-0.0586342	0.1	
0.0512771	-0.0404658	0.154914	
0.0741079	0.088115	0.1	
0.0396544	0.04868	0.156181	
0.0632975	0.0980676	0.2	
0.0186333	0.101613	0.152058	
-0.108028	0.370407	0.2	
-0.116127	0.293072	0.1	
-0.10824	0.362258	0.1	
-0.0730421	0.296762	0.2	
-0.0944203	0.0353385	0.1	
-0.0606984	0.0243229	0.1	
-0.0436673	0.0180876	0.150301	
-0.088703	-0.0138649	0.150815	
0.174426	-0.185564	0.2	
0.216652	-0.249073	0.2	
0.138545	-0.218367	0.1	
0.211584	-0.20097	0.1	
-0.248332	0.050693	0.2	
-0.247343	0.061739	0.1	
-0.304909	0.0444641	0.1	
-0.296313	0.0995627	0.2	
0.212129	0.396865	0.149953	
0.120589	0.374273	0.1	
0.18581	0.349201	0.2	
0.130628	0.430623	0.149953	
-0.304909	0.0444641	0.1	
-0.320541	0.0201981	0.2	
-0.296313	0.0995627	0.2	
-0.362114	0.10176	0.2	
-0.104718	-0.361527	0.1	
-0.0615368	-0.322264	0.1	
-0.112928	-0.360216	0.2	
-0.0383965	-0.372403	0.2	
0.0318198	0.0318198	0.1	
0.0250698	0.0602098	0.1	
0	0.045	0.1	
0.0396544	0.04868	0.156181	
0.147007	-0.259035	0.2	
0.0839363	-0.30145	0.2	
0.082636	-0.254415	0.1	
0.134408	-0.294741	0.1	
-0.265692	-0.195501	0.2	
-0.327578	-0.175094	0.2	
-0.275518	-0.12132	0.2	
-0.269145	-0.181189	0.1	
-0.256491	-0.0362829	0.2	
-0.253293	0.00301969	0.1	
-0.248332	0.050693	0.2	
-0.181323	-0.0027565	0.2	
0.257787	-0.293807	0.1	
0.285477	-0.347855	0.149953	
0.25204	-0.306462	0.2	
0.187286	-0.334755	0.1	
0.0250698	0.0602098	0.1	
0.0550025	0.059172	0.1	
0.0405437	0.0931998	0.1	
0.0396544	0.04868	0.156181	
-0.248262	0.29482	0.2	
-0.292926	0.235471	0.1	
-0.217513	0.254621	0.1	
-0.287124	0.235637	0.2	
-0.10824	0.362258	0.1	
-0.053688	0.446786	0.150006	
-0.130628	0.430623	0.150047	
-0.108028	0.370407	0.2	
-0.130611	-0.430628	0.15	
-0.104718	-0.361527	0.1	
-0.173995	-0.331361	0.1	
-0.112928	-0.360216	0.2	
-0.285477	0.347854	0.150033	
-0.347855	0.285477	0.150034	
-0.251772	0.306785	0.1	
-0.248262	0.29482	0.2	
0.285477	0.347855	0.149953	
0.347855	0.285477	0.149953	
0.297412	0.240191	0.2	
0.245754	0.289669	0.1	
0.109857	-0.362973	0.1	
0.111895	-0.372646	0.2	
0.0839363	-0.30145	0.2	
0.0511003	-0.317442	0.1	
0.00604814	0.236488	0.2	
-0.0135764	0.270208	0.1	
0.0210919	0.316201	0.2	
0.0447484	0.293988	0.1	
0.180378	0.336857	0.1	
0.18581	0.349201	0.2	
0.228237	0.281807	0.2	
0.245754	0.289669	0.1	
-0.108028	0.370407	0.2	
-0.10824	0.362258	0.1	
-0.0572929	0.316053	0.1	
-0.0730421	0.296762	0.2	
0.173936	0.254382	0.1	
0.155004	0.296903	0.2	
0.228237	0.281807	0.2	
0.180378	0.336857	0.1	
-0.446786	0.0536856	0.15	
-0.372975	0.0289182	0.1	
-0.355442	0.107822	0.1	
-0.362114	0.10176	0.2	
0.0741079	0.088115	0.1	
0.0405437	0.0931998	0.1	
0.0396544	0.04868	0.156181	
0.0186333	0.101613	0.152058	
-0.0318198	0.0318198	0.1	
-0.0611924	0.0535755	0.1	
-0.0606984	0.0243229	0.1	
-0.0436673	0.0180876	0.150301	
-0.00311199	0.32667	0.1	
-0.0339688	0.375665	0.2	
-0.0730421	0.296762	0.2	
0.0210919	0.316201	0.2	
-0.0712343	-0.0265969	0.1	
-0.045	0	0.1	
-0.0737761	0.00176994	0.1	
-0.088703	-0.0138649	0.150815	
0.446786	-0.053688	0.149994	
0.45	0	0.15	
0.374822	-0.0324999	0.1	
0.384421	-0.0378621	0.2	
0.430623	0.130628	0.149953	
0.446786	0.053688	0.149994	
0.369533	0.112832	0.2	
0.355442	0.107822	0.1	
0.261818	-0.161797	0.2	
0.174426	-0.185564	0.2	
0.225509	-0.136032	0.1	
0.211584	-0.20097	0.1	
0.25204	-0.306462	0.2	
0.285477	-0.347855	0.149953	
0.212129	-0.396865	0.149953	
0.187286	-0.334755	0.1	
0.0318198	0.0318198	0.1	
0.00677135	0.0163475	0.1	
0.0060848	-2.90377e-05	0.157763	
0.0396544	0.04868	0.156181	
0.155004	0.296903	0.2	
0.0872949	0.269115	0.2	
0.117493	0.309521	0.1	
0.0906227	0.254757	0.1	
0.154944	0.223937	0.2	
0.144601	0.131477	0.2	
0.0750467	0.185499	0.2	
0.124146	0.156872	0.1	
0.29265	-0.244884	0.2	
0.347855	-0.285477	0.149953	
0.287124	-0.235637	0.1	
0.339399	-0.183579	0.2	
-0.312659	-0.0214623	0.1	
-0.320541	0.0201981	0.2	
-0.379429	-0.0366192	0.2	
-0.318623	-0.0616012	0.2	
-0.201609	-0.173762	0.2	
-0.217835	-0.151685	0.1	
-0.275518	-0.12132	0.2	
-0.190622	-0.0884834	0.2	
-0.0997698	0.0308567	0.2	
-0.0944203	0.0353385	0.1	
-0.0733988	0.0716859	0.157752	
-0.088703	-0.0138649	0.150815	
0.324791	-0.0252069	0.2	
0.26859	-0.0619166	0.2	
0.281012	0.0229437	0.2	
0.251733	-0.014256	0.1	
0.147007	-0.259035	0.2	
0.0839363	-0.30145	0.2	
0.0922363	-0.215793	0.2	
0.082636	-0.254415	0.1	
0.216652	-0.249073	0.2	
0.138545	-0.218367	0.1	
0.211584	-0.20097	0.1	
0.199452	-0.267103	0.1	
0.314556	0.0156287	0.1	
0.281012	0.0229437	0.2	
0.363227	0.0380543	0.2	
0.287454	0.0808414	0.1	
-0.396865	-0.212129	0.149995	
-0.356724	-0.11546	0.1	
-0.327578	-0.175094	0.2	
-0.331484	-0.17939	0.1	
0.296534	0.101262	0.2	
0.213357	0.0766959	0.2	
0.230865	0.135658	0.1	
0.287454	0.0808414	0.1	
-0.225546	-0.215121	0.1	
-0.16441	-0.183508	0.1	
-0.217835	-0.151685	0.1	
-0.201609	-0.173762	0.2	
-0.430628	0.130611	0.15	
-0.351668	0.187175	0.1	
-0.396866	0.212126	0.150019	
-0.32913	0.168426	0.2	
0.251733	-0.014256	0.1	
0.303447	-0.0554764	0.1	
0.26859	-0.0619166	0.2	
0.240073	-0.0744514	0.1	
-0.0496677	-0.250381	0.1	
-0.0615368	-0.322264	0.1	
-0.0137107	-0.295895	0.1	
-0.0659287	-0.28985	0.2	
-0.0251864	-0.106886	0.1	
0.00260765	-0.105267	0.157285	
-0.0276546	-0.0671169	0.1	
-0.0647576	-0.0686517	0.145827	
-0.0251864	-0.106886	0.1	
0.00728726	-0.0832273	0.1	
-0.0276546	-0.0671169	0.1	
0.00260765	-0.105267	0.157285	
0.179715	0.179275	0.1	
0.154944	0.223937	0.2	
0.237285	0.176133	0.2	
0.238182	0.208514	0.1	
0.369533	0.112832	0.2	
0.430623	0.130628	0.149953	
0.355442	0.107822	0.1	
0.349981	0.18562	0.1	
-0.304909	0.0444641	0.1	
-0.253293	0.00301969	0.1	
-0.248332	0.050693	0.2	
-0.320541	0.0201981	0.2	
0.314556	0.0156287	0.1	
0.324791	-0.0252069	0.2	
0.281012	0.0229437	0.2	
0.251733	-0.014256	0.1	
0.190166	-0.0983881	0.2	
0.201967	-0.00950962	0.2	
0.26859	-0.0619166	0.2	
0.240073	-0.0744514	0.1	
-0.104718	-0.361527	0.1	
-0.111587	-0.287654	0.1	
-0.173995	-0.331361	0.1	
-0.13795	-0.29702	0.2	
0.357114	-0.107098	0.1	
0.348465	-0.103096	0.2	
0.287371	-0.120299	0.1	
0.331486	-0.177371	0.1	
-0.111587	-0.287654	0.1	
-0.0615368	-0.322264	0.1	
-0.0496677	-0.250381	0.1	
-0.0659287	-0.28985	0.2	
-0.116127	0.293072	0.1	
-0.0674604	0.249371	0.1	
-0.0572929	0.316053	0.1	
-0.0730421	0.296762	0.2	
-0.296313	0.0995627	0.2	
-0.242461	0.118505	0.1	
-0.300257	0.152847	0.1	
-0.244028	0.149971	0.2	
-0.372975	0.0289182	0.1	
-0.320541	0.0201981	0.2	
-0.389559	0.0336032	0.2	
-0.379429	-0.0366192	0.2	
0.111895	-0.372646	0.2	
0.0404591	-0.377182	0.2	
0.0839363	-0.30145	0.2	
0.0511003	-0.317442	0.1	
-0.0659287	-0.28985	0.2	
-0.0383965	-0.372403	0.2	
-0.0615368	-0.322264	0.1	
0.00378559	-0.316996	0.2	
-0.0383965	-0.372403	0.2	
-0.0615368	-0.322264	0.1	
-0.112928	-0.360216	0.2	
-0.0659287	-0.28985	0.2	
0.0839363	-0.30145	0.2	
0.175084	-0.3275	0.2	
0.111895	-0.372646	0.2	
0.134408	-0.294741	0.1	
0.285477	0.347855	0.149953	
0.228237	0.281807	0.2	
0.18581	0.349201	0.2	
0.245754	0.289669	0.1	
-0.373197	-0.0467972	0.1	
-0.312956	-0.0762135	0.1	
-0.312659	-0.0214623	0.1	
-0.318623	-0.0616012	0.2	
0.261818	-0.161797	0.2	
0.225509	-0.136032	0.1	
0.190166	-0.0983881	0.2	
0.26859	-0.0619166	0.2	
-0.389559	0.0336032	0.2	
-0.446786	0.0536856	0.15	
-0.372975	0.0289182	0.1	
-0.45	0	0.15	
-0.110394	-0.216726	0.1	
-0.133674	-0.228308	0.2	
-0.0529805	-0.19738	0.2	
-0.12308	-0.143942	0.2	
-0.287124	0.235637	0.2	
-0.396866	0.212126	0.150019	
-0.351668	0.187175	0.1	
-0.32913	0.168426	0.2	
0.349981	0.18562	0.1	
0.329177	0.174808	0.2	
0.396865	0.212129	0.149953	
0.304312	0.234791	0.1	
0.363227	0.0380543	0.2	
0.384421	-0.0378621	0.2	
0.374822	-0.0324999	0.1	
0.387235	0.0357483	0.1	
0.304312	0.234791	0.1	
0.297412	0.240191	0.2	
0.347855	0.285477	0.149953	
0.245754	0.289669	0.1	
-0.0358979	0.379949	0.1	
0	0.45	0.15	
-0.053688	0.446786	0.150006	
-0.0339688	0.375665	0.2	
-0.217835	-0.151685	0.1	
-0.265692	-0.195501	0.2	
-0.225546	-0.215121	0.1	
-0.201609	-0.173762	0.2	
-0.248262	0.29482	0.2	
-0.217513	0.254621	0.1	
-0.182284	0.324323	0.1	
-0.173131	0.322508	0.2	
-0.248262	0.29482	0.2	
-0.347855	0.285477	0.150034	
-0.292926	0.235471	0.1	
-0.287124	0.235637	0.2	
-0.248332	0.050693	0.2	
-0.169647	0.0846842	0.2	
-0.242461	0.118505	0.1	
-0.244028	0.149971	0.2	
-0.0383965	-0.372403	0.2	
-0.0536856	-0.446786	0.15	
-0.0276628	-0.367444	0.1	
0	-0.45	0.15	
-0.170075	-0.251953	0.1	
-0.111587	-0.287654	0.1	
-0.110394	-0.216726	0.1	
-0.133674	-0.228308	0.2	
0.0839363	-0.30145	0.2	
0.0148093	-0.246449	0.2	
0.0922363	-0.215793	0.2	
0.082636	-0.254415	0.1	
-0.170075	-0.251953	0.1	
-0.110394	-0.216726	0.1	
-0.16441	-0.183508	0.1	
-0.133674	-0.228308	0.2	
-0.365881	-0.111705	0.2	
-0.379429	-0.0366192	0.2	
-0.373197	-0.0467972	0.1	
-0.446786	-0.053688	0.150006	
0.339399	-0.183579	0.2	
0.261818	-0.161797	0.2	
0.348465	-0.103096	0.2	
0.287371	-0.120299	0.1	
-0.0619298	-0.0870419	0.1	
-0.0251864	-0.106886	0.1	
-0.0276546	-0.0671169	0.1	
-0.0647576	-0.0686517	0.145827	
-0.155635	0.172227	0.2	
-0.207714	0.236511	0.2	
-0.237687	0.180874	0.1	
-0.244028	0.149971	0.2	
0.132963	0.044259	0.2	
0.0632975	0.0980676	0.2	
0.144601	0.131477	0.2	
0.114043	0.0943971	0.1	
0.0148093	-0.246449	0.2	
-0.0659287	-0.28985	0.2	
-0.0137107	-0.295895	0.1	
0.00378559	-0.316996	0.2	
0.120589	0.374273	0.1	
0.107822	0.355442	0.2	
0.18581	0.349201	0.2	
0.130628	0.430623	0.149953	
0.303447	-0.0554764	0.1	
0.348465	-0.103096	0.2	
0.26859	-0.0619166	0.2	
0.287371	-0.120299	0.1	
-0.237792	-0.287474	0.1	
-0.250007	-0.374161	0.1	
-0.173995	-0.331361	0.1	
-0.212128	-0.396865	0.149972	
0.175084	-0.3275	0.2	
0.25204	-0.306462	0.2	
0.187286	-0.334755	0.1	
0.199452	-0.267103	0.1	
-0.00652201	0.151895	0.2	
-0.0232097	0.208019	0.1	
-0.0758641	0.204419	0.2	
0.00604814	0.236488	0.2	
-0.379429	-0.0366192	0.2	
-0.373197	-0.0467972	0.1	
-0.312659	-0.0214623	0.1	
-0.318623	-0.0616012	0.2	
0.154944	0.223937	0.2	
0.173936	0.254382	0.1	
0.179715	0.179275	0.1	
0.129359	0.208003	0.1	
-0.182284	0.324323	0.1	
-0.10824	0.362258	0.1	
-0.212133	0.396862	0.150011	
-0.173131	0.322508	0.2	
-0.160221	-0.122206	0.1	
-0.201609	-0.173762	0.2	
-0.12308	-0.143942	0.2	
-0.190622	-0.0884834	0.2	
-0.253293	0.00301969	0.1	
-0.248332	0.050693	0.2	
-0.320541	0.0201981	0.2	
-0.256491	-0.0362829	0.2	
-0.173131	0.322508	0.2	
-0.248262	0.29482	0.2	
-0.217513	0.254621	0.1	
-0.207714	0.236511	0.2	
-0.446786	0.0536856	0.15	
-0.355442	0.107822	0.1	
-0.430628	0.130611	0.15	
-0.362114	0.10176	0.2	
-0.121547	0.224354	0.1	
-0.138104	0.243902	0.2	
-0.155635	0.172227	0.2	
-0.0758641	0.204419	0.2	
0.108307	-0.130924	0.2	
0.130886	-0.100339	0.1	
0.110168	-0.152489	0.1	
0.062652	-0.118801	0.158114	
0.238182	0.208514	0.1	
0.228237	0.281807	0.2	
0.297412	0.240191	0.2	
0.245754	0.289669	0.1	
0.349981	0.18562	0.1	
0.294509	0.157311	0.1	
0.329177	0.174808	0.2	
0.304312	0.234791	0.1	
-0.237792	-0.287474	0.1	
-0.285477	-0.347855	0.149972	
-0.250007	-0.374161	0.1	
-0.212128	-0.396865	0.149972	
-0.0383965	-0.372403	0.2	
-0.0276628	-0.367444	0.1	
-0.0615368	-0.322264	0.1	
0.00378559	-0.316996	0.2	
0.107822	0.355442	0.2	
0.155004	0.296903	0.2	
0.117493	0.309521	0.1	
0.180378	0.336857	0.1	
0.374822	-0.0324999	0.1	
0.324791	-0.0252069	0.2	
0.384421	-0.0378621	0.2	
0.363227	0.0380543	0.2	
-0.327578	-0.175094	0.2	
-0.365881	-0.111705	0.2	
-0.356724	-0.11546	0.1	
-0.396865	-0.212129	0.149995	
-0.170075	-0.251953	0.1	
-0.173995	-0.331361	0.1	
-0.13795	-0.29702	0.2	
-0.223685	-0.271786	0.2	
-0.275518	-0.12132	0.2	
-0.365881	-0.111705	0.2	
-0.356724	-0.11546	0.1	
-0.327578	-0.175094	0.2	
-0.0415815	-0.110392	0.2	
0.00260765	-0.105267	0.157285	
-0.0607822	-0.132192	0.1	
-0.0647576	-0.0686517	0.145827	
0.329177	0.174808	0.2	
0.237285	0.176133	0.2	
0.297412	0.240191	0.2	
0.294509	0.157311	0.1	
-0.19804	0.0242816	0.1	
-0.169647	0.0846842	0.2	
-0.248332	0.050693	0.2	
-0.181323	-0.0027565	0.2	
0.357114	-0.107098	0.1	
0.348465	-0.103096	0.2	
0.303447	-0.0554764	0.1	
0.287371	-0.120299	0.1	
0.144601	0.131477	0.2	
0.213357	0.0766959	0.2	
0.132963	0.044259	0.2	
0.160735	0.0621263	0.1	
-0.0712343	-0.0265969	0.1	
-0.0318198	-0.0318198	0.1	
-0.0200153	-0.0483211	0.151402	
-0.0647576	-0.0686517	0.145827	
0.00677135	0.0163475	0.1	
-0.00500969	-0.0120945	0.1	
0.0202986	-0.00819178	0.1	
0.0060848	-2.90377e-05	0.157763	
-0.169647	0.0846842	0.2	
-0.155635	0.172227	0.2	
-0.1869	0.140647	0.1	
-0.244028	0.149971	0.2	
-0.0730421	0.296762	0.2	
-0.108028	0.370407	0.2	
-0.116127	0.293072	0.1	
-0.173131	0.322508	0.2	
0.212129	-0.396865	0.149953	
0.175084	-0.3275	0.2	
0.25204	-0.306462	0.2	
0.187286	-0.334755	0.1	
0.363227	0.0380543	0.2	
0.296534	0.101262	0.2	
0.355442	0.107822	0.1	
0.287454	0.0808414	0.1	
0.237285	0.176133	0.2	
0.296534	0.101262	0.2	
0.230865	0.135658	0.1	
0.294509	0.157311	0.1	
0.155004	0.296903	0.2	
0.18581	0.349201	0.2	
0.228237	0.281807	0.2	
0.180378	0.336857	0.1	
0.187286	-0.334755	0.1	
0.109857	-0.362973	0.1	
0.175084	-0.3275	0.2	
0.134408	-0.294741	0.1	
0.00378559	-0.316996	0.2	
-0.0276628	-0.367444	0.1	
-0.0137107	-0.295895	0.1	
0.0511003	-0.317442	0.1	
-0.0529805	-0.19738	0.2	
-0.0659287	-0.28985	0.2	
-0.0496677	-0.250381	0.1	
0.0148093	-0.246449	0.2	
-0.0436673	0.0180876	0.150301	
-0.0733988	0.0716859	0.157752	
-0.0944203	0.0353385	0.1	
-0.088703	-0.0138649	0.150815	
-0.0536856	-0.446786	0.15	
-0.0276628	-0.367444	0.1	
-0.104718	-0.361527	0.1	
-0.0383965	-0.372403	0.2	
0.25204	-0.306462	0.2	
0.347855	-0.285477	0.149953	
0.257787	-0.293807	0.1	
0.29265	-0.244884	0.2	
-0.10824	0.362258	0.1	
-0.182284	0.324323	0.1	
-0.116127	0.293072	0.1	
-0.173131	0.322508	0.2	
-0.446786	-0.053688	0.150006	
-0.373197	-0.0467972	0.1	
-0.365881	-0.111705	0.2	
-0.430623	-0.130628	0.150047	
0.0662467	-0.0253248	0.1	
0.045	0	0.1	
0.0318198	-0.0318198	0.1	
0.0512771	-0.0404658	0.154914	
0.369533	0.112832	0.2	
0.363227	0.0380543	0.2	
0.355442	0.107822	0.1	
0.387235	0.0357483	0.1	
-0.170075	-0.251953	0.1	
-0.173995	-0.331361	0.1	
-0.111587	-0.287654	0.1	
-0.13795	-0.29702	0.2	
0.225509	-0.136032	0.1	
0.190166	-0.0983881	0.2	
0.174426	-0.185564	0.2	
0.261818	-0.161797	0.2	
0.109857	-0.362973	0.1	
0.212129	-0.396865	0.149953	
0.172208	-0.415746	0.1	
0.187286	-0.334755	0.1	
0.190166	-0.0983881	0.2	
0.174426	-0.185564	0.2	
0.108307	-0.130924	0.2	
0.168154	-0.150165	0.1	
0.0202986	-0.00819178	0.1	
0.045	0	0.1	
0.0060848	-2.90377e-05	0.157763	
0.0512771	-0.0404658	0.154914	
-0.0674604	0.249371	0.1	
-0.0730421	0.296762	0.2	
-0.138104	0.243902	0.2	
-0.0758641	0.204419	0.2	
-0.296313	0.0995627	0.2	
-0.248332	0.050693	0.2	
-0.242461	0.118505	0.1	
-0.244028	0.149971	0.2	
-0.116127	0.293072	0.1	
-0.182284	0.324323	0.1	
-0.161049	0.262379	0.1	
-0.173131	0.322508	0.2	
-0.108753	-0.0943056	0.1	
-0.0647576	-0.0686517	0.145827	
-0.112529	-0.0425202	0.1	
-0.142279	-0.0393203	0.151217	
-0.217835	-0.151685	0.1	
-0.275518	-0.12132	0.2	
-0.265692	-0.195501	0.2	
-0.201609	-0.173762	0.2	
-0.0674604	0.249371	0.1	
-0.0730421	0.296762	0.2	
-0.0758641	0.204419	0.2	
0.00604814	0.236488	0.2	
0	-0.045	0.1	
0.0060848	-2.90377e-05	0.157763	
-0.00500969	-0.0120945	0.1	
-0.0200153	-0.0483211	0.151402	
-0.182092	-0.340669	0.2	
-0.237792	-0.287474	0.1	
-0.285477	-0.347855	0.149972	
-0.223685	-0.271786	0.2	
-0.296313	0.0995627	0.2	
-0.300257	0.152847	0.1	
-0.355442	0.107822	0.1	
-0.32913	0.168426	0.2	
-0.248262	0.29482	0.2	
-0.212133	0.396862	0.150011	
-0.285477	0.347854	0.150033	
-0.250007	0.374161	0.2	
0.348465	-0.103096	0.2	
0.430623	-0.130628	0.149953	
0.357114	-0.107098	0.1	
0.384421	-0.0378621	0.2	
0.355442	0.107822	0.1	
0.329177	0.174808	0.2	
0.369533	0.112832	0.2	
0.349981	0.18562	0.1	
-0.396865	-0.212129	0.149995	
-0.365881	-0.111705	0.2	
-0.356724	-0.11546	0.1	
-0.430623	-0.130628	0.150047	
-0.32913	0.168426	0.2	
-0.300257	0.152847	0.1	
-0.287124	0.235637	0.2	
-0.244028	0.149971	0.2	
0.396865	-0.212129	0.149953	
0.430623	-0.130628	0.149953	
0.415746	-0.172208	0.1	
0.331486	-0.177371	0.1	
0.257787	-0.293807	0.1	
0.285477	-0.347855	0.149953	
0.347855	-0.285477	0.149953	
0.25204	-0.306462	0.2	
0.147007	-0.259035	0.2	
0.0922363	-0.215793	0.2	
0.174426	-0.185564	0.2	
0.138545	-0.218367	0.1	
-0.237792	-0.287474	0.1	
-0.318198	-0.318198	0.1	
-0.347855	-0.285477	0.149967	
-0.29175	-0.237189	0.1	
0.117493	0.309521	0.1	
0.120589	0.374273	0.1	
0.107822	0.355442	0.2	
0.180378	0.336857	0.1	
0.331486	-0.177371	0.1	
0.396865	-0.212129	0.149953	
0.347855	-0.285477	0.149953	
0.374161	-0.250007	0.1	
0.0868431	-0.0680824	0.1	
0.0488551	-0.0983509	0.1	
0.0864603	-0.112342	0.1	
0.062652	-0.118801	0.158114	
-0.32913	0.168426	0.2	
-0.430628	0.130611	0.15	
-0.355442	0.107822	0.1	
-0.362114	0.10176	0.2	
-0.248262	0.29482	0.2	
-0.182284	0.324323	0.1	
-0.212133	0.396862	0.150011	
-0.173131	0.322508	0.2	
-0.112928	-0.360216	0.2	
-0.104718	-0.361527	0.1	
-0.173995	-0.331361	0.1	
-0.13795	-0.29702	0.2	
-0.237792	-0.287474	0.1	
-0.298599	-0.245054	0.2	
-0.285477	-0.347855	0.149972	
-0.223685	-0.271786	0.2	
-0.225546	-0.215121	0.1	
-0.29175	-0.237189	0.1	
-0.237792	-0.287474	0.1	
-0.223685	-0.271786	0.2	
-0.138104	0.243902	0.2	
-0.173131	0.322508	0.2	
-0.161049	0.262379	0.1	
-0.207714	0.236511	0.2	
-0.00652201	0.151895	0.2	
-0.0182151	0.0644617	0.2	
-0.0733988	0.0716859	0.157752	
0.0186333	0.101613	0.152058	
0.211584	-0.20097	0.1	
0.138545	-0.218367	0.1	
0.174426	-0.185564	0.2	
0.168154	-0.150165	0.1	
0.415746	-0.172208	0.1	
0.430623	-0.130628	0.149953	
0.357114	-0.107098	0.1	
0.331486	-0.177371	0.1	
-0.182092	-0.340669	0.2	
-0.13795	-0.29702	0.2	
-0.173995	-0.331361	0.1	
-0.223685	-0.271786	0.2	
0.0868431	-0.0680824	0.1	
0.0512771	-0.0404658	0.154914	
0.0488551	-0.0983509	0.1	
0.062652	-0.118801	0.158114	
0.109857	-0.362973	0.1	
0.212129	-0.396865	0.149953	
0.130628	-0.430623	0.149953	
0.172208	-0.415746	0.1	
0.238182	0.208514	0.1	
0.173936	0.254382	0.1	
0.228237	0.281807	0.2	
0.245754	0.289669	0.1	
0.180378	0.336857	0.1	
0.228237	0.281807	0.2	
0.173936	0.254382	0.1	
0.245754	0.289669	0.1	
-0.130628	0.430623	0.150047	
-0.172208	0.415746	0.1	
-0.10824	0.362258	0.1	
-0.212133	0.396862	0.150011	
-0.347855	-0.285477	0.149967	
-0.285477	-0.347855	0.149972	
-0.318198	-0.318198	0.1	
-0.237792	-0.287474	0.1	
-0.312659	-0.0214623	0.1	
-0.320541	0.0201981	0.2	
-0.318623	-0.0616012	0.2	
-0.256491	-0.0362829	0.2	
0.329177	0.174808	0.2	
0.297412	0.240191	0.2	
0.396865	0.212129	0.149953	
0.304312	0.234791	0.1	
0.281012	0.0229437	0.2	
0.26859	-0.0619166	0.2	
0.201967	-0.00950962	0.2	
0.251733	-0.014256	0.1	
0.155004	0.296903	0.2	
0.173936	0.254382	0.1	
0.117493	0.309521	0.1	
0.180378	0.336857	0.1	
0.0447484	0.293988	0.1	
-0.00311199	0.32667	0.1	
0.0210919	0.316201	0.2	
0.0450774	0.367889	0.1	
-0.374161	-0.250007	0.1	
-0.347855	-0.285477	0.149967	
-0.29175	-0.237189	0.1	
-0.331484	-0.17939	0.1	
-0.0135764	0.270208	0.1	
-0.0730421	0.296762	0.2	
0.00604814	0.236488	0.2	
0.0210919	0.316201	0.2	
-0.173995	-0.331361	0.1	
-0.170075	-0.251953	0.1	
-0.237792	-0.287474	0.1	
-0.223685	-0.271786	0.2	
0.132963	0.044259	0.2	
0.201967	-0.00950962	0.2	
0.12107	-0.0431928	0.2	
0.0969794	0.021072	0.155881	
-0.217513	0.254621	0.1	
-0.248262	0.29482	0.2	
-0.287124	0.235637	0.2	
-0.207714	0.236511	0.2	
0.297412	0.240191	0.2	
0.347855	0.285477	0.149953	
0.396865	0.212129	0.149953	
0.304312	0.234791	0.1	
-0.172208	0.415746	0.2	
-0.212133	0.396862	0.150011	
-0.130628	0.430623	0.150047	
-0.108028	0.370407	0.2	
-0.0203113	-0.154489	0.1	
0.0142935	-0.12453	0.1	
-0.0251864	-0.106886	0.1	
0.00260765	-0.105267	0.157285	
-0.173995	-0.331361	0.1	
-0.112928	-0.360216	0.2	
-0.13795	-0.29702	0.2	
-0.182092	-0.340669	0.2	
0.314556	0.0156287	0.1	
0.255462	0.038247	0.1	
0.281012	0.0229437	0.2	
0.287454	0.0808414	0.1	
0.0714224	0.0228299	0.1	
0.0662467	-0.0253248	0.1	
0.104819	-0.00331638	0.1	
0.0969794	0.021072	0.155881	
0.314556	0.0156287	0.1	
0.363227	0.0380543	0.2	
0.355442	0.107822	0.1	
0.287454	0.0808414	0.1	
0.0839363	-0.30145	0.2	
0.00378559	-0.316996	0.2	
0.0148093	-0.246449	0.2	
0.0511003	-0.317442	0.1	
-0.237687	0.180874	0.1	
-0.300257	0.152847	0.1	
-0.242461	0.118505	0.1	
-0.244028	0.149971	0.2	
0.281012	0.0229437	0.2	
0.255462	0.038247	0.1	
0.314556	0.0156287	0.1	
0.251733	-0.014256	0.1	
-0.347855	-0.285477	0.149967	
-0.374161	-0.250007	0.1	
-0.396865	-0.212129	0.149995	
-0.331484	-0.17939	0.1	
0.294509	0.157311	0.1	
0.329177	0.174808	0.2	
0.355442	0.107822	0.1	
0.349981	0.18562	0.1	
0.0318198	0.0318198	0.1	
0.0714224	0.0228299	0.1	
0.0550025	0.059172	0.1	
0.0396544	0.04868	0.156181	
0.396865	0.212129	0.149953	
0.415746	0.172208	0.2	
0.369533	0.112832	0.2	
0.430623	0.130628	0.149953	
-0.365881	-0.111705	0.2	
-0.373197	-0.0467972	0.1	
-0.379429	-0.0366192	0.2	
-0.318623	-0.0616012	0.2	
0.130628	-0.430623	0.149953	
0.111895	-0.372646	0.2	
0.172208	-0.415746	0.2	
0.212129	-0.396865	0.149953	
-0.0615368	-0.322264	0.1	
-0.104718	-0.361527	0.1	
-0.0276628	-0.367444	0.1	
-0.0383965	-0.372403	0.2	
-0.172208	-0.415746	0.1	
-0.173995	-0.331361	0.1	
-0.212128	-0.396865	0.149972	
-0.130611	-0.430628	0.15	
-0.172208	-0.415746	0.2	
-0.112928	-0.360216	0.2	
-0.130611	-0.430628	0.15	
-0.182092	-0.340669	0.2	
0.213357	0.0766959	0.2	
0.296534	0.101262	0.2	
0.281012	0.0229437	0.2	
0.287454	0.0808414	0.1	
-0.175847	0.204716	0.1	
-0.138104	0.243902	0.2	
-0.207714	0.236511	0.2	
-0.155635	0.172227	0.2	
0.134408	-0.294741	0.1	
0.138545	-0.218367	0.1	
0.147007	-0.259035	0.2	
0.199452	-0.267103	0.1	
0.446786	-0.053688	0.149994	
0.430623	-0.130628	0.149953	
0.441353	-0.0877906	0.2	
0.384421	-0.0378621	0.2	
-0.0318198	-0.0318198	0.1	
-0.0200153	-0.0483211	0.151402	
-0.0436673	0.0180876	0.150301	
-0.088703	-0.0138649	0.150815	
-0.207714	0.236511	0.2	
-0.287124	0.235637	0.2	
-0.237687	0.180874	0.1	
-0.244028	0.149971	0.2	
0.250007	0.374161	0.1	
0.285477	0.347855	0.149953	
0.212129	0.396865	0.149953	
0.180378	0.336857	0.1	
0.0210919	0.316201	0.2	
0.0381609	0.387454	0.2	
0.107822	0.355442	0.2	
0.0450774	0.367889	0.1	
0.25204	-0.306462	0.2	
0.257787	-0.293807	0.1	
0.216652	-0.249073	0.2	
0.29265	-0.244884	0.2	
0.250007	0.374161	0.1	
0.285477	0.347855	0.149953	
0.180378	0.336857	0.1	
0.245754	0.289669	0.1	
0.296534	0.101262	0.2	
0.369533	0.112832	0.2	
0.363227	0.0380543	0.2	
0.355442	0.107822	0.1	
0.237285	0.176133	0.2	
0.154944	0.223937	0.2	
0.228237	0.281807	0.2	
0.238182	0.208514	0.1	
0.00378559	-0.316996	0.2	
-0.0383965	-0.372403	0.2	
-0.0276628	-0.367444	0.1	
0.0404591	-0.377182	0.2	
-0.365881	-0.111705	0.2	
-0.356724	-0.11546	0.1	
-0.373197	-0.0467972	0.1	
-0.318623	-0.0616012	0.2	
0.347855	-0.285477	0.149953	
0.287124	-0.235637	0.1	
0.331486	-0.177371	0.1	
0.374161	-0.250007	0.1	
-0.374161	-0.250007	0.2	
-0.298599	-0.245054	0.2	
-0.347855	-0.285477	0.149967	
-0.396865	-0.212129	0.149995	
-0.0276546	-0.0671169	0.1	
0.00728726	-0.0832273	0.1	
0	-0.045	0.1	
-0.0200153	-0.0483211	0.151402	
-0.0383965	-0.372403	0.2	
-0.112928	-0.360216	0.2	
-0.0536856	-0.446786	0.15	
-0.0877906	-0.441353	0.2	
-0.112928	-0.360216	0.2	
-0.130611	-0.430628	0.15	
-0.0536856	-0.446786	0.15	
-0.0877906	-0.441353	0.2	
0.134408	-0.294741	0.1	
0.147007	-0.259035	0.2	
0.175084	-0.3275	0.2	
0.199452	-0.267103	0.1	
-0.0318198	-0.0318198	0.1	
0	-0.045	0.1	
-0.00500969	-0.0120945	0.1	
-0.0200153	-0.0483211	0.151402	
0.297412	0.240191	0.2	
0.228237	0.281807	0.2	
0.285477	0.347855	0.149953	
0.245754	0.289669	0.1	
-0.300257	0.152847	0.1	
-0.351668	0.187175	0.1	
-0.355442	0.107822	0.1	
-0.32913	0.168426	0.2	
0.0877906	0.441353	0.1	
0.120589	0.374273	0.1	
0.130628	0.430623	0.149953	
0.053688	0.446786	0.149994	
-0.130611	-0.430628	0.15	
-0.212128	-0.396865	0.149972	
-0.172208	-0.415746	0.2	
-0.182092	-0.340669	0.2	
-0.173995	-0.331361	0.1	
-0.172208	-0.415746	0.1	
-0.104718	-0.361527	0.1	
-0.130611	-0.430628	0.15	
-0.116127	0.293072	0.1	
-0.0730421	0.296762	0.2	
-0.173131	0.322508	0.2	
-0.138104	0.243902	0.2	
-0.111587	-0.287654	0.1	
-0.170075	-0.251953	0.1	
-0.13795	-0.29702	0.2	
-0.133674	-0.228308	0.2	
-0.182092	-0.340669	0.2	
-0.173995	-0.331361	0.1	
-0.237792	-0.287474	0.1	
-0.223685	-0.271786	0.2	
0.117493	0.309521	0.1	
0.107822	0.355442	0.2	
0.120589	0.374273	0.1	
0.0450774	0.367889	0.1	
-0.170075	-0.251953	0.1	
-0.223685	-0.271786	0.2	
-0.133674	-0.228308	0.2	
-0.201609	-0.173762	0.2	
0.0210919	0.316201	0.2	
0.0872949	0.269115	0.2	
0.00604814	0.236488	0.2	
0.0447484	0.293988	0.1	
0.0060848	-2.90377e-05	0.157763	
-0.0436673	0.0180876	0.150301	
-0.00500969	-0.0120945	0.1	
-0.0200153	-0.0483211	0.151402	
-0.298599	-0.245054	0.2	
-0.237792	-0.287474	0.1	
-0.29175	-0.237189	0.1	
-0.223685	-0.271786	0.2	
-0.172208	0.415746	0.1	
-0.182284	0.324323	0.1	
-0.10824	0.362258	0.1	
-0.212133	0.396862	0.150011	
0.0986719	-0.0360043	0.1	
0.0662467	-0.0253248	0.1	
0.0868431	-0.0680824	0.1	
0.0512771	-0.0404658	0.154914	
-0.355442	0.107822	0.1	
-0.296313	0.0995627	0.2	
-0.32913	0.168426	0.2	
-0.362114	0.10176	0.2	
-0.347855	0.285477	0.150034	
-0.396866	0.212126	0.150019	
-0.287124	0.235637	0.2	
-0.374161	0.250007	0.2	
0.329177	0.174808	0.2	
0.296534	0.101262	0.2	
0.294509	0.157311	0.1	
0.355442	0.107822	0.1	
-0.190622	-0.0884834	0.2	
-0.111446	-0.0565624	0.2	
-0.12308	-0.143942	0.2	
-0.142279	-0.0393203	0.151217	
0.144601	0.131477	0.2	
0.237285	0.176133	0.2	
0.213357	0.0766959	0.2	
0.230865	0.135658	0.1	
-0.430628	0.130611	0.15	
-0.441353	0.0877906	0.1	
-0.355442	0.107822	0.1	
-0.446786	0.0536856	0.15	
0.296534	0.101262	0.2	
0.329177	0.174808	0.2	
0.369533	0.112832	0.2	
0.355442	0.107822	0.1	
-0.298599	-0.245054	0.2	
-0.374161	-0.250007	0.2	
-0.327578	-0.175094	0.2	
-0.396865	-0.212129	0.149995	
0.0207402	-0.174187	0.1	
0.0279075	-0.16395	0.2	
0.062652	-0.118801	0.158114	
0.00260765	-0.105267	0.157285	
0.0872949	0.269115	0.2	
0.0447484	0.293988	0.1	
0.117493	0.309521	0.1	
0.0906227	0.254757	0.1	
0.374822	-0.0324999	0.1	
0.324791	-0.0252069	0.2	
0.363227	0.0380543	0.2	
0.314556	0.0156287	0.1	
-0.396866	0.212126	0.150019	
-0.430628	0.130611	0.15	
-0.32913	0.168426	0.2	
-0.415746	0.172208	0.2	
0.0839363	-0.30145	0.2	
0.147007	-0.259035	0.2	
0.175084	-0.3275	0.2	
0.134408	-0.294741	0.1	
0.387235	0.0357483	0.1	
0.363227	0.0380543	0.2	
0.355442	0.107822	0.1	
0.314556	0.0156287	0.1	
0.415746	-0.172208	0.2	
0.430623	-0.130628	0.149953	
0.396865	-0.212129	0.149953	
0.339399	-0.183579	0.2	
-0.201609	-0.173762	0.2	
-0.133674	-0.228308	0.2	
-0.16441	-0.183508	0.1	
-0.12308	-0.143942	0.2	
-0.373197	-0.0467972	0.1	
-0.356724	-0.11546	0.1	
-0.365881	-0.111705	0.2	
-0.430623	-0.130628	0.150047	
0.396865	-0.212129	0.149953	
0.347855	-0.285477	0.149953	
0.374161	-0.250007	0.2	
0.339399	-0.183579	0.2	
0.347855	0.285477	0.149953	
0.297412	0.240191	0.2	
0.318198	0.318198	0.2	
0.285477	0.347855	0.149953	
0.357114	-0.107098	0.1	
0.446786	-0.053688	0.149994	
0.430623	-0.130628	0.149953	
0.441353	-0.0877906	0.1	
-0.133674	-0.228308	0.2	
-0.13795	-0.29702	0.2	
-0.111587	-0.287654	0.1	
-0.0659287	-0.28985	0.2	
0.441353	0.0877906	0.1	
0.446786	0.053688	0.149994	
0.355442	0.107822	0.1	
0.387235	0.0357483	0.1	
0.257787	-0.293807	0.1	
0.287124	-0.235637	0.1	
0.216652	-0.249073	0.2	
0.29265	-0.244884	0.2	
0.0877906	0.441353	0.1	
0.120589	0.374273	0.1	
0.053688	0.446786	0.149994	
0.0450774	0.367889	0.1	
0.0858783	0.0607949	0.1	
0.0396544	0.04868	0.156181	
0.0714224	0.0228299	0.1	
0.0969794	0.021072	0.155881	
0.387235	0.0357483	0.1	
0.374822	-0.0324999	0.1	
0.363227	0.0380543	0.2	
0.314556	0.0156287	0.1	
0.329177	0.174808	0.2	
0.415746	0.172208	0.2	
0.369533	0.112832	0.2	
0.396865	0.212129	0.149953	
-0.225546	-0.215121	0.1	
-0.237792	-0.287474	0.1	
-0.170075	-0.251953	0.1	
-0.223685	-0.271786	0.2	
-0.304909	0.0444641	0.1	
-0.372975	0.0289182	0.1	
-0.312659	-0.0214623	0.1	
-0.320541	0.0201981	0.2	
0.261818	-0.161797	0.2	
0.26859	-0.0619166	0.2	
0.348465	-0.103096	0.2	
0.287371	-0.120299	0.1	
0.294509	0.157311	0.1	
0.230865	0.135658	0.1	
0.237285	0.176133	0.2	
0.238182	0.208514	0.1	
-0.10824	0.362258	0.1	
-0.0358979	0.379949	0.1	
-0.0877906	0.441353	0.1	
-0.053688	0.446786	0.150006	
0.357114	-0.107098	0.1	
0.374822	-0.0324999	0.1	
0.446786	-0.053688	0.149994	
0.441353	-0.0877906	0.1	
0.355442	0.107822	0.1	
0.296534	0.101262	0.2	
0.294509	0.157311	0.1	
0.287454	0.0808414	0.1	
0.0511003	-0.317442	0.1	
0.082636	-0.254415	0.1	
0.0839363	-0.30145	0.2	
0.134408	-0.294741	0.1	
0.237285	0.176133	0.2	
0.144601	0.131477	0.2	
0.154944	0.223937	0.2	
0.179715	0.179275	0.1	
0.0839363	-0.30145	0.2	
0.109857	-0.362973	0.1	
0.0511003	-0.317442	0.1	
0.134408	-0.294741	0.1	
0.175084	-0.3275	0.2	
0.172208	-0.415746	0.2	
0.111895	-0.372646	0.2	
0.212129	-0.396865	0.149953	
-0.292926	0.235471	0.1	
-0.374161	0.250007	0.1	
-0.351668	0.187175	0.1	
-0.347855	0.285477	0.150034	
-0.250007	0.374161	0.2	
-0.248262	0.29482	0.2	
-0.212133	0.396862	0.150011	
-0.173131	0.322508	0.2	
0.237285	0.176133	0.2	
0.296534	0.101262	0.2	
0.213357	0.0766959	0.2	
0.230865	0.135658	0.1	
0.228237	0.281807	0.2	
0.297412	0.240191	0.2	
0.237285	0.176133	0.2	
0.238182	0.208514	0.1	
0.314556	0.0156287	0.1	
0.374822	-0.0324999	0.1	
0.324791	-0.0252069	0.2	
0.303447	-0.0554764	0.1	
0.25204	-0.306462	0.2	
0.175084	-0.3275	0.2	
0.216652	-0.249073	0.2	
0.199452	-0.267103	0.1	
-0.396866	0.212126	0.150019	
-0.351668	0.187175	0.1	
-0.374161	0.250007	0.1	
-0.347855	0.285477	0.150034	
0.230865	0.135658	0.1	
0.179715	0.179275	0.1	
0.237285	0.176133	0.2	
0.238182	0.208514	0.1	
-0.372975	0.0289182	0.1	
-0.355442	0.107822	0.1	
-0.441353	0.0877906	0.1	
-0.446786	0.0536856	0.15	
-0.396865	-0.212129	0.149995	
-0.356724	-0.11546	0.1	
-0.415746	-0.172208	0.1	
-0.430623	-0.130628	0.150047	
0.250007	-0.374161	0.2	
0.285477	-0.347855	0.149953	
0.212129	-0.396865	0.149953	
0.25204	-0.306462	0.2	
-0.396865	-0.212129	0.149995	
-0.415746	-0.172208	0.2	
-0.365881	-0.111705	0.2	
-0.430623	-0.130628	0.150047	
0.00728726	-0.0832273	0.1	
-0.0200153	-0.0483211	0.151402	
-0.0276546	-0.0671169	0.1	
0.00260765	-0.105267	0.157285	
0.155004	0.296903	0.2	
0.0872949	0.269115	0.2	
0.107822	0.355442	0.2	
0.117493	0.309521	0.1	
0.0488551	-0.0983509	0.1	
0.062652	-0.118801	0.158114	
0.0512771	-0.0404658	0.154914	
0.00260765	-0.105267	0.157285	
0.211584	-0.20097	0.1	
0.287124	-0.235637	0.1	
0.216652	-0.249073	0.2	
0.199452	-0.267103	0.1	
0.0488551	-0.0983509	0.1	
0.00728726	-0.0832273	0.1	
0.0142935	-0.12453	0.1	
0.00260765	-0.105267	0.157285	
-0.0415815	-0.110392	0.2	
0.0279075	-0.16395	0.2	
-0.0529805	-0.19738	0.2	
0.00260765	-0.105267	0.157285	
0.257787	-0.293807	0.1	
0.216652	-0.249073	0.2	
0.287124	-0.235637	0.1	
0.199452	-0.267103	0.1	
0.318198	0.318198	0.1	
0.347855	0.285477	0.149953	
0.285477	0.347855	0.149953	
0.245754	0.289669	0.1	
0.374161	-0.250007	0.2	
0.347855	-0.285477	0.149953	
0.29265	-0.244884	0.2	
0.339399	-0.183579	0.2	
-0.223685	-0.271786	0.2	
-0.225546	-0.215121	0.1	
-0.265692	-0.195501	0.2	
-0.201609	-0.173762	0.2	
0.00378559	-0.316996	0.2	
0.0839363	-0.30145	0.2	
0.0404591	-0.377182	0.2	
0.0511003	-0.317442	0.1	
0.374161	0.250007	0.2	
0.297412	0.240191	0.2	
0.347855	0.285477	0.149953	
0.396865	0.212129	0.149953	
-0.347855	0.285477	0.150034	
-0.285477	0.347854	0.150033	
-0.318198	0.318198	0.2	
-0.248262	0.29482	0.2	
-0.0877906	0.441353	0.1	
-0.10824	0.362258	0.1	
-0.053688	0.446786	0.150006	
-0.130628	0.430623	0.150047	
0.154944	0.223937	0.2	
0.155004	0.296903	0.2	
0.228237	0.281807	0.2	
0.173936	0.254382	0.1	
0.348465	-0.103096	0.2	
0.26859	-0.0619166	0.2	
0.324791	-0.0252069	0.2	
0.303447	-0.0554764	0.1	
0.18581	0.349201	0.2	
0.172208	0.415746	0.2	
0.212129	0.396865	0.149953	
0.130628	0.430623	0.149953	
-0.0276546	-0.0671169	0.1	
0.00260765	-0.105267	0.157285	
-0.0200153	-0.0483211	0.151402	
-0.0647576	-0.0686517	0.145827	
0.296534	0.101262	0.2	
0.237285	0.176133	0.2	
0.329177	0.174808	0.2	
0.294509	0.157311	0.1	
0.318198	-0.318198	0.2	
0.347855	-0.285477	0.149953	
0.285477	-0.347855	0.149953	
0.25204	-0.306462	0.2	
0.430623	0.130628	0.149953	
0.396865	0.212129	0.149953	
0.415746	0.172208	0.1	
0.349981	0.18562	0.1	
0.130628	-0.430623	0.149953	
0.053688	-0.446786	0.149994	
0.044217	-0.387842	0.1	
0.0877906	-0.441353	0.1	
0.175084	-0.3275	0.2	
0.187286	-0.334755	0.1	
0.134408	-0.294741	0.1	
0.199452	-0.267103	0.1	
-0.396865	-0.212129	0.149995	
-0.415746	-0.172208	0.1	
-0.356724	-0.11546	0.1	
-0.331484	-0.17939	0.1	
-0.374161	0.250007	0.2	
-0.396866	0.212126	0.150019	
-0.287124	0.235637	0.2	
-0.32913	0.168426	0.2	
-0.0358979	0.379949	0.1	
0	0.45	0.1	
0	0.45	0.15	
0.0450774	0.367889	0.1	
-0.320541	0.0201981	0.2	
-0.248332	0.050693	0.2	
-0.304909	0.0444641	0.1	
-0.296313	0.0995627	0.2	
-0.292926	0.235471	0.1	
-0.251772	0.306785	0.1	
-0.318198	0.318198	0.1	
-0.347855	0.285477	0.150034	
-0.347855	0.285477	0.150034	
-0.251772	0.306785	0.1	
-0.318198	0.318198	0.1	
-0.285477	0.347854	0.150033	
-0.251772	0.306785	0.1	
-0.212133	0.396862	0.150011	
-0.250007	0.374161	0.1	
-0.285477	0.347854	0.150033	
-0.396866	0.212126	0.150019	
-0.415746	0.172208	0.1	
-0.351668	0.187175	0.1	
-0.430628	0.130611	0.15	
0.287124	-0.235637	0.1	
0.257787	-0.293807	0.1	
0.347855	-0.285477	0.149953	
0.29265	-0.244884	0.2	
0.0404591	-0.377182	0.2	
0	-0.45	0.2	
-0.0383965	-0.372403	0.2	
0	-0.45	0.15	
-0.365881	-0.111705	0.2	
-0.327578	-0.175094	0.2	
-0.415746	-0.172208	0.2	
-0.396865	-0.212129	0.149995	
-0.108028	0.370407	0.2	
-0.172208	0.415746	0.2	
-0.212133	0.396862	0.150011	
-0.173131	0.322508	0.2	
0.25204	-0.306462	0.2	
0.318198	-0.318198	0.2	
0.347855	-0.285477	0.149953	
0.29265	-0.244884	0.2	
-0.0791922	0.124893	0.1	
-0.0949426	0.0752698	0.1	
-0.0583523	0.0875158	0.1	
-0.0733988	0.0716859	0.157752	
0.114815	0.0394603	0.1	
0.104819	-0.00331638	0.1	
0.153315	0.00689278	0.1	
0.0969794	0.021072	0.155881	
0.18581	0.349201	0.2	
0.250007	0.374161	0.2	
0.285477	0.347855	0.149953	
0.212129	0.396865	0.149953	
0.384421	-0.0378621	0.2	
0.45	0	0.2	
0.45	0	0.15	
0.363227	0.0380543	0.2	
-0.32913	0.168426	0.2	
-0.296313	0.0995627	0.2	
-0.300257	0.152847	0.1	
-0.244028	0.149971	0.2	
-0.355442	0.107822	0.1	
-0.351668	0.187175	0.1	
-0.415746	0.172208	0.1	
-0.430628	0.130611	0.15	
0.216652	-0.249073	0.2	
0.257787	-0.293807	0.1	
0.25204	-0.306462	0.2	
0.199452	-0.267103	0.1	
-0.0944203	0.0353385	0.1	
-0.104461	0.000932435	0.1	
-0.0737761	0.00176994	0.1	
-0.088703	-0.0138649	0.150815	
0.441353	0.0877906	0.1	
0.446786	0.053688	0.149994	
0.430623	0.130628	0.149953	
0.355442	0.107822	0.1	
0.369533	0.112832	0.2	
0.441353	0.0877906	0.2	
0.446786	0.053688	0.149994	
0.430623	0.130628	0.149953	
0.0550025	0.059172	0.1	
0.0250698	0.0602098	0.1	
0.0318198	0.0318198	0.1	
0.0396544	0.04868	0.156181	
0.147007	-0.259035	0.2	
0.216652	-0.249073	0.2	
0.175084	-0.3275	0.2	
0.199452	-0.267103	0.1	
0.187286	-0.334755	0.1	
0.285477	-0.347855	0.149953	
0.212129	-0.396865	0.149953	
0.250007	-0.374161	0.1	
0.216652	-0.249073	0.2	
0.174426	-0.185564	0.2	
0.261818	-0.161797	0.2	
0.211584	-0.20097	0.1	
-0.446786	-0.053688	0.150006	
-0.441353	-0.0877906	0.1	
-0.373197	-0.0467972	0.1	
-0.430623	-0.130628	0.150047	
-0.415746	0.172208	0.2	
-0.430628	0.130611	0.15	
-0.32913	0.168426	0.2	
-0.362114	0.10176	0.2	
-0.379429	-0.0366192	0.2	
-0.365881	-0.111705	0.2	
-0.441353	-0.0877906	0.2	
-0.446786	-0.053688	0.150006	
0.0405437	0.0931998	0.1	
0.0691478	0.134694	0.1	
0.0139627	0.124614	0.1	
0.0186333	0.101613	0.152058	
0.347855	0.285477	0.149953	
0.318198	0.318198	0.1	
0.304312	0.234791	0.1	
0.245754	0.289669	0.1	
-0.223685	-0.271786	0.2	
-0.13795	-0.29702	0.2	
-0.170075	-0.251953	0.1	
-0.133674	-0.228308	0.2	
0.250007	-0.374161	0.2	
0.212129	-0.396865	0.149953	
0.175084	-0.3275	0.2	
0.25204	-0.306462	0.2	
0.044217	-0.387842	0.1	
0.109857	-0.362973	0.1	
0.130628	-0.430623	0.149953	
0.0877906	-0.441353	0.1	
-0.108753	-0.0943056	0.1	
-0.112529	-0.0425202	0.1	
-0.157075	-0.0653284	0.1	
-0.142279	-0.0393203	0.151217	
-0.347855	-0.285477	0.149967	
-0.298599	-0.245054	0.2	
-0.318198	-0.318198	0.2	
-0.285477	-0.347855	0.149972	
-0.0949426	0.0752698	0.1	
-0.0944203	0.0353385	0.1	
-0.0611924	0.0535755	0.1	
-0.0733988	0.0716859	0.157752	
0.0250698	0.0602098	0.1	
0.0405437	0.0931998	0.1	
0.00442099	0.0829354	0.1	
0.0186333	0.101613	0.152058	
-0.00652201	0.151895	0.2	
-0.0182151	0.0644617	0.2	
-0.0880857	0.11829	0.2	
-0.0733988	0.0716859	0.157752	
-0.250007	0.374161	0.1	
-0.182284	0.324323	0.1	
-0.212133	0.396862	0.150011	
-0.251772	0.306785	0.1	
-0.285477	-0.347855	0.149972	
-0.250007	-0.374161	0.2	
-0.212128	-0.396865	0.149972	
-0.182092	-0.340669	0.2	
-0.0200153	-0.0483211	0.151402	
-0.088703	-0.0138649	0.150815	
-0.0712343	-0.0265969	0.1	
-0.0647576	-0.0686517	0.145827	
0.257787	-0.293807	0.1	
0.285477	-0.347855	0.149953	
0.187286	-0.334755	0.1	
0.250007	-0.374161	0.1	
0.363227	0.0380543	0.2	
0.369533	0.112832	0.2	
0.441353	0.0877906	0.2	
0.446786	0.053688	0.149994	
0.172208	0.415746	0.1	
0.120589	0.374273	0.1	
0.212129	0.396865	0.149953	
0.130628	0.430623	0.149953	
0.130628	-0.430623	0.149953	
0.0877906	-0.441353	0.2	
0.111895	-0.372646	0.2	
0.053688	-0.446786	0.149994	
0.0750467	0.185499	0.2	
0.0632975	0.0980676	0.2	
-0.00652201	0.151895	0.2	
0.0186333	0.101613	0.152058	
0.297412	0.240191	0.2	
0.374161	0.250007	0.2	
0.329177	0.174808	0.2	
0.396865	0.212129	0.149953	
0	-0.45	0.15	
0	-0.45	0.1	
-0.0276628	-0.367444	0.1	
0.044217	-0.387842	0.1	
-0.365881	-0.111705	0.2	
-0.441353	-0.0877906	0.2	
-0.446786	-0.053688	0.150006	
-0.430623	-0.130628	0.150047	
0.45	0	0.2	
0.45	0	0.15	
0.363227	0.0380543	0.2	
0.446786	0.053688	0.149994	
0.0398215	-0.0765894	0.2	
-0.0200153	-0.0483211	0.151402	
0.0060848	-2.90377e-05	0.157763	
0.0512771	-0.0404658	0.154914	
0.107822	0.355442	0.2	
0.172208	0.415746	0.2	
0.18581	0.349201	0.2	
0.130628	0.430623	0.149953	
-0.362114	0.10176	0.2	
-0.441353	0.0877906	0.2	
-0.446786	0.0536856	0.15	
-0.389559	0.0336032	0.2	
-0.12308	-0.143942	0.2	
-0.111446	-0.0565624	0.2	
-0.0415815	-0.110392	0.2	
-0.0647576	-0.0686517	0.145827	
-0.372975	0.0289182	0.1	
-0.45	0	0.1	
-0.373197	-0.0467972	0.1	
-0.45	0	0.15	
0.0877906	-0.441353	0.2	
0.0404591	-0.377182	0.2	
0.111895	-0.372646	0.2	
0.053688	-0.446786	0.149994	
-0.0538392	-0.0535857	0.1	
-0.0712343	-0.0265969	0.1	
-0.080591	-0.0588792	0.1	
-0.0647576	-0.0686517	0.145827	
-0.080591	-0.0588792	0.1	
-0.088703	-0.0138649	0.150815	
-0.112529	-0.0425202	0.1	
-0.0647576	-0.0686517	0.145827	
0.212129	0.396865	0.149953	
0.120589	0.374273	0.1	
0.172208	0.415746	0.1	
0.180378	0.336857	0.1	
-0.0318198	0.0318198	0.1	
-0.0606984	0.0243229	0.1	
-0.045	0	0.1	
-0.0436673	0.0180876	0.150301	
-0.0182151	0.0644617	0.2	
0.0396544	0.04868	0.156181	
0.0060848	-2.90377e-05	0.157763	
-0.0436673	0.0180876	0.150301	
0.053688	0.446786	0.149994	
0	0.45	0.15	
0	0.45	0.1	
0.0450774	0.367889	0.1	
0.339399	-0.183579	0.2	
0.415746	-0.172208	0.2	
0.430623	-0.130628	0.149953	
0.348465	-0.103096	0.2	
0.349981	0.18562	0.1	
0.396865	0.212129	0.149953	
0.374161	0.250007	0.1	
0.304312	0.234791	0.1	
0.0587245	-0.143156	0.1	
0.110168	-0.152489	0.1	
0.0864603	-0.112342	0.1	
0.062652	-0.118801	0.158114	
0.0587245	-0.143156	0.1	
0.0488551	-0.0983509	0.1	
0.0142935	-0.12453	0.1	
0.062652	-0.118801	0.158114	
0.0250698	0.0602098	0.1	
0.0396544	0.04868	0.156181	
0.0405437	0.0931998	0.1	
0.0186333	0.101613	0.152058	
-0.0536856	-0.446786	0.15	
-0.104718	-0.361527	0.1	
-0.0877906	-0.441353	0.1	
-0.130611	-0.430628	0.15	
-0.0339688	0.375665	0.2	
0	0.45	0.15	
0	0.45	0.2	
0.0381609	0.387454	0.2	
-0.379429	-0.0366192	0.2	
-0.45	0	0.2	
-0.389559	0.0336032	0.2	
-0.45	0	0.15	
0.297412	0.240191	0.2	
0.228237	0.281807	0.2	
0.318198	0.318198	0.2	
0.285477	0.347855	0.149953	
0.348465	-0.103096	0.2	
0.441353	-0.0877906	0.2	
0.430623	-0.130628	0.149953	
0.384421	-0.0378621	0.2	
-0.080591	-0.0588792	0.1	
-0.0712343	-0.0265969	0.1	
-0.112529	-0.0425202	0.1	
-0.088703	-0.0138649	0.150815	
-0.446786	-0.053688	0.150006	
-0.373197	-0.0467972	0.1	
-0.45	0	0.1	
-0.45	0	0.15	
0.396865	0.212129	0.149953	
0.347855	0.285477	0.149953	
0.374161	0.250007	0.1	
0.304312	0.234791	0.1	
0.0398215	-0.0765894	0.2	
0.0512771	-0.0404658	0.154914	
0.12107	-0.0431928	0.2	
0.062652	-0.118801	0.158114	
0.281012	0.0229437	0.2	
0.363227	0.0380543	0.2	
0.324791	-0.0252069	0.2	
0.314556	0.0156287	0.1	
-0.248262	0.29482	0.2	
-0.318198	0.318198	0.2	
-0.347855	0.285477	0.150034	
-0.287124	0.235637	0.2	
-0.0877906	0.441353	0.2	
-0.130628	0.430623	0.150047	
-0.053688	0.446786	0.150006	
-0.108028	0.370407	0.2	
0.355442	0.107822	0.1	
0.430623	0.130628	0.149953	
0.415746	0.172208	0.1	
0.349981	0.18562	0.1	
-0.441353	0.0877906	0.2	
-0.446786	0.0536856	0.15	
-0.430628	0.130611	0.15	
-0.362114	0.10176	0.2	
-0.0383965	-0.372403	0.2	
0	-0.45	0.2	
-0.0536856	-0.446786	0.15	
0	-0.45	0.15	
-0.053688	0.446786	0.150006	
-0.0877906	0.441353	0.2	
-0.108028	0.370407	0.2	
-0.0339688	0.375665	0.2	
-0.112529	-0.0425202	0.1	
-0.0647576	-0.0686517	0.145827	
-0.088703	-0.0138649	0.150815	
-0.142279	-0.0393203	0.151217	
0.374822	-0.0324999	0.1	
0.45	0	0.15	
0.45	0	0.1	
0.387235	0.0357483	0.1	
0	-0.45	0.1	
-0.0276628	-0.367444	0.1	
-0.0536856	-0.446786	0.15	
0	-0.45	0.15	
0.0868431	-0.0680824	0.1	
0.0662467	-0.0253248	0.1	
0.0401753	-0.0586342	0.1	
0.0512771	-0.0404658	0.154914	
0.18581	0.349201	0.2	
0.250007	0.374161	0.2	
0.228237	0.281807	0.2	
0.285477	0.347855	0.149953	
-0.356724	-0.11546	0.1	
-0.373197	-0.0467972	0.1	
-0.441353	-0.0877906	0.1	
-0.430623	-0.130628	0.150047	
0.0279075	-0.16395	0.2	
0.108307	-0.130924	0.2	
0.0922363	-0.215793	0.2	
0.062652	-0.118801	0.158114	
-0.298599	-0.245054	0.2	
-0.318198	-0.318198	0.2	
-0.285477	-0.347855	0.149972	
-0.223685	-0.271786	0.2	
-0.0318198	0.0318198	0.1	
-0.045	0	0.1	
-0.0201457	0.00856081	0.1	
-0.0436673	0.0180876	0.150301	
-0.0276628	-0.367444	0.1	
-0.104718	-0.361527	0.1	
-0.0877906	-0.441353	0.1	
-0.0536856	-0.446786	0.15	
-0.153293	-0.011499	0.1	
-0.203899	-0.0323666	0.1	
-0.157075	-0.0653284	0.1	
-0.142279	-0.0393203	0.151217	
0.0398215	-0.0765894	0.2	
0.0060848	-2.90377e-05	0.157763	
0.0516213	0.0106253	0.2	
0.0512771	-0.0404658	0.154914	
-0.182092	-0.340669	0.2	
-0.285477	-0.347855	0.149972	
-0.250007	-0.374161	0.2	
-0.223685	-0.271786	0.2	
0.0488551	-0.0983509	0.1	
0.0142935	-0.12453	0.1	
0.062652	-0.118801	0.158114	
0.00260765	-0.105267	0.157285	
0.285477	-0.347855	0.149953	
0.318198	-0.318198	0.1	
0.257787	-0.293807	0.1	
0.347855	-0.285477	0.149953	
-0.0276546	-0.0671169	0.1	
-0.0538392	-0.0535857	0.1	
-0.0619298	-0.0870419	0.1	
-0.0647576	-0.0686517	0.145827	
0.114815	0.0394603	0.1	
0.0858783	0.0607949	0.1	
0.0714224	0.0228299	0.1	
0.0969794	0.021072	0.155881	
0.45	0	0.1	
0.446786	-0.053688	0.149994	
0.45	0	0.15	
0.374822	-0.0324999	0.1	
-0.0415815	-0.110392	0.2	
-0.0200153	-0.0483211	0.151402	
0.0398215	-0.0765894	0.2	
0.00260765	-0.105267	0.157285	
0	-0.45	0.15	
0.0404591	-0.377182	0.2	
0	-0.45	0.2	
0.053688	-0.446786	0.149994	
-0.0949426	0.0752698	0.1	
-0.0611924	0.0535755	0.1	
-0.0583523	0.0875158	0.1	
-0.0733988	0.0716859	0.157752	
-0.446786	0.0536856	0.15	
-0.45	0	0.1	
-0.372975	0.0289182	0.1	
-0.45	0	0.15	
0.0142935	-0.12453	0.1	
0.00728726	-0.0832273	0.1	
-0.0251864	-0.106886	0.1	
0.00260765	-0.105267	0.157285	
-0.104461	0.000932435	0.1	
-0.153293	-0.011499	0.1	
-0.112529	-0.0425202	0.1	
-0.142279	-0.0393203	0.151217	
-0.0299174	-0.0229457	0.2	
0.0060848	-2.90377e-05	0.157763	
0.0398215	-0.0765894	0.2	
-0.0200153	-0.0483211	0.151402	
-0.053688	0.446786	0.150006	
0	0.45	0.15	
0	0.45	0.2	
-0.0339688	0.375665	0.2	
0.0516213	0.0106253	0.2	
0.0396544	0.04868	0.156181	
0.0632975	0.0980676	0.2	
0.0969794	0.021072	0.155881	
-0.45	0	0.2	
-0.379429	-0.0366192	0.2	
-0.446786	-0.053688	0.150006	
-0.45	0	0.15	
0.0662467	-0.0253248	0.1	
0.0318198	-0.0318198	0.1	
0.0401753	-0.0586342	0.1	
0.0512771	-0.0404658	0.154914	
0.0516213	0.0106253	0.2	
0.0060848	-2.90377e-05	0.157763	
0.0396544	0.04868	0.156181	
0.0512771	-0.0404658	0.154914	
0	-0.045	0.1	
-0.0318198	-0.0318198	0.1	
-0.0276546	-0.0671169	0.1	
-0.0200153	-0.0483211	0.151402	
-0.0712343	-0.0265969	0.1	
-0.088703	-0.0138649	0.150815	
-0.080591	-0.0588792	0.1	
-0.0647576	-0.0686517	0.145827	
-0.0619298	-0.0870419	0.1	
-0.080591	-0.0588792	0.1	
-0.108753	-0.0943056	0.1	
-0.0647576	-0.0686517	0.145827	
-0.0182151	0.0644617	0.2	
-0.0299174	-0.0229457	0.2	
-0.0997698	0.0308567	0.2	
-0.0436673	0.0180876	0.150301	
0.0516213	0.0106253	0.2	
-0.0299174	-0.0229457	0.2	
-0.0182151	0.0644617	0.2	
0.0060848	-2.90377e-05	0.157763	
0.0632975	0.0980676	0.2	
0.0516213	0.0106253	0.2	
-0.0182151	0.0644617	0.2	
0.0396544	0.04868	0.156181	
0.0516213	0.0106253	0.2	
0.0512771	-0.0404658	0.154914	
0.0396544	0.04868	0.156181	
0.0969794	0.021072	0.155881	
0.0398215	-0.0765894	0.2	
0.12107	-0.0431928	0.2	
0.108307	-0.130924	0.2	
0.062652	-0.118801	0.158114	
-0.111446	-0.0565624	0.2	
-0.0299174	-0.0229457	0.2	
-0.0415815	-0.110392	0.2	
-0.0647576	-0.0686517	0.145827	
-0.0299174	-0.0229457	0.2	
0.0398215	-0.0765894	0.2	
-0.0415815	-0.110392	0.2	
-0.0200153	-0.0483211	0.151402	
0.0516213	0.0106253	0.2	
0.0398215	-0.0765894	0.2	
-0.0299174	-0.0229457	0.2	
0.0060848	-2.90377e-05	0.157763	
-0.0997698	0.0308567	0.2	
-0.088703	-0.0138649	0.150815	
-0.111446	-0.0565624	0.2	
-0.142279	-0.0393203	0.151217	
-0.0880857	0.11829	0.2	
-0.0182151	0.0644617	0.2	
-0.0997698	0.0308567	0.2	
-0.0733988	0.0716859	0.157752	
0	-0.45	0.1	
0	-0.45	0.15	
0.053688	-0.446786	0.149994	
0.044217	-0.387842	0.1	
-0.0997698	0.0308567	0.2	
-0.169647	0.0846842	0.2	
-0.0880857	0.11829	0.2	
-0.0733988	0.0716859	0.157752	
0	0.45	0.15	
0	0.45	0.1	
-0.0358979	0.379949	0.1	
-0.053688	0.446786	0.150006	
-0.0997698	0.0308567	0.2	
-0.111446	-0.0565624	0.2	
-0.181323	-0.0027565	0.2	
-0.142279	-0.0393203	0.151217	
0.0632975	0.0980676	0.2	
-0.0182151	0.0644617	0.2	
-0.00652201	0.151895	0.2	
0.0186333	0.101613	0.152058	
-0.111446	-0.0565624	0.2	
-0.0997698	0.0308567	0.2	
-0.0299174	-0.0229457	0.2	
-0.088703	-0.0138649	0.150815	
0.0139627	0.124614	0.1	
-0.0254114	0.106009	0.1	
0.00442099	0.0829354	0.1	
0.0186333	0.101613	0.152058	
-0.0415815	-0.110392	0.2	
0.0398215	-0.0765894	0.2	
0.0279075	-0.16395	0.2	
0.00260765	-0.105267	0.157285	
-0.0299174	-0.0229457	0.2	
-0.0200153	-0.0483211	0.151402	
-0.0415815	-0.110392	0.2	
-0.0647576	-0.0686517	0.145827	
-0.0997698	0.0308567	0.2	
-0.0733988	0.0716859	0.157752	
-0.0436673	0.0180876	0.150301	
-0.088703	-0.0138649	0.150815	
0.132963	0.044259	0.2	
0.0516213	0.0106253	0.2	
0.0632975	0.0980676	0.2	
0.0969794	0.021072	0.155881	
0.0864603	-0.112342	0.1	
0.0488551	-0.0983509	0.1	
0.0587245	-0.143156	0.1	
0.062652	-0.118801	0.158114	
0.287124	-0.235637	0.1	
0.257787	-0.293807	0.1	
0.318198	-0.318198	0.1	
0.347855	-0.285477	0.149953	
0.12107	-0.0431928	0.2	
0.0398215	-0.0765894	0.2	
0.0516213	0.0106253	0.2	
0.0512771	-0.0404658	0.154914	
-0.104461	0.000932435	0.1	
-0.112529	-0.0425202	0.1	
-0.088703	-0.0138649	0.150815	
-0.142279	-0.0393203	0.151217	
0.0516213	0.0106253	0.2	
0.132963	0.044259	0.2	
0.12107	-0.0431928	0.2	
0.0969794	0.021072	0.155881	
0.0381609	0.387454	0.2	
0	0.45	0.15	
0	0.45	0.2	
0.053688	0.446786	0.149994	
-0.111446	-0.0565624	0.2	
-0.088703	-0.0138649	0.150815	
-0.0299174	-0.0229457	0.2	
-0.0647576	-0.0686517	0.145827	
0.108307	-0.130924	0.2	
0.0279075	-0.16395	0.2	
0.0398215	-0.0765894	0.2	
0.062652	-0.118801	0.158114	
0.0516213	0.0106253	0.2	
0.12107	-0.0431928	0.2	
0.0512771	-0.0404658	0.154914	
0.0969794	0.021072	0.155881	
-0.0182151	0.0644617	0.2	
0.0060848	-2.90377e-05	0.157763	
-0.0299174	-0.0229457	0.2	
-0.0436673	0.0180876	0.150301	
0.45	0	0.15	
0.446786	-0.053688	0.149994	
0.45	0	0.2	
0.384421	-0.0378621	0.2	
-0.0182151	0.0644617	0.2	
-0.0436673	0.0180876	0.150301	
-0.0997698	0.0308567	0.2	
-0.0733988	0.0716859	0.157752	
0.446786	0.053688	0.149994	
0.45	0	0.1	
0.45	0	0.15	
0.387235	0.0357483	0.1	
-0.0997698	0.0308567	0.2	
-0.0436673	0.0180876	0.150301	
-0.0299174	-0.0229457	0.2	
-0.088703	-0.0138649	0.150815	
-0.0182151	0.0644617	0.2	
0.0516213	0.0106253	0.2	
0.0060848	-2.90377e-05	0.157763	
0.0396544	0.04868	0.156181	
0.441353	0.0877906	0.2	
0.45	0	0.2	
0.363227	0.0380543	0.2	
0.446786	0.053688	0.149994	
0.0714224	0.0228299	0.1	
0.104819	-0.00331638	0.1	
0.114815	0.0394603	0.1	
0.0969794	0.021072	0.155881	
-0.389559	0.0336032	0.2	
-0.45	0	0.2	
-0.446786	0.0536856	0.15	
-0.45	0	0.15	
-0.0383965	-0.372403	0.2	
-0.0536856	-0.446786	0.15	
0	-0.45	0.2	
-0.0877906	-0.441353	0.2	
-0.0276628	-0.367444	0.1	
-0.0877906	-0.441353	0.1	
0	-0.45	0.1	
-0.0536856	-0.446786	0.15	
-0.0299174	-0.0229457	0.2	
-0.088703	-0.0138649	0.150815	
-0.0200153	-0.0483211	0.151402	
-0.0647576	-0.0686517	0.145827	
-0.0436673	0.0180876	0.150301	
-0.0200153	-0.0483211	0.151402	
-0.0299174	-0.0229457	0.2	
-0.088703	-0.0138649	0.150815	
-0.181323	-0.0027565	0.2	
-0.111446	-0.0565624	0.2	
-0.190622	-0.0884834	0.2	
-0.142279	-0.0393203	0.151217	
0.053688	0.446786	0.149994	
0	0.45	0.1	
0.0877906	0.441353	0.1	
0.0450774	0.367889	0.1	
-0.104461	0.000932435	0.1	
-0.112529	-0.0425202	0.1	
-0.0712343	-0.0265969	0.1	
-0.088703	-0.0138649	0.150815	
0.0632975	0.0980676	0.2	
0.0396544	0.04868	0.156181	
-0.0182151	0.0644617	0.2	
0.0186333	0.101613	0.152058	
-0.0200153	-0.0483211	0.151402	
0.0512771	-0.0404658	0.154914	
0.0398215	-0.0765894	0.2	
0.00260765	-0.105267	0.157285	
0.374822	-0.0324999	0.1	
0.45	0	0.1	
0.446786	-0.053688	0.149994	
0.441353	-0.0877906	0.1	
-0.372975	0.0289182	0.1	
-0.441353	0.0877906	0.1	
-0.45	0	0.1	
-0.446786	0.0536856	0.15	
-0.374161	-0.250007	0.2	
-0.415746	-0.172208	0.2	
-0.327578	-0.175094	0.2	
-0.396865	-0.212129	0.149995	
-0.0200153	-0.0483211	0.151402	
0.00260765	-0.105267	0.157285	
-0.0415815	-0.110392	0.2	
-0.0647576	-0.0686517	0.145827	
-0.45	0	0.1	
-0.441353	-0.0877906	0.1	
-0.373197	-0.0467972	0.1	
-0.446786	-0.053688	0.150006	
-0.0877906	0.441353	0.2	
-0.053688	0.446786	0.150006	
0	0.45	0.2	
-0.0339688	0.375665	0.2	
-0.415746	0.172208	0.1	
-0.441353	0.0877906	0.1	
-0.355442	0.107822	0.1	
-0.430628	0.130611	0.15	
-0.285477	-0.347855	0.149972	
-0.318198	-0.318198	0.2	
-0.250007	-0.374161	0.2	
-0.223685	-0.271786	0.2	
0.430623	-0.130628	0.149953	
0.357114	-0.107098	0.1	
0.441353	-0.0877906	0.1	
0.415746	-0.172208	0.1	
-0.318198	-0.318198	0.1	
-0.285477	-0.347855	0.149972	
-0.250007	-0.374161	0.1	
-0.237792	-0.287474	0.1	
-0.088703	-0.0138649	0.150815	
-0.0647576	-0.0686517	0.145827	
-0.111446	-0.0565624	0.2	
-0.142279	-0.0393203	0.151217	
-0.45	0	0.2	
-0.379429	-0.0366192	0.2	
-0.441353	-0.0877906	0.2	
-0.446786	-0.053688	0.150006	
0.347855	-0.285477	0.149953	
0.318198	-0.318198	0.1	
0.287124	-0.235637	0.1	
0.374161	-0.250007	0.1	
-0.32913	0.168426	0.2	
-0.374161	0.250007	0.2	
-0.396866	0.212126	0.150019	
-0.415746	0.172208	0.2	
-0.172208	-0.415746	0.1	
-0.173995	-0.331361	0.1	
-0.250007	-0.374161	0.1	
-0.212128	-0.396865	0.149972	
-0.104461	0.000932435	0.1	
-0.0712343	-0.0265969	0.1	
-0.0737761	0.00176994	0.1	
-0.088703	-0.0138649	0.150815	
0.00442099	0.0829354	0.1	
0.0405437	0.0931998	0.1	
0.0139627	0.124614	0.1	
0.0186333	0.101613	0.152058	
0.0404591	-0.377182	0.2	
0.0877906	-0.441353	0.2	
0	-0.45	0.2	
0.053688	-0.446786	0.149994	
0.331486	-0.177371	0.1	
0.415746	-0.172208	0.1	
0.396865	-0.212129	0.149953	
0.374161	-0.250007	0.1	
0.175084	-0.3275	0.2	
0.172208	-0.415746	0.2	
0.212129	-0.396865	0.149953	
0.250007	-0.374161	0.2	
0.415746	0.172208	0.2	
0.329177	0.174808	0.2	
0.374161	0.250007	0.2	
0.396865	0.212129	0.149953	
0.107822	0.355442	0.2	
0.0877906	0.441353	0.2	
0.172208	0.415746	0.2	
0.130628	0.430623	0.149953	
-0.157075	-0.0653284	0.1	
-0.112529	-0.0425202	0.1	
-0.153293	-0.011499	0.1	
-0.142279	-0.0393203	0.151217	
-0.182284	0.324323	0.1	
-0.172208	0.415746	0.1	
-0.250007	0.374161	0.1	
-0.212133	0.396862	0.150011	
-0.374161	-0.250007	0.1	
-0.347855	-0.285477	0.149967	
-0.318198	-0.318198	0.1	
-0.29175	-0.237189	0.1	
0.0398215	-0.0765894	0.2	
0.0512771	-0.0404658	0.154914	
0.062652	-0.118801	0.158114	
0.00260765	-0.105267	0.157285	
-0.292926	0.235471	0.1	
-0.318198	0.318198	0.1	
-0.374161	0.250007	0.1	
-0.347855	0.285477	0.150034	
-0.441353	-0.0877906	0.1	
-0.415746	-0.172208	0.1	
-0.356724	-0.11546	0.1	
-0.430623	-0.130628	0.150047	
-0.374161	-0.250007	0.1	
-0.415746	-0.172208	0.1	
-0.396865	-0.212129	0.149995	
-0.331484	-0.17939	0.1	
-0.0877906	-0.441353	0.2	
-0.112928	-0.360216	0.2	
-0.130611	-0.430628	0.15	
-0.172208	-0.415746	0.2	
0.441353	-0.0877906	0.2	
0.430623	-0.130628	0.149953	
0.415746	-0.172208	0.2	
0.348465	-0.103096	0.2	
0	0.45	0.1	
-0.0877906	0.441353	0.1	
-0.0358979	0.379949	0.1	
-0.053688	0.446786	0.150006	
0.318198	0.318198	0.2	
0.228237	0.281807	0.2	
0.250007	0.374161	0.2	
0.285477	0.347855	0.149953	
-0.172208	0.415746	0.2	
-0.250007	0.374161	0.2	
-0.212133	0.396862	0.150011	
-0.173131	0.322508	0.2	
0.0877906	-0.441353	0.1	
0.109857	-0.362973	0.1	
0.130628	-0.430623	0.149953	
0.172208	-0.415746	0.1	
0.415746	0.172208	0.1	
0.441353	0.0877906	0.1	
0.430623	0.130628	0.149953	
0.355442	0.107822	0.1	
-0.287124	0.235637	0.2	
-0.318198	0.318198	0.2	
-0.347855	0.285477	0.150034	
-0.374161	0.250007	0.2	
-0.430628	0.130611	0.15	
-0.415746	0.172208	0.2	
-0.441353	0.0877906	0.2	
-0.362114	0.10176	0.2	
0.0398215	-0.0765894	0.2	
0.062652	-0.118801	0.158114	
0.0279075	-0.16395	0.2	
0.00260765	-0.105267	0.157285	
-0.10824	0.362258	0.1	
-0.0877906	0.441353	0.1	
-0.172208	0.415746	0.1	
-0.130628	0.430623	0.150047	
0.0877906	0.441353	0.2	
0.0381609	0.387454	0.2	
0	0.45	0.2	
0.053688	0.446786	0.149994	
0.285477	0.347855	0.149953	
0.250007	0.374161	0.1	
0.318198	0.318198	0.1	
0.245754	0.289669	0.1	
-0.441353	0.0877906	0.2	
-0.45	0	0.2	
-0.446786	0.0536856	0.15	
-0.389559	0.0336032	0.2	
0.044217	-0.387842	0.1	
0.053688	-0.446786	0.149994	
0	-0.45	0.1	
0.0877906	-0.441353	0.1	
0.441353	0.0877906	0.1	
0.45	0	0.1	
0.446786	0.053688	0.149994	
0.387235	0.0357483	0.1	
-0.172208	-0.415746	0.1	
-0.0877906	-0.441353	0.1	
-0.104718	-0.361527	0.1	
-0.130611	-0.430628	0.15	
-0.0619298	-0.0870419	0.1	
-0.0538392	-0.0535857	0.1	
-0.080591	-0.0588792	0.1	
-0.0647576	-0.0686517	0.145827	
0.212129	0.396865	0.149953	
0.172208	0.415746	0.1	
0.250007	0.374161	0.1	
0.180378	0.336857	0.1	
0.212129	-0.396865	0.149953	
0.172208	-0.415746	0.1	
0.187286	-0.334755	0.1	
0.250007	-0.374161	0.1	
0.318198	0.318198	0.1	
0.374161	0.250007	0.1	
0.347855	0.285477	0.149953	
0.304312	0.234791	0.1	
0.29265	-0.244884	0.2	
0.318198	-0.318198	0.2	
0.347855	-0.285477	0.149953	
0.374161	-0.250007	0.2	
0.415746	0.172208	0.2	
0.441353	0.0877906	0.2	
0.369533	0.112832	0.2	
0.430623	0.130628	0.149953	
0.441353	-0.0877906	0.2	
0.45	0	0.2	
0.446786	-0.053688	0.149994	
0.384421	-0.0378621	0.2	
-0.285477	0.347854	0.150033	
-0.318198	0.318198	0.2	
-0.248262	0.29482	0.2	
-0.250007	0.374161	0.2	
0.172208	-0.415746	0.2	
0.0877906	-0.441353	0.2	
0.111895	-0.372646	0.2	
0.130628	-0.430623	0.149953	
-0.415746	-0.172208	0.2	
-0.441353	-0.0877906	0.2	
-0.365881	-0.111705	0.2	
-0.430623	-0.130628	0.150047	
-0.0299174	-0.0229457	0.2	
-0.0436673	0.0180876	0.150301	
0.0060848	-2.90377e-05	0.157763	
-0.0200153	-0.0483211	0.151402	
-0.0877906	0.441353	0.2	
-0.172208	0.415746	0.2	
-0.130628	0.430623	0.150047	
-0.108028	0.370407	0.2	
0.257787	-0.293807	0.1	
0.318198	-0.318198	0.1	
0.285477	-0.347855	0.149953	
0.250007	-0.374161	0.1	
0.120589	0.374273	0.1	
0.172208	0.415746	0.1	
0.0877906	0.441353	0.1	
0.130628	0.430623	0.149953	
0.396865	-0.212129	0.149953	
0.374161	-0.250007	0.2	
0.415746	-0.172208	0.2	
0.339399	-0.183579	0.2	
0.374161	0.250007	0.2	
0.297412	0.240191	0.2	
0.318198	0.318198	0.2	
0.347855	0.285477	0.149953	
0.374161	0.250007	0.1	
0.415746	0.172208	0.1	
0.396865	0.212129	0.149953	
0.349981	0.18562	0.1	
0.285477	-0.347855	0.149953	
0.250007	-0.374161	0.2	
0.318198	-0.318198	0.2	
0.25204	-0.306462	0.2	
-0.351668	0.187175	0.1	
-0.374161	0.250007	0.1	
-0.415746	0.172208	0.1	
-0.396866	0.212126	0.150019	
-0.298599	-0.245054	0.2	
-0.318198	-0.318198	0.2	
-0.374161	-0.250007	0.2	
-0.347855	-0.285477	0.149967	
-0.172208	-0.415746	0.2	
-0.212128	-0.396865	0.149972	
-0.250007	-0.374161	0.2	
-0.182092	-0.340669	0.2	
-0.251772	0.306785	0.1	
-0.250007	0.374161	0.1	
-0.318198	0.318198	0.1	
-0.285477	0.347854	0.150033	
0.250007	0.374161	0.2	
0.18581	0.349201	0.2	
0.172208	0.415746	0.2	
0.212129	0.396865	0.149953	
0.194544	-0.0323862	0.1	
0.12107	-0.0431928	0.2	
0.153315	0.00689278	0.1	
0.136366	-0.0453365	0.1	
0.194544	-0.0323862	0.1	
0.153315	0.00689278	0.1	
0.12107	-0.0431928	0.2	
0.201967	-0.00950962	0.2	
-0.190622	-0.0884834	0.2	
-0.258057	-0.0572365	0.1	
-0.203899	-0.0323666	0.1	
-0.209136	-0.0909343	0.1	
-0.190622	-0.0884834	0.2	
-0.203899	-0.0323666	0.1	
-0.258057	-0.0572365	0.1	
-0.256491	-0.0362829	0.2	
-0.110394	-0.216726	0.1	
-0.0659287	-0.28985	0.2	
-0.0529805	-0.19738	0.2	
-0.133674	-0.228308	0.2	
-0.0529805	-0.19738	0.2	
-0.0659287	-0.28985	0.2	
-0.110394	-0.216726	0.1	
-0.0496677	-0.250381	0.1	
0.0279075	-0.16395	0.2	
0.0204871	-0.24099	0.1	
-0.0142517	-0.205249	0.1	
0.0207402	-0.174187	0.1	
-0.0142517	-0.205249	0.1	
0.0204871	-0.24099	0.1	
0.0279075	-0.16395	0.2	
0.0148093	-0.246449	0.2	
-0.142279	-0.0393203	0.151217	
-0.104461	0.000932435	0.1	
-0.140177	0.0445127	0.1	
-0.088703	-0.0138649	0.150815	
-0.142279	-0.0393203	0.151217	
-0.140177	0.0445127	0.1	
-0.104461	0.000932435	0.1	
-0.153293	-0.011499	0.1	
-0.142279	-0.0393203	0.151217	
-0.19804	0.0242816	0.1	
-0.140177	0.0445127	0.1	
-0.153293	-0.011499	0.1	
-0.142279	-0.0393203	0.151217	
-0.140177	0.0445127	0.1	
-0.19804	0.0242816	0.1	
-0.181323	-0.0027565	0.2	
0.268615	-0.174062	0.1	
0.29265	-0.244884	0.2	
0.216652	-0.249073	0.2	
0.287124	-0.235637	0.1	
0.268615	-0.174062	0.1	
0.216652	-0.249073	0.2	
0.29265	-0.244884	0.2	
0.261818	-0.161797	0.2	
0.144601	0.131477	0.2	
0.230865	0.135658	0.1	
0.179715	0.179275	0.1	
0.237285	0.176133	0.2	
0.179715	0.179275	0.1	
0.230865	0.135658	0.1	
0.144601	0.131477	0.2	
0.168985	0.119579	0.1	
0.0922363	-0.215793	0.2	
0.0204871	-0.24099	0.1	
0.0279075	-0.16395	0.2	
0.0725059	-0.197526	0.1	
0.0279075	-0.16395	0.2	
0.0204871	-0.24099	0.1	
0.0922363	-0.215793	0.2	
0.0148093	-0.246449	0.2	
0.0186333	0.101613	0.152058	
0.0250698	0.0602098	0.1	
0	0.045	0.1	
0.00442099	0.0829354	0.1	
0.0186333	0.101613	0.152058	
0	0.045	0.1	
0.0250698	0.0602098	0.1	
0.0396544	0.04868	0.156181	
-0.0647576	-0.0686517	0.145827	
-0.0318198	-0.0318198	0.1	
-0.0276546	-0.0671169	0.1	
-0.0538392	-0.0535857	0.1	
-0.0647576	-0.0686517	0.145827	
-0.0276546	-0.0671169	0.1	
-0.0318198	-0.0318198	0.1	
-0.0200153	-0.0483211	0.151402	
0.111895	-0.372646	0.2	
0.044217	-0.387842	0.1	
0.0511003	-0.317442	0.1	
0.109857	-0.362973	0.1	
0.0511003	-0.317442	0.1	
0.044217	-0.387842	0.1	
0.111895	-0.372646	0.2	
0.0404591	-0.377182	0.2	
0.154944	0.223937	0.2	
0.0906227	0.254757	0.1	
0.0750467	0.185499	0.2	
0.0872949	0.269115	0.2	
0.0750467	0.185499	0.2	
0.0906227	0.254757	0.1	
0.154944	0.223937	0.2	
0.129359	0.208003	0.1	
0.0512771	-0.0404658	0.154914	
0.0060848	-2.90377e-05	0.157763	
0	-0.045	0.1	
-0.0200153	-0.0483211	0.151402	
-0.088703	-0.0138649	0.150815	
-0.0606984	0.0243229	0.1	
-0.045	0	0.1	
-0.0737761	0.00176994	0.1	
-0.088703	-0.0138649	0.150815	
-0.045	0	0.1	
-0.0606984	0.0243229	0.1	
-0.0436673	0.0180876	0.150301	
0.00260765	-0.105267	0.157285	
0.0401753	-0.0586342	0.1	
-0.0200153	-0.0483211	0.151402	
0.0512771	-0.0404658	0.154914	
0.00260765	-0.105267	0.157285	
-0.0200153	-0.0483211	0.151402	
0.0401753	-0.0586342	0.1	
0.00728726	-0.0832273	0.1	
-0.0339688	0.375665	0.2	
0.0450774	0.367889	0.1	
0	0.45	0.15	
0.0381609	0.387454	0.2	
0	0.45	0.15	
0.0450774	0.367889	0.1	
-0.0339688	0.375665	0.2	
-0.0358979	0.379949	0.1	
-0.10824	0.362258	0.1	
-0.0339688	0.375665	0.2	
-0.053688	0.446786	0.150006	
-0.108028	0.370407	0.2	
-0.053688	0.446786	0.150006	
-0.0339688	0.375665	0.2	
-0.10824	0.362258	0.1	
-0.0358979	0.379949	0.1	
-0.318623	-0.0616012	0.2	
-0.356724	-0.11546	0.1	
-0.275518	-0.12132	0.2	
-0.365881	-0.111705	0.2	
-0.318623	-0.0616012	0.2	
-0.275518	-0.12132	0.2	
-0.356724	-0.11546	0.1	
-0.312956	-0.0762135	0.1	
-0.142279	-0.0393203	0.151217	
-0.209136	-0.0909343	0.1	
-0.160221	-0.122206	0.1	
-0.190622	-0.0884834	0.2	
-0.142279	-0.0393203	0.151217	
-0.160221	-0.122206	0.1	
-0.209136	-0.0909343	0.1	
-0.157075	-0.0653284	0.1	
0.268615	-0.174062	0.1	
0.339399	-0.183579	0.2	
0.287371	-0.120299	0.1	
0.261818	-0.161797	0.2	
0.268615	-0.174062	0.1	
0.287371	-0.120299	0.1	
0.339399	-0.183579	0.2	
0.331486	-0.177371	0.1	
0.107822	0.355442	0.2	
0.053688	0.446786	0.149994	
0.0877906	0.441353	0.2	
0.130628	0.430623	0.149953	
0.0877906	0.441353	0.2	
0.053688	0.446786	0.149994	
0.107822	0.355442	0.2	
0.0381609	0.387454	0.2	
-0.13795	-0.29702	0.2	
-0.0659287	-0.28985	0.2	
-0.0615368	-0.322264	0.1	
-0.111587	-0.287654	0.1	
-0.0615368	-0.322264	0.1	
-0.0659287	-0.28985	0.2	
-0.13795	-0.29702	0.2	
-0.112928	-0.360216	0.2	
-0.0615368	-0.322264	0.1	
-0.104718	-0.361527	0.1	
-0.13795	-0.29702	0.2	
-0.111587	-0.287654	0.1	
-0.13795	-0.29702	0.2	
-0.104718	-0.361527	0.1	
-0.0615368	-0.322264	0.1	
-0.112928	-0.360216	0.2	
-0.269145	-0.181189	0.1	
-0.331484	-0.17939	0.1	
-0.265692	-0.195501	0.2	
-0.327578	-0.175094	0.2	
-0.269145	-0.181189	0.1	
-0.265692	-0.195501	0.2	
-0.331484	-0.17939	0.1	
-0.29175	-0.237189	0.1	
-0.298599	-0.245054	0.2	
-0.265692	-0.195501	0.2	
-0.331484	-0.17939	0.1	
-0.327578	-0.175094	0.2	
-0.298599	-0.245054	0.2	
-0.331484	-0.17939	0.1	
-0.265692	-0.195501	0.2	
-0.29175	-0.237189	0.1	
-0.351668	0.187175	0.1	
-0.287124	0.235637	0.2	
-0.300257	0.152847	0.1	
-0.292926	0.235471	0.1	
-0.351668	0.187175	0.1	
-0.300257	0.152847	0.1	
-0.287124	0.235637	0.2	
-0.32913	0.168426	0.2	
0.331486	-0.177371	0.1	
0.348465	-0.103096	0.2	
0.430623	-0.130628	0.149953	
0.357114	-0.107098	0.1	
0.331486	-0.177371	0.1	
0.430623	-0.130628	0.149953	
0.348465	-0.103096	0.2	
0.339399	-0.183579	0.2	
0.0512771	-0.0404658	0.154914	
0.0202986	-0.00819178	0.1	
0	-0.045	0.1	
0.0060848	-2.90377e-05	0.157763	
0.0512771	-0.0404658	0.154914	
0	-0.045	0.1	
0.0202986	-0.00819178	0.1	
0.0318198	-0.0318198	0.1	
0.357114	-0.107098	0.1	
0.384421	-0.0378621	0.2	
0.324791	-0.0252069	0.2	
0.348465	-0.103096	0.2	
0.324791	-0.0252069	0.2	
0.384421	-0.0378621	0.2	
0.357114	-0.107098	0.1	
0.374822	-0.0324999	0.1	
0.324791	-0.0252069	0.2	
0.303447	-0.0554764	0.1	
0.357114	-0.107098	0.1	
0.348465	-0.103096	0.2	
0.357114	-0.107098	0.1	
0.303447	-0.0554764	0.1	
0.324791	-0.0252069	0.2	
0.374822	-0.0324999	0.1	
CELLS 2144 10720
4	0	1	2	3	
4	4	5	6	7	
4	8	9	10	11	
4	12	13	14	15	
4	16	17	18	19	
4	20	21	22	23	
4	24	25	26	27	
4	28	29	30	31	
4	32	33	34	35	
4	36	37	38	39	
4	40	41	42	43	
4	44	45	46	47	
4	48	49	50	51	
4	52	53	54	55	
4	56	57	58	59	
4	60	61	62	63	
4	64	65	66	67	
4	68	69	70	71	
4	72	73	74	75	
4	76	77	78	79	
4	80	81	82	83	
4	84	85	86	87	
4	88	89	90	91	
4	92	93	94	95	
4	96	97	98	99	
4	100	101	102	103	
4	104	105	106	107	
4	108	109	110	111	
4	112	113	114	115	
4	116	117	118	119	
4	120	121	122	123	
4	124	125	126	127	
4	128	129	130	131	
4	132	133	134	135	
4	136	137	138	139	
4	140	141	142	143	
4	144	145	146	147	
4	148	149	150	151	
4	152	153	154	155	
4	156	157	158	159	
4	160	161	162	163	
4	164	165	166	167	
4	168	169	170	171	
4	172	173	174	175	
4	176	177	178	179	
4	180	181	182	183	
4	184	185	186	187	
4	188	189	190	191	
4	192	193	194	195	
4	196	197	198	199	
4	200	201	202	203	
4	204	205	206	207	
4	208	209	210	211	
4	212	213	214	215	
4	216	217	218	219	
4	220	221	222	223	
4	224	225	226	227	
4	228	229	230	231	
4	232	233	234	235	
4	236	237	238	239	
4	240	241	242	243	
4	244	245	246	247	
4	248	249	250	251	
4	252	253	254	255	
4	256	257	258	259	
4	260	261	262	263	
4	264	265	266	267	
4	268	269	270	271	
4	272	273	274	275	
4	276	277	278	279	
4	280	281	282	283	
4	284	285	286	287	
4	288	289	290	291	
4	292	293	294	295	
4	296	297	298	299	
4	300	301	302	303	
4	304	305	306	307	
4	308	309	310	311	
4	312	313	314	315	
4	316	317	318	319	
4	320	321	322	323	
4	324	325	326	327	
4	328	329	330	331	
4	332	333	334	335	
4	336	337	338	339	
4	340	341	342	343	
4	344	345	346	347	
4	348	349	350	351	
4	352	353	354	355	
4	356	357	358	359	
4	360	361	362	363	
4	364	365	366	367	
4	368	369	370	371	
4	372	373	374	375	
4	376	377	378	379	
4	380	381	382	383	
4	384	385	386	387	
4	388	389	390	391	
4	392	393	394	395	
4	396	397	398	399	
4	400	401	402	403	
4	404	405	406	407	
4	408	409	410	411	
4	412	413	414	415	
4	416	417	418	419	
4	420	421	422	423	
4	424	425	426	427	
4	428	429	430	431	
4	432	433	434	435	
4	436	437	438	439	
4	440	441	442	443	
4	444	445	446	447	
4	448	449	450	451	
4	452	453	454	455	
4	456	457	458	459	
4	460	461	462	463	
4	464	465	466	467	
4	468	469	470	471	
4	472	473	474	475	
4	476	477	478	479	
4	480	481	482	483	
4	484	485	486	487	
4	488	489	490	491	
4	492	493	494	495	
4	496	497	498	499	
4	500	501	502	503	
4	504	505	506	507	
4	508	509	510	511	
4	512	513	514	515	
4	516	517	518	519	
4	520	521	522	523	
4	524	525	526	527	
4	528	529	530	531	
4	532	533	534	535	
4	536	537	538	539	
4	540	541	542	543	
4	544	545	546	547	
4	548	549	550	551	
4	552	553	554	555	
4	556	557	558	559	
4	560	561	562	563	
4	564	565	566	567	
4	568	569	570	571	
4	572	573	574	575	
4	576	577	578	579	
4	580	581	582	583	
4	584	585	586	587	
4	588	589	590	591	
4	592	593	594	595	
4	596	597	598	599	
4	600	601	602	603	
4	604	605	606	607	
4	608	609	610	611	
4	612	613	614	615	
4	616	617	618	619	
4	620	621	622	623	
4	624	625	626	627	
4	628	629	630	631	
4	632	633	634	635	
4	636	637	638	639	
4	640	641	642	643	
4	644	645	646	647	
4	648	649	650	651	
4	652	653	654	655	
4	656	657	658	659	
4	660	661	662	663	
4	664	665	666	667	
4	668	669	670	671	
4	672	673	674	675	
4	676	677	678	679	
4	680	681	682	683	
4	684	685	686	687	
4	688	689	690	691	
4	692	693	694	695	
4	696	697	698	699	
4	700	701	702	703	
4	704	705	706	707	
4	708	709	710	711	
4	712	713	714	715	
4	716	717	718	719	
4	720	721	722	723	
4	724	725	726	727	
4	728	729	730	731	
4	732	733	734	735	
4	736	737	738	739	
4	740	741	742	743	
4	744	745	746	747	
4	748	749	750	751	
4	752	753	754	755	
4	756	757	758	759	
4	760	761	762	763	
4	764	765	766	767	
4	768	769	770	771	
4	772	773	774	775	
4	776	777	778	779	
4	780	781	782	783	
4	784	785	786	787	
4	788	789	790	791	
4	792	793	794	795	
4	796	797	798	799	
4	800	801	802	803	
4	804	805	806	807	
4	808	809	810	811	
4	812	813	814	815	
4	816	817	818	819	
4	820	821	822	823	
4	824	825	826	827	
4	828	829	830	831	
4	832	833	834	835	
4	836	837	838	839	
4	840	841	842	843	
4	844	845	846	847	
4	848	849	850	851	
4	852	853	854	855	
4	856	857	858	859	
4	860	861	862	863	
4	864	865	866	867	
4	868	869	870	871	
4	872	873	874	875	
4	876	877	878	879	
4	880	881	882	883	
4	884	885	886	887	
4	888	889	890	891	
4	892	893	894	895	
4	896	897	898	899	
4	900	901	902	903	
4	904	905	906	907	
4	908	909	910	911	
4	912	913	914	915	
4	916	917	918	919	
4	920	921	922	923	
4	924	925	926	927	
4	928	929	930	931	
4	932	933	934	935	
4	936	937	938	939	
4	940	941	942	943	
4	944	945	946	947	
4	948	949	950	951	
4	952	953	954	955	
4	956	957	958	959	
4	960	961	962	963	
4	964	965	966	967	
4	968	969	970	971	
4	972	973	974	975	
4	976	977	978	979	
4	980	981	982	983	
4	984	985	986	987	
4	988	989	990	991	
4	992	993	994	995	
4	996	997	998	999	
4	1000	1001	1002	1003	
4	1004	1005	1006	1007	
4	1008	1009	1010	1011	
4	1012	1013	1014	1015	
4	1016	1017	1018	1019	
4	1020	1021	1022	1023	
4	1024	1025	1026	1027	
4	1028	1029	1030	1031	
4	1032	1033	1034	1035	
4	1036	1037	1038	1039	
4	1040	1041	1042	1043	
4	1044	1045	1046	1047	
4	1048	1049	1050	1051	
4	1052	1053	1054	1055	
4	1056	1057	1058	1059	
4	1060	1061	1062	1063	
4	1064	1065	1066	1067	
4	1068	1069	1070	1071	
4	1072	1073	1074	1075	
4	1076	1077	1078	1079	
4	1080	1081	1082	1083	
4	1084	1085	1086	1087	
4	1088	1089	1090	1091	
4	1092	1093	1094	1095	
4	1096	1097	1098	1099	
4	1100	1101	1102	1103	
4	1104	1105	1106	1107	
4	1108	1109	1110	1111	
4	1112	1113	1114	1115	
4	1116	1117	1118	1119	
4	1120	1121	1122	1123	
4	1124	1125	1126	1127	
4	1128	1129	1130	1131	
4	1132	1133	1134	1135	
4	1136	1137	1138	1139	
4	1140	1141	1142	1143	
4	1144	1145	1146	1147	
4	1148	1149	1150	1151	
4	1152	1153	1154	1155	
4	1156	1157	1158	1159	
4	1160	1161	1162	1163	
4	1164	1165	1166	1167	
4	1168	1169	1170	1171	
4	1172	1173	1174	1175	
4	1176	1177	1178	1179	
4	1180	1181	1182	1183	
4	1184	1185	1186	1187	
4	1188	1189	1190	1191	
4	1192	1193	1194	1195	
4	1196	1197	1198	1199	
4	1200	1201	1202	1203	
4	1204	1205	1206	1207	
4	1208	1209	1210	1211	
4	1212	1213	1214	1215	
4	1216	1217	1218	1219	
4	1220	1221	1222	1223	
4	1224	1225	1226	1227	
4	1228	1229	1230	1231	
4	1232	1233	1234	1235	
4	1236	1237	1238	1239	
4	1240	1241	1242	1243	
4	1244	1245	1246	1247	
4	1248	1249	1250	1251	
4	1252	1253	1254	1255	
4	1256	1257	1258	1259	
4	1260	1261	1262	1263	
4	1264	1265	1266	1267	
4	1268	1269	1270	1271	
4	1272	1273	1274	1275	
4	1276	1277	1278	1279	
4	1280	1281	1282	1283	
4	1284	1285	1286	1287	
4	1288	1289	1290	1291	
4	1292	1293	1294	1295	
4	1296	1297	1298	1299	
4	1300	1301	1302	1303	
4	1304	1305	1306	1307	
4	1308	1309	1310	1311	
4	1312	1313	1314	1315	
4	1316	1317	1318	1319	
4	1320	1321	1322	1323	
4	1324	1325	1326	1327	
4	1328	1329	1330	1331	
4	1332	1333	1334	1335	
4	1336	1337	1338	1339	
4	1340	1341	1342	1343	
4	1344	1345	1346	1347	
4	1348	1349	1350	1351	
4	1352	1353	1354	1355	
4	1356	1357	1358	1359	
4	1360	1361	1362	1363	
4	1364	1365	1366	1367	
4	1368	1369	1370	1371	
4	1372	1373	1374	1375	
4	1376	1377	1378	1379	
4	1380	1381	1382	1383	
4	1384	1385	1386	1387	
4	1388	1389	1390	1391	
4	1392	1393	1394	1395	
4	1396	1397	1398	1399	
4	1400	1401	1402	1403	
4	1404	1405	1406	1407	
4	1408	1409	1410	1411	
4	1412	1413	1414	1415	
4	1416	1417	1418	1419	
4	1420	1421	1422	1423	
4	1424	1425	1426	1427	
4	1428	1429	1430	1431	
4	1432	1433	1434	1435	
4	1436	1437	1438	1439	
4	1440	1441	1442	1443	
4	1444	1445	1446	1447	
4	1448	1449	1450	1451	
4	1452	1453	1454	1455	
4	1456	1457	1458	1459	
4	1460	1461	1462	1463	
4	1464	1465	1466	1467	
4	1468	1469	1470	1471	
4	1472	1473	1474	1475	
4	1476	1477	1478	1479	
4	1480	1481	1482	1483	
4	1484	1485	1486	1487	
4	1488	1489	1490	1491	
4	1492	1493	1494	1495	
4	1496	1497	1498	1499	
4	1500	1501	1502	1503	
4	1504	1505	1506	1507	
4	1508	1509	1510	1511	
4	1512	1513	1514	1515	
4	1516	1517	1518	1519	
4	1520	1521	1522	1523	
4	1524	1525	1526	1527	
4	1528	1529	1530	1531	
4	1532	1533	1534	1535	
4	1536	1537	1538	1539	
4	1540	1541	1542	1543	
4	1544	1545	1546	1547	
4	1548	1549	1550	1551	
4	1552	1553	1554	1555	
4	1556	1557	1558	1559	
4	1560	1561	1562	1563	
4	1564	1565	1566	1567	
4	1568	1569	1570	1571	
4	1572	1573	1574	1575	
4	1576	1577	1578	1579	
4	1580	1581	1582	1583	
4	1584	1585	1586	1587	
4	1588	1589	1590	1591	
4	1592	1593	1594	1595	
4	1596	1597	1598	1599	
4	1600	1601	1602	1603	
4	1604	1605	1606	1607	
4	1608	1609	1610	1611	
4	1612	1613	1614	1615	
4	1616	1617	1618	1619	
4	1620	1621	1622	1623	
4	1624	1625	1626	1627	
4	1628	1629	1630	1631	
4	1632	1633	1634	1635	
4	1636	1637	1638	1639	
4	1640	1641	1642	1643	
4	1644	1645	1646	1647	
4	1648	1649	1650	1651	
4	1652	1653	1654	1655	
4	1656	1657	1658	1659	
4	1660	1661	1662	1663	
4	1664	1665	1666	1667	
4	1668	1669	1670	1671	
4	1672	1673	1674	1675	
4	1676	1677	1678	1679	
4	1680	1681	1682	1683	
4	1684	1685	1686	1687	
4	1688	1689	1690	1691	
4	1692	1693	1694	1695	
4	1696	1697	1698	1699	
4	1700	1701	1702	1703	
4	1704	1705	1706	1707	
4	1708	1709	1710	1711	
4	1712	1713	1714	1715	
4	1716	1717	1718	1719	
4	1720	1721	1722	1723	
4	1724	1725	1726	1727	
4	1728	1729	1730	1731	
4	1732	1733	1734	1735	
4	1736	1737	1738	1739	
4	1740	1741	1742	1743	
4	1744	1745	1746	1747	
4	1748	1749	1750	1751	
4	1752	1753	1754	1755	
4	1756	1757	1758	1759	
4	1760	1761	1762	1763	
4	1764	1765	1766	1767	
4	1768	1769	1770	1771	
4	1772	1773	1774	1775	
4	1776	1777	1778	1779	
4	1780	1781	1782	1783	
4	1784	1785	1786	1787	
4	1788	1789	1790	1791	
4	1792	1793	1794	1795	
4	1796	1797	1798	1799	
4	1800	1801	1802	1803	
4	1804	1805	1806	1807	
4	1808	1809	1810	1811	
4	1812	1813	1814	1815	
4	1816	1817	1818	1819	
4	1820	1821	1822	1823	
4	1824	1825	1826	1827	
4	1828	1829	1830	1831	
4	1832	1833	1834	1835	
4	1836	1837	1838	1839	
4	1840	1841	1842	1843	
4	1844	1845	1846	1847	
4	1848	1849	1850	1851	
4	1852	1853	1854	1855	
4	1856	1857	1858	1859	
4	1860	1861	1862	1863	
4	1864	1865	1866	1867	
4	1868	1869	1870	1871	
4	1872	1873	1874	1875	
4	1876	1877	1878	1879	
4	1880	1881	1882	1883	
4	1884	1885	1886	1887	
4	1888	1889	1890	1891	
4	1892	1893	1894	1895	
4	1896	1897	1898	1899	
4	1900	1901	1902	1903	
4	1904	1905	1906	1907	
4	1908	1909	1910	1911	
4	1912	1913	1914	1915	
4	1916	1917	1918	1919	
4	1920	1921	1922	1923	
4	1924	1925	1926	1927	
4	1928	1929	1930	1931	
4	1932	1933	1934	1935	
4	1936	1937	1938	1939	
4	1940	1941	1942	1943	
4	1944	1945	1946	1947	
4	1948	1949	1950	1951	
4	1952	1953	1954	1955	
4	1956	1957	1958	1959	
4	1960	1961	1962	1963	
4	1964	1965	1966	1967	
4	1968	1969	1970	1971	
4	1972	1973	1974	1975	
4	1976	1977	1978	1979	
4	1980	1981	1982	1983	
4	1984	1985	1986	1987	
4	1988	1989	1990	1991	
4	1992	1993	1994	1995	
4	1996	1997	1998	1999	
4	2000	2001	2002	2003	
4	2004	2005	2006	2007	
4	2008	2009	2010	2011	
4	2012	2013	2014	2015	
4	2016	2017	2018	2019	
4	2020	2021	2022	2023	
4	2024	2025	2026	2027	
4	2028	2029	2030	2031	
4	2032	2033	2034	2035	
4	2036	2037	2038	2039	
4	2040	2041	2042	2043	
4	2044	2045	2046	2047	
4	2048	2049	2050	2051	
4	2052	2053	2054	2055	
4	2056	2057	2058	2059	
4	2060	2061	2062	2063	
4	2064	2065	2066	2067	
4	2068	2069	2070	2071	
4	2072	2073	2074	2075	
4	2076	2077	2078	2079	
4	2080	2081	2082	2083	
4	2084	2085	2086	2087	
4	2088	2089	2090	2091	
4	2092	2093	2094	2095	
4	2096	2097	2098	2099	
4	2100	2101	2102	2103	
4	2104	2105	2106	2107	
4	2108	2109	2110	2111	
4	2112	2113	2114	2115	
4	2116	2117	2118	2119	
4	2120	2121	2122	2123	
4	2124	2125	2126	2127	
4	2128	2129	2130	2131	
4	2132	2133	2134	2135	
4	2136	2137	2138	2139	
4	2140	2141	2142	2143	
4	2144	2145	2146	2147	
4	2148	2149	2150	2151	
4	2152	2153	2154	2155	
4	2156	2157	2158	2159	
4	2160	2161	2162	2163	
4	2164	2165	2166	2167	
4	2168	2169	2170	2171	
4	2172	2173	2174	2175	
4	2176	2177	2178	2179	
4	2180	2181	2182	2183	
4	2184	2185	2186	2187	
4	2188	2189	2190	2191	
4	2192	2193	2194	2195	
4	2196	2197	2198	2199	
4	2200	2201	2202	2203	
4	2204	2205	2206	2207	
4	2208	2209	2210	2211	
4	2212	2213	2214	2215	
4	2216	2217	2218	2219	
4	2220	2221	2222	2223	
4	2224	2225	2226	2227	
4	2228	2229	2230	2231	
4	2232	2233	2234	2235	
4	2236	2237	2238	2239	
4	2240	2241	2242	2243	
4	2244	2245	2246	2247	
4	2248	2249	2250	2251	
4	2252	2253	2254	2255	
4	2256	2257	2258	2259	
4	2260	2261	2262	2263	
4	2264	2265	2266	2267	
4	2268	2269	2270	2271	
4	2272	2273	2274	2275	
4	2276	2277	2278	2279	
4	2280	2281	2282	2283	
4	2284	2285	2286	2287	
4	2288	2289	2290	2291	
4	2292	2293	2294	2295	
4	2296	2297	2298	2299	
4	2300	2301	2302	2303	
4	2304	2305	2306	2307	
4	2308	2309	2310	2311	
4	2312	2313	2314	2315	
4	2316	2317	2318	2319	
4	2320	2321	2322	2323	
4	2324	2325	2326	2327	
4	2328	2329	2330	2331	
4	2332	2333	2334	2335	
4	2336	2337	2338	2339	
4	2340	2341	2342	2343	
4	2344	2345	2346	2347	
4	2348	2349	2350	2351	
4	2352	2353	2354	2355	
4	2356	2357	2358	2359	
4	2360	2361	2362	2363	
4	2364	2365	2366	2367	
4	2368	2369	2370	2371	
4	2372	2373	2374	2375	
4	2376	2377	2378	2379	
4	2380	2381	2382	2383	
4	2384	2385	2386	2387	
4	2388	2389	2390	2391	
4	2392	2393	2394	2395	
4	2396	2397	2398	2399	
4	2400	2401	2402	2403	
4	2404	2405	2406	2407	
4	2408	2409	2410	2411	
4	2412	2413	2414	2415	
4	2416	2417	2418	2419	
4	2420	2421	2422	2423	
4	2424	2425	2426	2427	
4	2428	2429	2430	2431	
4	2432	2433	2434	2435	
4	2436	2437	2438	2439	
4	2440	2441	2442	2443	
4	2444	2445	2446	2447	
4	2448	2449	2450	2451	
4	2452	2453	2454	2455	
4	2456	2457	2458	2459	
4	2460	2461	2462	2463	
4	2464	2465	2466	2467	
4	2468	2469	2470	2471	
4	2472	2473	2474	2475	
4	2476	2477	2478	2479	
4	2480	2481	2482	2483	
4	2484	2485	2486	2487	
4	2488	2489	2490	2491	
4	2492	2493	2494	2495	
4	2496	2497	2498	2499	
4	2500	2501	2502	2503	
4	2504	2505	2506	2507	
4	2508	2509	2510	2511	
4	2512	2513	2514	2515	
4	2516	2517	2518	2519	
4	2520	2521	2522	2523	
4	2524	2525	2526	2527	
4	2528	2529	2530	2531	
4	2532	2533	2534	2535	
4	2536	2537	2538	2539	
4	2540	2541	2542	2543	
4	2544	2545	2546	2547	
4	2548	2549	2550	2551	
4	2552	2553	2554	2555	
4	2556	2557	2558	2559	
4	2560	2561	2562	2563	
4	2564	2565	2566	2567	
4	2568	2569	2570	2571	
4	2572	2573	2574	2575	
4	2576	2577	2578	2579	
4	2580	2581	2582	2583	
4	2584	2585	2586	2587	
4	2588	2589	2590	2591	
4	2592	2593	2594	2595	
4	2596	2597	2598	2599	
4	2600	2601	2602	2603	
4	2604	2605	2606	2607	
4	2608	2609	2610	2611	
4	2612	2613	2614	2615	
4	2616	2617	2618	2619	
4	2620	2621	2622	2623	
4	2624	2625	2626	2627	
4	2628	2629	2630	2631	
4	2632	2633	2634	2635	
4	2636	2637	2638	2639	
4	2640	2641	2642	2643	
4	2644	2645	2646	2647	
4	2648	2649	2650	2651	
4	2652	2653	2654	2655	
4	2656	2657	2658	2659	
4	2660	2661	2662	2663	
4	2664	2665	2666	2667	
4	2668	2669	2670	2671	
4	2672	2673	2674	2675	
4	2676	2677	2678	2679	
4	2680	2681	2682	2683	
4	2684	2685	2686	2687	
4	2688	2689	2690	2691	
4	2692	2693	2694	2695	
4	2696	2697	2698	2699	
4	2700	2701	2702	2703	
4	2704	2705	2706	2707	
4	2708	2709	2710	2711	
4	2712	2713	2714	2715	
4	2716	2717	2718	2719	
4	2720	2721	2722	2723	
4	2724	2725	2726	2727	
4	2728	2729	2730	2731	
4	2732	2733	2734	2735	
4	2736	2737	2738	2739	
4	2740	2741	2742	2743	
4	2744	2745	2746	2747	
4	2748	2749	2750	2751	
4	2752	2753	2754	2755	
4	2756	2757	2758	2759	
4	2760	2761	2762	2763	
4	2764	2765	2766	2767	
4	2768	2769	2770	2771	
4	2772	2773	2774	2775	
4	2776	2777	2778	2779	
4	2780	2781	2782	2783	
4	2784	2785	2786	2787	
4	2788	2789	2790	2791	
4	2792	2793	2794	2795	
4	2796	2797	2798	2799	
4	2800	2801	2802	2803	
4	2804	2805	2806	2807	
4	2808	2809	2810	2811	
4	2812	2813	2814	2815	
4	2816	2817	2818	2819	
4	2820	2821	2822	2823	
4	2824	2825	2826	2827	
4	2828	2829	2830	2831	
4	2832	2833	2834	2835	
4	2836	2837	2838	2839	
4	2840	2841	2842	2843	
4	2844	2845	2846	2847	
4	2848	2849	2850	2851	
4	2852	2853	2854	2855	
4	2856	2857	2858	2859	
4	2860	2861	2862	2863	
4	2864	2865	2866	2867	
4	2868	2869	2870	2871	
4	2872	2873	2874	2875	
4	2876	2877	2878	2879	
4	2880	2881	2882	2883	
4	2884	2885	2886	2887	
4	2888	2889	2890	2891	
4	2892	2893	2894	2895	
4	2896	2897	2898	2899	
4	2900	2901	2902	2903	
4	2904	2905	2906	2907	
4	2908	2909	2910	2911	
4	2912	2913	2914	2915	
4	2916	2917	2918	2919	
4	2920	2921	2922	2923	
4	2924	2925	2926	2927	
4	2928	2929	2930	2931	
4	2932	2933	2934	2935	
4	2936	2937	2938	2939	
4	2940	2941	2942	2943	
4	2944	2945	2946	2947	
4	2948	2949	2950	2951	
4	2952	2953	2954	2955	
4	2956	2957	2958	2959	
4	2960	2961	2962	2963	
4	2964	2965	2966	2967	
4	2968	2969	2970	2971	
4	2972	2973	2974	2975	
4	2976	2977	2978	2979	
4	2980	2981	2982	2983	
4	2984	2985	2986	2987	
4	2988	2989	2990	2991	
4	2992	2993	2994	2995	
4	2996	2997	2998	2999	
4	3000	3001	3002	3003	
4	3004	3005	3006	3007	
4	3008	3009	3010	3011	
4	3012	3013	3014	3015	
4	3016	3017	3018	3019	
4	3020	3021	3022	3023	
4	3024	3025	3026	3027	
4	3028	3029	3030	3031	
4	3032	3033	3034	3035	
4	3036	3037	3038	3039	
4	3040	3041	3042	3043	
4	3044	3045	3046	3047	
4	3048	3049	3050	3051	
4	3052	3053	3054	3055	
4	3056	3057	3058	3059	
4	3060	3061	3062	3063	
4	3064	3065	3066	3067	
4	3068	3069	3070	3071	
4	3072	3073	3074	3075	
4	3076	3077	3078	3079	
4	3080	3081	3082	3083	
4	3084	3085	3086	3087	
4	3088	3089	3090	3091	
4	3092	3093	3094	3095	
4	3096	3097	3098	3099	
4	3100	3101	3102	3103	
4	3104	3105	3106	3107	
4	3108	3109	3110	3111	
4	3112	3113	3114	3115	
4	3116	3117	3118	3119	
4	3120	3121	3122	3123	
4	3124	3125	3126	3127	
4	3128	3129	3130	3131	
4	3132	3133	3134	3135	
4	3136	3137	3138	3139	
4	3140	3141	3142	3143	
4	3144	3145	3146	3147	
4	3148	3149	3150	3151	
4	3152	3153	3154	3155	
4	3156	3157	3158	3159	
4	3160	3161	3162	3163	
4	3164	3165	3166	3167	
4	3168	3169	3170	3171	
4	3172	3173	3174	3175	
4	3176	3177	3178	3179	
4	3180	3181	3182	3183	
4	3184	3185	3186	3187	
4	3188	3189	3190	3191	
4	3192	3193	3194	3195	
4	3196	3197	3198	3199	
4	3200	3201	3202	3203	
4	3204	3205	3206	3207	
4	3208	3209	3210	3211	
4	3212	3213	3214	3215	
4	3216	3217	3218	3219	
4	3220	3221	3222	3223	
4	3224	3225	3226	3227	
4	3228	3229	3230	3231	
4	3232	3233	3234	3235	
4	3236	3237	3238	3239	
4	3240	3241	3242	3243	
4	3244	3245	3246	3247	
4	3248	3249	3250	3251	
4	3252	3253	3254	3255	
4	3256	3257	3258	3259	
4	3260	3261	3262	3263	
4	3264	3265	3266	3267	
4	3268	3269	3270	3271	
4	3272	3273	3274	3275	
4	3276	3277	3278	3279	
4	3280	3281	3282	3283	
4	3284	3285	3286	3287	
4	3288	3289	3290	3291	
4	3292	3293	3294	3295	
4	3296	3297	3298	3299	
4	3300	3301	3302	3303	
4	3304	3305	3306	3307	
4	3308	3309	3310	3311	
4	3312	3313	3314	3315	
4	3316	3317	3318	3319	
4	3320	3321	3322	3323	
4	3324	3325	3326	3327	
4	3328	3329	3330	3331	
4	3332	3333	3334	3335	
4	3336	3337	3338	3339	
4	3340	3341	3342	3343	
4	3344	3345	3346	3347	
4	3348	3349	3350	3351	
4	3352	3353	3354	3355	
4	3356	3357	3358	3359	
4	3360	3361	3362	3363	
4	3364	3365	3366	3367	
4	3368	3369	3370	3371	
4	3372	3373	3374	3375	
4	3376	3377	3378	3379	
4	3380	3381	3382	3383	
4	3384	3385	3386	3387	
4	3388	3389	3390	3391	
4	3392	3393	3394	3395	
4	3396	3397	3398	3399	
4	3400	3401	3402	3403	
4	3404	3405	3406	3407	
4	3408	3409	3410	3411	
4	3412	3413	3414	3415	
4	3416	3417	3418	3419	
4	3420	3421	3422	3423	
4	3424	3425	3426	3427	
4	3428	3429	3430	3431	
4	3432	3433	3434	3435	
4	3436	3437	3438	3439	
4	3440	3441	3442	3443	
4	3444	3445	3446	3447	
4	3448	3449	3450	3451	
4	3452	3453	3454	3455	
4	3456	3457	3458	3459	
4	3460	3461	3462	3463	
4	3464	3465	3466	3467	
4	3468	3469	3470	3471	
4	3472	3473	3474	3475	
4	3476	3477	3478	3479	
4	3480	3481	3482	3483	
4	3484	3485	3486	3487	
4	3488	3489	3490	3491	
4	3492	3493	3494	3495	
4	3496	3497	3498	3499	
4	3500	3501	3502	3503	
4	3504	3505	3506	3507	
4	3508	3509	3510	3511	
4	3512	3513	3514	3515	
4	3516	3517	3518	3519	
4	3520	3521	3522	3523	
4	3524	3525	3526	3527	
4	3528	3529	3530	3531	
4	3532	3533	3534	3535	
4	3536	3537	3538	3539	
4	3540	3541	3542	3543	
4	3544	3545	3546	3547	
4	3548	3549	3550	3551	
4	3552	3553	3554	3555	
4	3556	3557	3558	3559	
4	3560	3561	3562	3563	
4	3564	3565	3566	3567	
4	3568	3569	3570	3571	
4	3572	3573	3574	3575	
4	3576	3577	3578	3579	
4	3580	3581	3582	3583	
4	3584	3585	3586	3587	
4	3588	3589	3590	3591	
4	3592	3593	3594	3595	
4	3596	3597	3598	3599	
4	3600	3601	3602	3603	
4	3604	3605	3606	3607	
4	3608	3609	3610	3611	
4	3612	3613	3614	3615	
4	3616	3617	3618	3619	
4	3620	3621	3622	3623	
4	3624	3625	3626	3627	
4	3628	3629	3630	3631	
4	3632	3633	3634	3635	
4	3636	3637	3638	3639	
4	3640	3641	3642	3643	
4	3644	3645	3646	3647	
4	3648	3649	3650	3651	
4	3652	3653	3654	3655	
4	3656	3657	3658	3659	
4	3660	3661	3662	3663	
4	3664	3665	3666	3667	
4	3668	3669	3670	3671	
4	3672	3673	3674	3675	
4	3676	3677	3678	3679	
4	3680	3681	3682	3683	
4	3684	3685	3686	3687	
4	3688	3689	3690	3691	
4	3692	3693	3694	3695	
4	3696	3697	3698	3699	
4	3700	3701	3702	3703	
4	3704	3705	3706	3707	
4	3708	3709	3710	3711	
4	3712	3713	3714	3715	
4	3716	3717	3718	3719	
4	3720	3721	3722	3723	
4	3724	3725	3726	3727	
4	3728	3729	3730	3731	
4	3732	3733	3734	3735	
4	3736	3737	3738	3739	
4	3740	3741	3742	3743	
4	3744	3745	3746	3747	
4	3748	3749	3750	3751	
4	3752	3753	3754	3755	
4	3756	3757	3758	3759	
4	3760	3761	3762	3763	
4	3764	3765	3766	3767	
4	3768	3769	3770	3771	
4	3772	3773	3774	3775	
4	3776	3777	3778	3779	
4	3780	3781	3782	3783	
4	3784	3785	3786	3787	
4	3788	3789	3790	3791	
4	3792	3793	3794	3795	
4	3796	3797	3798	3799	
4	3800	3801	3802	3803	
4	3804	3805	3806	3807	
4	3808	3809	3810	3811	
4	3812	3813	3814	3815	
4	3816	3817	3818	3819	
4	3820	3821	3822	3823	
4	3824	3825	3826	3827	
4	3828	3829	3830	3831	
4	3832	3833	3834	3835	
4	3836	3837	3838	3839	
4	3840	3841	3842	3843	
4	3844	3845	3846	3847	
4	3848	3849	3850	3851	
4	3852	3853	3854	3855	
4	3856	3857	3858	3859	
4	3860	3861	3862	3863	
4	3864	3865	3866	3867	
4	3868	3869	3870	3871	
4	3872	3873	3874	3875	
4	3876	3877	3878	3879	
4	3880	3881	3882	3883	
4	3884	3885	3886	3887	
4	3888	3889	3890	3891	
4	3892	3893	3894	3895	
4	3896	3897	3898	3899	
4	3900	3901	3902	3903	
4	3904	3905	3906	3907	
4	3908	3909	3910	3911	
4	3912	3913	3914	3915	
4	3916	3917	3918	3919	
4	3920	3921	3922	3923	
4	3924	3925	3926	3927	
4	3928	3929	3930	3931	
4	3932	3933	3934	3935	
4	3936	3937	3938	3939	
4	3940	3941	3942	3943	
4	3944	3945	3946	3947	
4	3948	3949	3950	3951	
4	3952	3953	3954	3955	
4	3956	3957	3958	3959	
4	3960	3961	3962	3963	
4	3964	3965	3966	3967	
4	3968	3969	3970	3971	
4	3972	3973	3974	3975	
4	3976	3977	3978	3979	
4	3980	3981	3982	3983	
4	3984	3985	3986	3987	
4	3988	3989	3990	3991	
4	3992	3993	3994	3995	
4	3996	3997	3998	3999	
4	4000	4001	4002	4003	
4	4004	4005	4006	4007	
4	4008	4009	4010	4011	
4	4012	4013	4014	4015	
4	4016	4017	4018	4019	
4	4020	4021	4022	4023	
4	4024	4025	4026	4027	
4	4028	4029	4030	4031	
4	4032	4033	4034	4035	
4	4036	4037	4038	4039	
4	4040	4041	4042	4043	
4	4044	4045	4046	4047	
4	4048	4049	4050	4051	
4	4052	4053	4054	4055	
4	4056	4057	4058	4059	
4	4060	4061	4062	4063	
4	4064	4065	4066	4067	
4	4068	4069	4070	4071	
4	4072	4073	4074	4075	
4	4076	4077	4078	4079	
4	4080	4081	4082	4083	
4	4084	4085	4086	4087	
4	4088	4089	4090	4091	
4	4092	4093	4094	4095	
4	4096	4097	4098	4099	
4	4100	4101	4102	4103	
4	4104	4105	4106	4107	
4	4108	4109	4110	4111	
4	4112	4113	4114	4115	
4	4116	4117	4118	4119	
4	4120	4121	4122	4123	
4	4124	4125	4126	4127	
4	4128	4129	4130	4131	
4	4132	4133	4134	4135	
4	4136	4137	4138	4139	
4	4140	4141	4142	4143	
4	4144	4145	4146	4147	
4	4148	4149	4150	4151	
4	4152	4153	4154	4155	
4	4156	4157	4158	4159	
4	4160	4161	4162	4163	
4	4164	4165	4166	4167	
4	4168	4169	4170	4171	
4	4172	4173	4174	4175	
4	4176	4177	4178	4179	
4	4180	4181	4182	4183	
4	4184	4185	4186	4187	
4	4188	4189	4190	4191	
4	4192	4193	4194	4195	
4	4196	4197	4198	4199	
4	4200	4201	4202	4203	
4	4204	4205	4206	4207	
4	4208	4209	4210	4211	
4	4212	4213	4214	4215	
4	4216	4217	4218	4219	
4	4220	4221	4222	4223	
4	4224	4225	4226	4227	
4	4228	4229	4230	4231	
4	4232	4233	4234	4235	
4	4236	4237	4238	4239	
4	4240	4241	4242	4243	
4	4244	4245	4246	4247	
4	4248	4249	4250	4251	
4	4252	4253	4254	4255	
4	4256	4257	4258	4259	
4	4260	4261	4262	4263	
4	4264	4265	4266	4267	
4	4268	4269	4270	4271	
4	4272	4273	4274	4275	
4	4276	4277	4278	4279	
4	4280	4281	4282	4283	
4	4284	4285	4286	4287	
4	4288	4289	4290	4291	
4	4292	4293	4294	4295	
4	4296	4297	4298	4299	
4	4300	4301	4302	4303	
4	4304	4305	4306	4307	
4	4308	4309	4310	4311	
4	4312	4313	4314	4315	
4	4316	4317	4318	4319	
4	4320	4321	4322	4323	
4	4324	4325	4326	4327	
4	4328	4329	4330	4331	
4	4332	4333	4334	4335	
4	4336	4337	4338	4339	
4	4340	4341	4342	4343	
4	4344	4345	4346	4347	
4	4348	4349	4350	4351	
4	4352	4353	4354	4355	
4	4356	4357	4358	4359	
4	4360	4361	4362	4363	
4	4364	4365	4366	4367	
4	4368	4369	4370	4371	
4	4372	4373	4374	4375	
4	4376	4377	4378	4379	
4	4380	4381	4382	4383	
4	4384	4385	4386	4387	
4	4388	4389	4390	4391	
4	4392	4393	4394	4395	
4	4396	4397	4398	4399	
4	4400	4401	4402	4403	
4	4404	4405	4406	4407	
4	4408	4409	4410	4411	
4	4412	4413	4414	4415	
4	4416	4417	4418	4419	
4	4420	4421	4422	4423	
4	4424	4425	4426	4427	
4	4428	4429	4430	4431	
4	4432	4433	4434	4435	
4	4436	4437	4438	4439	
4	4440	4441	4442	4443	
4	4444	4445	4446	4447	
4	4448	4449	4450	4451	
4	4452	4453	4454	4455	
4	4456	4457	4458	4459	
4	4460	4461	4462	4463	
4	4464	4465	4466	4467	
4	4468	4469	4470	4471	
4	4472	4473	4474	4475	
4	4476	4477	4478	4479	
4	4480	4481	4482	4483	
4	4484	4485	4486	4487	
4	4488	4489	4490	4491	
4	4492	4493	4494	4495	
4	4496	4497	4498	4499	
4	4500	4501	4502	4503	
4	4504	4505	4506	4507	
4	4508	4509	4510	4511	
4	4512	4513	4514	4515	
4	4516	4517	4518	4519	
4	4520	4521	4522	4523	
4	4524	4525	4526	4527	
4	4528	4529	4530	4531	
4	4532	4533	4534	4535	
4	4536	4537	4538	4539	
4	4540	4541	4542	4543	
4	4544	4545	4546	4547	
4	4548	4549	4550	4551	
4	4552	4553	4554	4555	
4	4556	4557	4558	4559	
4	4560	4561	4562	4563	
4	4564	4565	4566	4567	
4	4568	4569	4570	4571	
4	4572	4573	4574	4575	
4	4576	4577	4578	4579	
4	4580	4581	4582	4583	
4	4584	4585	4586	4587	
4	4588	4589	4590	4591	
4	4592	4593	4594	4595	
4	4596	4597	4598	4599	
4	4600	4601	4602	4603	
4	4604	4605	4606	4607	
4	4608	4609	4610	4611	
4	4612	4613	4614	4615	
4	4616	4617	4618	4619	
4	4620	4621	4622	4623	
4	4624	4625	4626	4627	
4	4628	4629	4630	4631	
4	4632	4633	4634	4635	
4	4636	4637	4638	4639	
4	4640	4641	4642	4643	
4	4644	4645	4646	4647	
4	4648	4649	4650	4651	
4	4652	4653	4654	4655	
4	4656	4657	4658	4659	
4	4660	4661	4662	4663	
4	4664	4665	4666	4667	
4	4668	4669	4670	4671	
4	4672	4673	4674	4675	
4	4676	4677	4678	4679	
4	4680	4681	4682	4683	
4	4684	4685	4686	4687	
4	4688	4689	4690	4691	
4	4692	4693	4694	4695	
4	4696	4697	4698	4699	
4	4700	4701	4702	4703	
4	4704	4705	4706	4707	
4	4708	4709	4710	4711	
4	4712	4713	4714	4715	
4	4716	4717	4718	4719	
4	4720	4721	4722	4723	
4	4724	4725	4726	4727	
4	4728	4729	4730	4731	
4	4732	4733	4734	4735	
4	4736	4737	4738	4739	
4	4740	4741	4742	4743	
4	4744	4745	4746	4747	
4	4748	4749	4750	4751	
4	4752	4753	4754	4755	
4	4756	4757	4758	4759	
4	4760	4761	4762	4763	
4	4764	4765	4766	4767	
4	4768	4769	4770	4771	
4	4772	4773	4774	4775	
4	4776	4777	4778	4779	
4	4780	4781	4782	4783	
4	4784	4785	4786	4787	
4	4788	4789	4790	4791	
4	4792	4793	4794	4795	
4	4796	4797	4798	4799	
4	4800	4801	4802	4803	
4	4804	4805	4806	4807	
4	4808	4809	4810	4811	
4	4812	4813	4814	4815	
4	4816	4817	4818	4819	
4	4820	4821	4822	4823	
4	4824	4825	4826	4827	
4	4828	4829	4830	4831	
4	4832	4833	4834	4835	
4	4836	4837	4838	4839	
4	4840	4841	4842	4843	
4	4844	4845	4846	4847	
4	4848	4849	4850	4851	
4	4852	4853	4854	4855	
4	4856	4857	4858	4859	
4	4860	4861	4862	4863	
4	4864	4865	4866	4867	
4	4868	4869	4870	4871	
4	4872	4873	4874	4875	
4	4876	4877	4878	4879	
4	4880	4881	4882	4883	
4	4884	4885	4886	4887	
4	4888	4889	4890	4891	
4	4892	4893	4894	4895	
4	4896	4897	4898	4899	
4	4900	4901	4902	4903	
4	4904	4905	4906	4907	
4	4908	4909	4910	4911	
4	4912	4913	4914	4915	
4	4916	4917	4918	4919	
4	4920	4921	4922	4923	
4	4924	4925	4926	4927	
4	4928	4929	4930	4931	
4	4932	4933	4934	4935	
4	4936	4937	4938	4939	
4	4940	4941	4942	4943	
4	4944	4945	4946	4947	
4	4948	4949	4950	4951	
4	4952	4953	4954	4955	
4	4956	4957	4958	4959	
4	4960	4961	4962	4963	
4	4964	4965	4966	4967	
4	4968	4969	4970	4971	
4	4972	4973	4974	4975	
4	4976	4977	4978	4979	
4	4980	4981	4982	4983	
4	4984	4985	4986	4987	
4	4988	4989	4990	4991	
4	4992	4993	4994	4995	
4	4996	4997	4998	4999	
4	5000	5001	5002	5003	
4	5004	5005	5006	5007	
4	5008	5009	5010	5011	
4	5012	5013	5014	5015	
4	5016	5017	5018	5019	
4	5020	5021	5022	5023	
4	5024	5025	5026	5027	
4	5028	5029	5030	5031	
4	5032	5033	5034	5035	
4	5036	5037	5038	5039	
4	5040	5041	5042	5043	
4	5044	5045	5046	5047	
4	5048	5049	5050	5051	
4	5052	5053	5054	5055	
4	5056	5057	5058	5059	
4	5060	5061	5062	5063	
4	5064	5065	5066	5067	
4	5068	5069	5070	5071	
4	5072	5073	5074	5075	
4	5076	5077	5078	5079	
4	5080	5081	5082	5083	
4	5084	5085	5086	5087	
4	5088	5089	5090	5091	
4	5092	5093	5094	5095	
4	5096	5097	5098	5099	
4	5100	5101	5102	5103	
4	5104	5105	5106	5107	
4	5108	5109	5110	5111	
4	5112	5113	5114	5115	
4	5116	5117	5118	5119	
4	5120	5121	5122	5123	
4	5124	5125	5126	5127	
4	5128	5129	5130	5131	
4	5132	5133	5134	5135	
4	5136	5137	5138	5139	
4	5140	5141	5142	5143	
4	5144	5145	5146	5147	
4	5148	5149	5150	5151	
4	5152	5153	5154	5155	
4	5156	5157	5158	5159	
4	5160	5161	5162	5163	
4	5164	5165	5166	5167	
4	5168	5169	5170	5171	
4	5172	5173	5174	5175	
4	5176	5177	5178	5179	
4	5180	5181	5182	5183	
4	5184	5185	5186	5187	
4	5188	5189	5190	5191	
4	5192	5193	5194	5195	
4	5196	5197	5198	5199	
4	5200	5201	5202	5203	
4	5204	5205	5206	5207	
4	5208	5209	5210	5211	
4	5212	5213	5214	5215	
4	5216	5217	5218	5219	
4	5220	5221	5222	5223	
4	5224	5225	5226	5227	
4	5228	5229	5230	5231	
4	5232	5233	5234	5235	
4	5236	5237	5238	5239	
4	5240	5241	5242	5243	
4	5244	5245	5246	5247	
4	5248	5249	5250	5251	
4	5252	5253	5254	5255	
4	5256	5257	5258	5259	
4	5260	5261	5262	5263	
4	5264	5265	5266	5267	
4	5268	5269	5270	5271	
4	5272	5273	5274	5275	
4	5276	5277	5278	5279	
4	5280	5281	5282	5283	
4	5284	5285	5286	5287	
4	5288	5289	5290	5291	
4	5292	5293	5294	5295	
4	5296	5297	5298	5299	
4	5300	5301	5302	5303	
4	5304	5305	5306	5307	
4	5308	5309	5310	5311	
4	5312	5313	5314	5315	
4	5316	5317	5318	5319	
4	5320	5321	5322	5323	
4	5324	5325	5326	5327	
4	5328	5329	5330	5331	
4	5332	5333	5334	5335	
4	5336	5337	5338	5339	
4	5340	5341	5342	5343	
4	5344	5345	5346	5347	
4	5348	5349	5350	5351	
4	5352	5353	5354	5355	
4	5356	5357	5358	5359	
4	5360	5361	5362	5363	
4	5364	5365	5366	5367	
4	5368	5369	5370	5371	
4	5372	5373	5374	5375	
4	5376	5377	5378	5379	
4	5380	5381	5382	5383	
4	5384	5385	5386	5387	
4	5388	5389	5390	5391	
4	5392	5393	5394	5395	
4	5396	5397	5398	5399	
4	5400	5401	5402	5403	
4	5404	5405	5406	5407	
4	5408	5409	5410	5411	
4	5412	5413	5414	5415	
4	5416	5417	5418	5419	
4	5420	5421	5422	5423	
4	5424	5425	5426	5427	
4	5428	5429	5430	5431	
4	5432	5433	5434	5435	
4	5436	5437	5438	5439	
4	5440	5441	5442	5443	
4	5444	5445	5446	5447	
4	5448	5449	5450	5451	
4	5452	5453	5454	5455	
4	5456	5457	5458	5459	
4	5460	5461	5462	5463	
4	5464	5465	5466	5467	
4	5468	5469	5470	5471	
4	5472	5473	5474	5475	
4	5476	5477	5478	5479	
4	5480	5481	5482	5483	
4	5484	5485	5486	5487	
4	5488	5489	5490	5491	
4	5492	5493	5494	5495	
4	5496	5497	5498	5499	
4	5500	5501	5502	5503	
4	5504	5505	5506	5507	
4	5508	5509	5510	5511	
4	5512	5513	5514	5515	
4	5516	5517	5518	5519	
4	5520	5521	5522	5523	
4	5524	5525	5526	5527	
4	5528	5529	5530	5531	
4	5532	5533	5534	5535	
4	5536	5537	5538	5539	
4	5540	5541	5542	5543	
4	5544	5545	5546	5547	
4	5548	5549	5550	5551	
4	5552	5553	5554	5555	
4	5556	5557	5558	5559	
4	5560	5561	5562	5563	
4	5564	5565	5566	5567	
4	5568	5569	5570	5571	
4	5572	5573	5574	5575	
4	5576	5577	5578	5579	
4	5580	5581	5582	5583	
4	5584	5585	5586	5587	
4	5588	5589	5590	5591	
4	5592	5593	5594	5595	
4	5596	5597	5598	5599	
4	5600	5601	5602	5603	
4	5604	5605	5606	5607	
4	5608	5609	5610	5611	
4	5612	5613	5614	5615	
4	5616	5617	5618	5619	
4	5620	5621	5622	5623	
4	5624	5625	5626	5627	
4	5628	5629	5630	5631	
4	5632	5633	5634	5635	
4	5636	5637	5638	5639	
4	5640	5641	5642	5643	
4	5644	5645	5646	5647	
4	5648	5649	5650	5651	
4	5652	5653	5654	5655	
4	5656	5657	5658	5659	
4	5660	5661	5662	5663	
4	5664	5665	5666	5667	
4	5668	5669	5670	5671	
4	5672	5673	5674	5675	
4	5676	5677	5678	5679	
4	5680	5681	5682	5683	
4	5684	5685	5686	5687	
4	5688	5689	5690	5691	
4	5692	5693	5694	5695	
4	5696	5697	5698	5699	
4	5700	5701	5702	5703	
4	5704	5705	5706	5707	
4	5708	5709	5710	5711	
4	5712	5713	5714	5715	
4	5716	5717	5718	5719	
4	5720	5721	5722	5723	
4	5724	5725	5726	5727	
4	5728	5729	5730	5731	
4	5732	5733	5734	5735	
4	5736	5737	5738	5739	
4	5740	5741	5742	5743	
4	5744	5745	5746	5747	
4	5748	5749	5750	5751	
4	5752	5753	5754	5755	
4	5756	5757	5758	5759	
4	5760	5761	5762	5763	
4	5764	5765	5766	5767	
4	5768	5769	5770	5771	
4	5772	5773	5774	5775	
4	5776	5777	5778	5779	
4	5780	5781	5782	5783	
4	5784	5785	5786	5787	
4	5788	5789	5790	5791	
4	5792	5793	5794	5795	
4	5796	5797	5798	5799	
4	5800	5801	5802	5803	
4	5804	5805	5806	5807	
4	5808	5809	5810	5811	
4	5812	5813	5814	5815	
4	5816	5817	5818	5819	
4	5820	5821	5822	5823	
4	5824	5825	5826	5827	
4	5828	5829	5830	5831	
4	5832	5833	5834	5835	
4	5836	5837	5838	5839	
4	5840	5841	5842	5843	
4	5844	5845	5846	5847	
4	5848	5849	5850	5851	
4	5852	5853	5854	5855	
4	5856	5857	5858	5859	
4	5860	5861	5862	5863	
4	5864	5865	5866	5867	
4	5868	5869	5870	5871	
4	5872	5873	5874	5875	
4	5876	5877	5878	5879	
4	5880	5881	5882	5883	
4	5884	5885	5886	5887	
4	5888	5889	5890	5891	
4	5892	5893	5894	5895	
4	5896	5897	5898	5899	
4	5900	5901	5902	5903	
4	5904	5905	5906	5907	
4	5908	5909	5910	5911	
4	5912	5913	5914	5915	
4	5916	5917	5918	5919	
4	5920	5921	5922	5923	
4	5924	5925	5926	5927	
4	5928	5929	5930	5931	
4	5932	5933	5934	5935	
4	5936	5937	5938	5939	
4	5940	5941	5942	5943	
4	5944	5945	5946	5947	
4	5948	5949	5950	5951	
4	5952	5953	5954	5955	
4	5956	5957	5958	5959	
4	5960	5961	5962	5963	
4	5964	5965	5966	5967	
4	5968	5969	5970	5971	
4	5972	5973	5974	5975	
4	5976	5977	5978	5979	
4	5980	5981	5982	5983	
4	5984	5985	5986	5987	
4	5988	5989	5990	5991	
4	5992	5993	5994	5995	
4	5996	5997	5998	5999	
4	6000	6001	6002	6003	
4	6004	6005	6006	6007	
4	6008	6009	6010	6011	
4	6012	6013	6014	6015	
4	6016	6017	6018	6019	
4	6020	6021	6022	6023	
4	6024	6025	6026	6027	
4	6028	6029	6030	6031	
4	6032	6033	6034	6035	
4	6036	6037	6038	6039	
4	6040	6041	6042	6043	
4	6044	6045	6046	6047	
4	6048	6049	6050	6051	
4	6052	6053	6054	6055	
4	6056	6057	6058	6059	
4	6060	6061	6062	6063	
4	6064	6065	6066	6067	
4	6068	6069	6070	6071	
4	6072	6073	6074	6075	
4	6076	6077	6078	6079	
4	6080	6081	6082	6083	
4	6084	6085	6086	6087	
4	6088	6089	6090	6091	
4	6092	6093	6094	6095	
4	6096	6097	6098	6099	
4	6100	6101	6102	6103	
4	6104	6105	6106	6107	
4	6108	6109	6110	6111	
4	6112	6113	6114	6115	
4	6116	6117	6118	6119	
4	6120	6121	6122	6123	
4	6124	6125	6126	6127	
4	6128	6129	6130	6131	
4	6132	6133	6134	6135	
4	6136	6137	6138	6139	
4	6140	6141	6142	6143	
4	6144	6145	6146	6147	
4	6148	6149	6150	6151	
4	6152	6153	6154	6155	
4	6156	6157	6158	6159	
4	6160	6161	6162	6163	
4	6164	6165	6166	6167	
4	6168	6169	6170	6171	
4	6172	6173	6174	6175	
4	6176	6177	6178	6179	
4	6180	6181	6182	6183	
4	6184	6185	6186	6187	
4	6188	6189	6190	6191	
4	6192	6193	6194	6195	
4	6196	6197	6198	6199	
4	6200	6201	6202	6203	
4	6204	6205	6206	6207	
4	6208	6209	6210	6211	
4	6212	6213	6214	6215	
4	6216	6217	6218	6219	
4	6220	6221	6222	6223	
4	6224	6225	6226	6227	
4	6228	6229	6230	6231	
4	6232	6233	6234	6235	
4	6236	6237	6238	6239	
4	6240	6241	6242	6243	
4	6244	6245	6246	6247	
4	6248	6249	6250	6251	
4	6252	6253	6254	6255	
4	6256	6257	6258	6259	
4	6260	6261	6262	6263	
4	6264	6265	6266	6267	
4	6268	6269	6270	6271	
4	6272	6273	6274	6275	
4	6276	6277	6278	6279	
4	6280	6281	6282	6283	
4	6284	6285	6286	6287	
4	6288	6289	6290	6291	
4	6292	6293	6294	6295	
4	6296	6297	6298	6299	
4	6300	6301	6302	6303	
4	6304	6305	6306	6307	
4	6308	6309	6310	6311	
4	6312	6313	6314	6315	
4	6316	6317	6318	6319	
4	6320	6321	6322	6323	
4	6324	6325	6326	6327	
4	6328	6329	6330	6331	
4	6332	6333	6334	6335	
4	6336	6337	6338	6339	
4	6340	6341	6342	6343	
4	6344	6345	6346	6347	
4	6348	6349	6350	6351	
4	6352	6353	6354	6355	
4	6356	6357	6358	6359	
4	6360	6361	6362	6363	
4	6364	6365	6366	6367	
4	6368	6369	6370	6371	
4	6372	6373	6374	6375	
4	6376	6377	6378	6379	
4	6380	6381	6382	6383	
4	6384	6385	6386	6387	
4	6388	6389	6390	6391	
4	6392	6393	6394	6395	
4	6396	6397	6398	6399	
4	6400	6401	6402	6403	
4	6404	6405	6406	6407	
4	6408	6409	6410	6411	
4	6412	6413	6414	6415	
4	6416	6417	6418	6419	
4	6420	6421	6422	6423	
4	6424	6425	6426	6427	
4	6428	6429	6430	6431	
4	6432	6433	6434	6435	
4	6436	6437	6438	6439	
4	6440	6441	6442	6443	
4	6444	6445	6446	6447	
4	6448	6449	6450	6451	
4	6452	6453	6454	6455	
4	6456	6457	6458	6459	
4	6460	6461	6462	6463	
4	6464	6465	6466	6467	
4	6468	6469	6470	6471	
4	6472	6473	6474	6475	
4	6476	6477	6478	6479	
4	6480	6481	6482	6483	
4	6484	6485	6486	6487	
4	6488	6489	6490	6491	
4	6492	6493	6494	6495	
4	6496	6497	6498	6499	
4	6500	6501	6502	6503	
4	6504	6505	6506	6507	
4	6508	6509	6510	6511	
4	6512	6513	6514	6515	
4	6516	6517	6518	6519	
4	6520	6521	6522	6523	
4	6524	6525	6526	6527	
4	6528	6529	6530	6531	
4	6532	6533	6534	6535	
4	6536	6537	6538	6539	
4	6540	6541	6542	6543	
4	6544	6545	6546	6547	
4	6548	6549	6550	6551	
4	6552	6553	6554	6555	
4	6556	6557	6558	6559	
4	6560	6561	6562	6563	
4	6564	6565	6566	6567	
4	6568	6569	6570	6571	
4	6572	6573	6574	6575	
4	6576	6577	6578	6579	
4	6580	6581	6582	6583	
4	6584	6585	6586	6587	
4	6588	6589	6590	6591	
4	6592	6593	6594	6595	
4	6596	6597	6598	6599	
4	6600	6601	6602	6603	
4	6604	6605	6606	6607	
4	6608	6609	6610	6611	
4	6612	6613	6614	6615	
4	6616	6617	6618	6619	
4	6620	6621	6622	6623	
4	6624	6625	6626	6627	
4	6628	6629	6630	6631	
4	6632	6633	6634	6635	
4	6636	6637	6638	6639	
4	6640	6641	6642	6643	
4	6644	6645	6646	6647	
4	6648	6649	6650	6651	
4	6652	6653	6654	6655	
4	6656	6657	6658	6659	
4	6660	6661	6662	6663	
4	6664	6665	6666	6667	
4	6668	6669	6670	6671	
4	6672	6673	6674	6675	
4	6676	6677	6678	6679	
4	6680	6681	6682	6683	
4	6684	6685	6686	6687	
4	6688	6689	6690	6691	
4	6692	6693	6694	6695	
4	6696	6697	6698	6699	
4	6700	6701	6702	6703	
4	6704	6705	6706	6707	
4	6708	6709	6710	6711	
4	6712	6713	6714	6715	
4	6716	6717	6718	6719	
4	6720	6721	6722	6723	
4	6724	6725	6726	6727	
4	6728	6729	6730	6731	
4	6732	6733	6734	6735	
4	6736	6737	6738	6739	
4	6740	6741	6742	6743	
4	6744	6745	6746	6747	
4	6748	6749	6750	6751	
4	6752	6753	6754	6755	
4	6756	6757	6758	6759	
4	6760	6761	6762	6763	
4	6764	6765	6766	6767	
4	6768	6769	6770	6771	
4	6772	6773	6774	6775	
4	6776	6777	6778	6779	
4	6780	6781	6782	6783	
4	6784	6785	6786	6787	
4	6788	6789	6790	6791	
4	6792	6793	6794	6795	
4	6796	6797	6798	6799	
4	6800	6801	6802	6803	
4	6804	6805	6806	6807	
4	6808	6809	6810	6811	
4	6812	6813	6814	6815	
4	6816	6817	6818	6819	
4	6820	6821	6822	6823	
4	6824	6825	6826	6827	
4	6828	6829	6830	6831	
4	6832	6833	6834	6835	
4	6836	6837	6838	6839	
4	6840	6841	6842	6843	
4	6844	6845	6846	6847	
4	6848	6849	6850	6851	
4	6852	6853	6854	6855	
4	6856	6857	6858	6859	
4	6860	6861	6862	6863	
4	6864	6865	6866	6867	
4	6868	6869	6870	6871	
4	6872	6873	6874	6875	
4	6876	6877	6878	6879	
4	6880	6881	6882	6883	
4	6884	6885	6886	6887	
4	6888	6889	6890	6891	
4	6892	6893	6894	6895	
4	6896	6897	6898	6899	
4	6900	6901	6902	6903	
4	6904	6905	6906	6907	
4	6908	6909	6910	6911	
4	6912	6913	6914	6915	
4	6916	6917	6918	6919	
4	6920	6921	6922	6923	
4	6924	6925	6926	6927	
4	6928	6929	6930	6931	
4	6932	6933	6934	6935	
4	6936	6937	6938	6939	
4	6940	6941	6942	6943	
4	6944	6945	6946	6947	
4	6948	6949	6950	6951	
4	6952	6953	6954	6955	
4	6956	6957	6958	6959	
4	6960	6961	6962	6963	
4	6964	6965	6966	6967	
4	6968	6969	6970	6971	
4	6972	6973	6974	6975	
4	6976	6977	6978	6979	
4	6980	6981	6982	6983	
4	6984	6985	6986	6987	
4	6988	6989	6990	6991	
4	6992	6993	6994	6995	
4	6996	6997	6998	6999	
4	7000	7001	7002	7003	
4	7004	7005	7006	7007	
4	7008	7009	7010	7011	
4	7012	7013	7014	7015	
4	7016	7017	7018	7019	
4	7020	7021	7022	7023	
4	7024	7025	7026	7027	
4	7028	7029	7030	7031	
4	7032	7033	7034	7035	
4	7036	7037	7038	7039	
4	7040	7041	7042	7043	
4	7044	7045	7046	7047	
4	7048	7049	7050	7051	
4	7052	7053	7054	7055	
4	7056	7057	7058	7059	
4	7060	7061	7062	7063	
4	7064	7065	7066	7067	
4	7068	7069	7070	7071	
4	7072	7073	7074	7075	
4	7076	7077	7078	7079	
4	7080	7081	7082	7083	
4	7084	7085	7086	7087	
4	7088	7089	7090	7091	
4	7092	7093	7094	7095	
4	7096	7097	7098	7099	
4	7100	7101	7102	7103	
4	7104	7105	7106	7107	
4	7108	7109	7110	7111	
4	7112	7113	7114	7115	
4	7116	7117	7118	7119	
4	7120	7121	7122	7123	
4	7124	7125	7126	7127	
4	7128	7129	7130	7131	
4	7132	7133	7134	7135	
4	7136	7137	7138	7139	
4	7140	7141	7142	7143	
4	7144	7145	7146	7147	
4	7148	7149	7150	7151	
4	7152	7153	7154	7155	
4	7156	7157	7158	7159	
4	7160	7161	7162	7163	
4	7164	7165	7166	7167	
4	7168	7169	7170	7171	
4	7172	7173	7174	7175	
4	7176	7177	7178	7179	
4	7180	7181	7182	7183	
4	7184	7185	7186	7187	
4	7188	7189	7190	7191	
4	7192	7193	7194	7195	
4	7196	7197	7198	7199	
4	7200	7201	7202	7203	
4	7204	7205	7206	7207	
4	7208	7209	7210	7211	
4	7212	7213	7214	7215	
4	7216	7217	7218	7219	
4	7220	7221	7222	7223	
4	7224	7225	7226	7227	
4	7228	7229	7230	7231	
4	7232	7233	7234	7235	
4	7236	7237	7238	7239	
4	7240	7241	7242	7243	
4	7244	7245	7246	7247	
4	7248	7249	7250	7251	
4	7252	7253	7254	7255	
4	7256	7257	7258	7259	
4	7260	7261	7262	7263	
4	7264	7265	7266	7267	
4	7268	7269	7270	7271	
4	7272	7273	7274	7275	
4	7276	7277	7278	7279	
4	7280	7281	7282	7283	
4	7284	7285	7286	7287	
4	7288	7289	7290	7291	
4	7292	7293	7294	7295	
4	7296	7297	7298	7299	
4	7300	7301	7302	7303	
4	7304	7305	7306	7307	
4	7308	7309	7310	7311	
4	7312	7313	7314	7315	
4	7316	7317	7318	7319	
4	7320	7321	7322	7323	
4	7324	7325	7326	7327	
4	7328	7329	7330	7331	
4	7332	7333	7334	7335	
4	7336	7337	7338	7339	
4	7340	7341	7342	7343	
4	7344	7345	7346	7347	
4	7348	7349	7350	7351	
4	7352	7353	7354	7355	
4	7356	7357	7358	7359	
4	7360	7361	7362	7363	
4	7364	7365	7366	7367	
4	7368	7369	7370	7371	
4	7372	7373	7374	7375	
4	7376	7377	7378	7379	
4	7380	7381	7382	7383	
4	7384	7385	7386	7387	
4	7388	7389	7390	7391	
4	7392	7393	7394	7395	
4	7396	7397	7398	7399	
4	7400	7401	7402	7403	
4	7404	7405	7406	7407	
4	7408	7409	7410	7411	
4	7412	7413	7414	7415	
4	7416	7417	7418	7419	
4	7420	7421	7422	7423	
4	7424	7425	7426	7427	
4	7428	7429	7430	7431	
4	7432	7433	7434	7435	
4	7436	7437	7438	7439	
4	7440	7441	7442	7443	
4	7444	7445	7446	7447	
4	7448	7449	7450	7451	
4	7452	7453	7454	7455	
4	7456	7457	7458	7459	
4	7460	7461	7462	7463	
4	7464	7465	7466	7467	
4	7468	7469	7470	7471	
4	7472	7473	7474	7475	
4	7476	7477	7478	7479	
4	7480	7481	7482	7483	
4	7484	7485	7486	7487	
4	7488	7489	7490	7491	
4	7492	7493	7494	7495	
4	7496	7497	7498	7499	
4	7500	7501	7502	7503	
4	7504	7505	7506	7507	
4	7508	7509	7510	7511	
4	7512	7513	7514	7515	
4	7516	7517	7518	7519	
4	7520	7521	7522	7523	
4	7524	7525	7526	7527	
4	7528	7529	7530	7531	
4	7532	7533	7534	7535	
4	7536	7537	7538	7539	
4	7540	7541	7542	7543	
4	7544	7545	7546	7547	
4	7548	7549	7550	7551	
4	7552	7553	7554	7555	
4	7556	7557	7558	7559	
4	7560	7561	7562	7563	
4	7564	7565	7566	7567	
4	7568	7569	7570	7571	
4	7572	7573	7574	7575	
4	7576	7577	7578	7579	
4	7580	7581	7582	7583	
4	7584	7585	7586	7587	
4	7588	7589	7590	7591	
4	7592	7593	7594	7595	
4	7596	7597	7598	7599	
4	7600	7601	7602	7603	
4	7604	7605	7606	7607	
4	7608	7609	7610	7611	
4	7612	7613	7614	7615	
4	7616	7617	7618	7619	
4	7620	7621	7622	7623	
4	7624	7625	7626	7627	
4	7628	7629	7630	7631	
4	7632	7633	7634	7635	
4	7636	7637	7638	7639	
4	7640	7641	7642	7643	
4	7644	7645	7646	7647	
4	7648	7649	7650	7651	
4	7652	7653	7654	7655	
4	7656	7657	7658	7659	
4	7660	7661	7662	7663	
4	7664	7665	7666	7667	
4	7668	7669	7670	7671	
4	7672	7673	7674	7675	
4	7676	7677	7678	7679	
4	7680	7681	7682	7683	
4	7684	7685	7686	7687	
4	7688	7689	7690	7691	
4	7692	7693	7694	7695	
4	7696	7697	7698	7699	
4	7700	7701	7702	7703	
4	7704	7705	7706	7707	
4	7708	7709	7710	7711	
4	7712	7713	7714	7715	
4	7716	7717	7718	7719	
4	7720	7721	7722	7723	
4	7724	7725	7726	7727	
4	7728	7729	7730	7731	
4	7732	7733	7734	7735	
4	7736	7737	7738	7739	
4	7740	7741	7742	7743	
4	7744	7745	7746	7747	
4	7748	7749	7750	7751	
4	7752	7753	7754	7755	
4	7756	7757	7758	7759	
4	7760	7761	7762	7763	
4	7764	7765	7766	7767	
4	7768	7769	7770	7771	
4	7772	7773	7774	7775	
4	7776	7777	7778	7779	
4	7780	7781	7782	7783	
4	7784	7785	7786	7787	
4	7788	7789	7790	7791	
4	7792	7793	7794	7795	
4	7796	7797	7798	7799	
4	7800	7801	7802	7803	
4	7804	7805	7806	7807	
4	7808	7809	7810	7811	
4	7812	7813	7814	7815	
4	7816	7817	7818	7819	
4	7820	7821	7822	7823	
4	7824	7825	7826	7827	
4	7828	7829	7830	7831	
4	7832	7833	7834	7835	
4	7836	7837	7838	7839	
4	7840	7841	7842	7843	
4	7844	7845	7846	7847	
4	7848	7849	7850	7851	
4	7852	7853	7854	7855	
4	7856	7857	7858	7859	
4	7860	7861	7862	7863	
4	7864	7865	7866	7867	
4	7868	7869	7870	7871	
4	7872	7873	7874	7875	
4	7876	7877	7878	7879	
4	7880	7881	7882	7883	
4	7884	7885	7886	7887	
4	7888	7889	7890	7891	
4	7892	7893	7894	7895	
4	7896	7897	7898	7899	
4	7900	7901	7902	7903	
4	7904	7905	7906	7907	
4	7908	7909	7910	7911	
4	7912	7913	7914	7915	
4	7916	7917	7918	7919	
4	7920	7921	7922	7923	
4	7924	7925	7926	7927	
4	7928	7929	7930	7931	
4	7932	7933	7934	7935	
4	7936	7937	7938	7939	
4	7940	7941	7942	7943	
4	7944	7945	7946	7947	
4	7948	7949	7950	7951	
4	7952	7953	7954	7955	
4	7956	7957	7958	7959	
4	7960	7961	7962	7963	
4	7964	7965	7966	7967	
4	7968	7969	7970	7971	
4	7972	7973	7974	7975	
4	7976	7977	7978	7979	
4	7980	7981	7982	7983	
4	7984	7985	7986	7987	
4	7988	7989	7990	7991	
4	7992	7993	7994	7995	
4	7996	7997	7998	7999	
4	8000	8001	8002	8003	
4	8004	8005	8006	8007	
4	8008	8009	8010	8011	
4	8012	8013	8014	8015	
4	8016	8017	8018	8019	
4	8020	8021	8022	8023	
4	8024	8025	8026	8027	
4	8028	8029	8030	8031	
4	8032	8033	8034	8035	
4	8036	8037	8038	8039	
4	8040	8041	8042	8043	
4	8044	8045	8046	8047	
4	8048	8049	8050	8051	
4	8052	8053	8054	8055	
4	8056	8057	8058	8059	
4	8060	8061	8062	8063	
4	8064	8065	8066	8067	
4	8068	8069	8070	8071	
4	8072	8073	8074	8075	
4	8076	8077	8078	8079	
4	8080	8081	8082	8083	
4	8084	8085	8086	8087	
4	8088	8089	8090	8091	
4	8092	8093	8094	8095	
4	8096	8097	8098	8099	
4	8100	8101	8102	8103	
4	8104	8105	8106	8107	
4	8108	8109	8110	8111	
4	8112	8113	8114	8115	
4	8116	8117	8118	8119	
4	8120	8121	8122	8123	
4	8124	8125	8126	8127	
4	8128	8129	8130	8131	
4	8132	8133	8134	8135	
4	8136	8137	8138	8139	
4	8140	8141	8142	8143	
4	8144	8145	8146	8147	
4	8148	8149	8150	8151	
4	8152	8153	8154	8155	
4	8156	8157	8158	8159	
4	8160	8161	8162	8163	
4	8164	8165	8166	8167	
4	8168	8169	8170	8171	
4	8172	8173	8174	8175	
4	8176	8177	8178	8179	
4	8180	8181	8182	8183	
4	8184	8185	8186	8187	
4	8188	8189	8190	8191	
4	8192	8193	8194	8195	
4	8196	8197	8198	8199	
4	8200	8201	8202	8203	
4	8204	8205	8206	8207	
4	8208	8209	8210	8211	
4	8212	8213	8214	8215	
4	8216	8217	8218	8219	
4	8220	8221	8222	8223	
4	8224	8225	8226	8227	
4	8228	8229	8230	8231	
4	8232	8233	8234	8235	
4	8236	8237	8238	8239	
4	8240	8241	8242	8243	
4	8244	8245	8246	8247	
4	8248	8249	8250	8251	
4	8252	8253	8254	8255	
4	8256	8257	8258	8259	
4	8260	8261	8262	8263	
4	8264	8265	8266	8267	
4	8268	8269	8270	8271	
4	8272	8273	8274	8275	
4	8276	8277	8278	8279	
4	8280	8281	8282	8283	
4	8284	8285	8286	8287	
4	8288	8289	8290	8291	
4	8292	8293	8294	8295	
4	8296	8297	8298	8299	
4	8300	8301	8302	8303	
4	8304	8305	8306	8307	
4	8308	8309	8310	8311	
4	8312	8313	8314	8315	
4	8316	8317	8318	8319	
4	8320	8321	8322	8323	
4	8324	8325	8326	8327	
4	8328	8329	8330	8331	
4	8332	8333	8334	8335	
4	8336	8337	8338	8339	
4	8340	8341	8342	8343	
4	8344	8345	8346	8347	
4	8348	8349	8350	8351	
4	8352	8353	8354	8355	
4	8356	8357	8358	8359	
4	8360	8361	8362	8363	
4	8364	8365	8366	8367	
4	8368	8369	8370	8371	
4	8372	8373	8374	8375	
4	8376	8377	8378	8379	
4	8380	8381	8382	8383	
4	8384	8385	8386	8387	
4	8388	8389	8390	8391	
4	8392	8393	8394	8395	
4	8396	8397	8398	8399	
4	8400	8401	8402	8403	
4	8404	8405	8406	8407	
4	8408	8409	8410	8411	
4	8412	8413	8414	8415	
4	8416	8417	8418	8419	
4	8420	8421	8422	8423	
4	8424	8425	8426	8427	
4	8428	8429	8430	8431	
4	8432	8433	8434	8435	
4	8436	8437	8438	8439	
4	8440	8441	8442	8443	
4	8444	8445	8446	8447	
4	8448	8449	8450	8451	
4	8452	8453	8454	8455	
4	8456	8457	8458	8459	
4	8460	8461	8462	8463	
4	8464	8465	8466	8467	
4	8468	8469	8470	8471	
4	8472	8473	8474	8475	
4	8476	8477	8478	8479	
4	8480	8481	8482	8483	
4	8484	8485	8486	8487	
4	8488	8489	8490	8491	
4	8492	8493	8494	8495	
4	8496	8497	8498	8499	
4	8500	8501	8502	8503	
4	8504	8505	8506	8507	
4	8508	8509	8510	8511	
4	8512	8513	8514	8515	
4	8516	8517	8518	8519	
4	8520	8521	8522	8523	
4	8524	8525	8526	8527	
4	8528	8529	8530	8531	
4	8532	8533	8534	8535	
4	8536	8537	8538	8539	
4	8540	8541	8542	8543	
4	8544	8545	8546	8547	
4	8548	8549	8550	8551	
4	8552	8553	8554	8555	
4	8556	8557	8558	8559	
4	8560	8561	8562	8563	
4	8564	8565	8566	8567	
4	8568	8569	8570	8571	
4	8572	8573	8574	8575	
CELL_TYPES 2144
10
10
10
10
10
10
10
10
10
10
10
10
10
10
10
10
10
10
10
10
10
10
10
10
10
10
10
10
10
10
10
10
10
10
10
10
10
10
10
10
10
10
10
10
10
10
10
10
10
10
10
10
10
10
10
10
10
10
10
10
10
10
10
10
10
10
10
10
10
10
10
10
10
10
10
10
10
10
10
10
10
10
10
10
10
10
10
10
10
10
10
10
10
10
10
10
10
10
10
10
10
10
10
10
10
10
10
10
10
10
10
10
10
10
10
10
10
10
10
10
10
10
10
10
10
10
10
10
10
10
10
10
10
10
10
10
10
10
10
10
10
10
10
10
10
10
10
10
10
10
10
10
10
10
10
10
10
10
10
10
10
10
10
10
10
10
10
10
10
10
10
10
10
10
10
10
10
10
10
10
10
10
10
10
10
10
10
10
10
10
10
10
10
10
10
10
10
10
10
10
10
10
10
10
10
10
10
10
10
10
10
10
10
10
10
10
10
10
10
10
10
10
10
10
10
10
10
10
10
10
10
10
10
10
10
10
10
10
10
10
10
10
10
10
10
10
10
10
10
10
10
10
10
10
10
10
10
10
10
10
10
10
10
10
10
10
10
10
10
10
10
10
10
10
10
10
10
10
10
10
10
10
10
10
10
10
10
10
10
10
10
10
10
10
10
10
10
10
10
10
10
10
10
10
10
10
10
10
10
10
10
10
10
10
10
10
10
10
10
10
10
10
10
10
10
10
10
10
10
10
10
10
10
10
10
10
10
10
10
10
10
10
10
10
10
10
10
10
10
10
10
10
10
10
10
10
10
10
10
10
10
10
10
10
10
10
10
10
10
10
10
10
10
10
10
10
10
10
10
10
10
10
10
10
10
10
10
10
10
10
10
10
10
10
10
10
10
10
10
10
10
10
10
10
10
10
10
10
10
10
10
10
10
10
10
10
10
10
10
10
10
10
10
10
10
10
10
10
10
10
10
10
10
10
10
10
10
10
10
10
10
10
10
10
10
10
10
10
10
10
10
10
10
10
10
10
10
10
10
10
10
10
10
10
10
10
10
10
10
10
10
10
10
10
10
10
10
10
10
10
10
10
10
10
10
10
10
10
10
10
10
10
10
10
10
10
10
10
10
10
10
10
10
10
10
10
10
10
10
10
10
10
10
10
10
10
10
10
10
10
10
10
10
10
10
10
10
10
10
10
10
10
10
10
10
10
10
10
10
10
10
10
10
10
10
10
10
10
10
10
10
10
10
10
10
10
10
10
10
10
10
10
10
10
10
10
10
10
10
10
10
10
10
10
10
10
10
10
10
10
10
10
10
10
10
10
10
10
10
10
10
10
10
10
10
10
10
10
10
10
10
10
10
10
10
10
10
10
10
10
10
10
10
10
10
10
10
10
10
10
10
10
10
10
10
10
10
10
10
10
10
10
10
10
10
10
10
10
10
10
10
10
10
10
10
10
10
10
10
10
10
10
10
10
10
10
10
10
10
10
10
10
10
10
10
10
10
10
10
10
10
10
10
10
10
10
10
10
10
10
10
10
10
10
10
10
10
10
10
10
10
10
10
10
10
10
10
10
10
10
10
10
10
10
10
10
10
10
10
10
10
10
10
10
10
10
10
10
10
10
10
10
10
10
10
10
10
10
10
10
10
10
10
10
10
10
10
10
10
10
10
10
10
10
10
10
10
10
10
10
10
10
10
10
10
10
10
10
10
10
10
10
10
10
10
10
10
10
10
10
10
10
10
10
10
10
10
10
10
10
10
10
10
10
10
10
10
10
10
10
10
10
10
10
10
10
10
10
10
10
10
10
10
10
10
10
10
10
10
10
10
10
10
10
10
10
10
10
10
10
10
10
10
10
10
10
10
10
10
10
10
10
10
10
10
10
10
10
10
10
10
10
10
10
10
10
10
10
10
10
10
10
10
10
10
10
10
10
10
10
10
10
10
10
10
10
10
10
10
10
10
10
10
10
10
10
10
10
10
10
10
10
10
10
10
10
10
10
10
10
10
10
10
10
10
10
10
10
10
10
10
10
10
10
10
10
10
10
10
10
10
10
10
10
10
10
10
10
10
10
10
10
10
10
10
10
10
10
10
10
10
10
10
10
10
10
10
10
10
10
10
10
10
10
10
10
10
10
10
10
10
10
10
10
10
10
10
10
10
10
10
10
10
10
10
10
10
10
10
10
10
10
10
10
10
10
10
10
10
10
10
10
10
10
10
10
10
10
10
10
10
10
10
10
10
10
10
10
10
10
10
10
10
10
10
10
10
10
10
10
10
10
10
10
10
10
10
10
10
10
10
10
10
10
10
10
10
10
10
10
10
10
10
10
10
10
10
10
10
10
10
10
10
10
10
10
10
10
10
10
10
10
10
10
10
10
10
10
10
10
10
10
10
10
10
10
10
10
10
10
10
10
10
10
10
10
10
10
10
10
10
10
10
10
10
10
10
10
10
10
10
10
10
10
10
10
10
10
10
10
10
10
10
10
10
10
10
10
10
10
10
10
10
10
10
10
10
10
10
10
10
10
10
10
10
10
10
10
10
10
10
10
10
10
10
10
10
10
10
10
10
10
10
10
10
10
10
10
10
10
10
10
10
10
10
10
10
10
10
10
10
10
10
10
10
10
10
10
10
10
10
10
10
10
10
10
10
10
10
10
10
10
10
10
10
10
10
10
10
10
10
10
10
10
10
10
10
10
10
10
10
10
10
10
10
10
10
10
10
10
10
10
10
10
10
10
10
10
10
10
10
10
10
10
10
10
10
10
10
10
10
10
10
10
10
10
10
10
10
10
10
10
10
10
10
10
10
10
10
10
10
10
10
10
10
10
10
10
10
10
10
10
10
10
10
10
10
10
10
10
10
10
10
10
10
10
10
10
10
10
10
10
10
10
10
10
10
10
10
10
10
10
10
10
10
10
10
10
10
10
10
10
10
10
10
10
10
10
10
10
10
10
10
10
10
10
10
10
10
10
10
10
10
10
10
10
10
10
10
10
10
10
10
10
10
10
10
10
10
10
10
10
10
10
10
10
10
10
10
10
10
10
10
10
10
10
10
10
10
10
10
10
10
10
10
10
10
10
10
10
10
10
10
10
10
10
10
10
10
10
10
10
10
10
10
10
10
10
10
10
10
10
10
10
10
10
10
10
10
10
10
10
10
10
10
10
10
10
10
10
10
10
10
10
10
10
10
10
10
10
10
10
10
10
10
10
10
10
10
10
10
10
10
10
10
10
10
10
10
10
10
10
10
10
10
10
10
10
10
10
10
10
10
10
10
10
10
10
10
10
10
10
10
10
10
10
10
10
10
10
10
10
10
10
10
10
10
10
10
10
10
10
10
10
10
10
10
10
10
10
10
10
10
10
10
10
10
10
10
10
10
10
10
10
10
10
10
10
10
10
10
10
10
10
10
10
10
10
10
10
10
10
10
10
10
10
10
10
10
10
10
10
10
10
10
10
10
10
10
10
10
10
10
10
10
10
10
10
10
10
10
10
10
10
10
10
10
10
10
10
10
10
10
10
10
10
10
10
10
10
10
10
10
10
10
10
10
10
10
10
10
10
10
10
10
10
10
10
10
10
10
10
10
10
10
10
10
10
10
10
10
10
10
10
10
10
10
10
10
10
10
10
10
10
10
10
10
10
10
10
10
10
10
10
10
10
10
10
10
10
10
10
10
10
10
10
10
10
10
10
10
10
10
10
10
10
10
10
10
10
10
10
10
10
10
10
10
10
10
10
10
10
10
10
10
10
10
10
10
10
10
10
10
10
10
10
10
10
10
10
10
10
10
10
10
10
10
10
10
10
10
10
10
10
10
10
10
10
10
10
10
10
10
10
10
10
10
10
10
10
10
10
10
10
10
10
10
10
10
10
10
10
10
10
10
10
10
10
10
10
10
10
10
10
10
10
10
10
10
10
10
10
10
10
10
10
10
10
10
10
10
10
10
10
10
10
10
10
10
10
10
10
10
10
10
10
10
10
10
10
10
10
10
10
10
10
10
10
10
10
10
10
10
10
10
10
10
10
10
10
10
10
10
10
10
10
10
10
10
10
10
10
10
10
10
10
10
10
10
10
10
10
10
10
10
10
10
10
10
10
10
10
10
10
10
10
10
10
10
10
10
10
10
10
10
10
10
10
10
10
10
10
10
10
10
10
10
10
10
10
10
10
10
10
10
10
10
10
10
10
10
10
10
10
10
10
10
10
10
10
10
10
10
10
10
10
10
10
10
10
10
10
10
10
10
10
10
10
10
10
10
10
10
10
10
10
10
10
10
10
10
10
10
10
10
10
10
10
10
10
10
10
10
10
10
10
10
10
10
10
10
10
10
10
10
10
10
10
10
10
10
10
10
10
10
10
10
10
10
10
10
10
10
10
10
10
10
10
10
10
10
10
10
10
10
10
10
10
10
10
10
10
10
10
10
10
10
10
10
10
10
10
10
10
10
10
10
10
10
10
10
10
10
10
10
10
10
10
10
10
10
10
10
10
10
10
10
10
10
10
10
10
10
10
10
10
10
10
10
10
10
10
10
10
10
10
10
10
10
10
10
10
10
10
10
10
10
10
10
10
10
10
10
10
10
10
10
10
10
10
10
10
10
10
10
10
10
10
10
10
10
10
10
10
10
10
10
10
10
10
10
10
10
10
10
10
10
10
10
10
10
10
10
10
10
10
10
10
10
10
10
10
10
10
10
10
10
10
10
10
10
10
10
10
10
10
10
10
10
10
10
10
10
10
10
10
10
10
10
10
10
10
10
10
10
10
10
10
10
10
10
10
10
10
10
10
10
10
10
10
10
10
10
10
10
10
10
10
10
10
10
10
10
10
CELL_DATA 2144
POINT_DATA 8576
SCALARS StressX float 
LOOKUP_TABLE default
0.0298583 0.0298583 0.0298583 0.0298583 0.0294792 0.0294792 0.0294792 0.0294792 0.0351154 0.0351154 0.0351154 0.0351154 0.0319795 0.0319795 0.0319795 0.0319795 0.0325356 0.0325356 0.0325356 0.0325356 0.0235582 0.0235582 0.0235582 0.0235582 0.0341704 0.0341704 0.0341704 0.0341704 0.0261481 0.0261481 0.0261481 0.0261481 0.0346895 0.0346895 0.0346895 0.0346895 0.0304809 0.0304809 0.0304809 0.0304809 0.0290297 0.0290297 0.0290297 0.0290297 0.0305075 0.0305075 0.0305075 0.0305075 0.029995 0.029995 0.029995 0.029995 0.027628 0.027628 0.027628 0.027628 0.0333472 0.0333472 0.0333472 0.0333472 0.0296315 0.0296315 0.0296315 0.0296315 0.0293192 0.0293192 0.0293192 0.0293192 0.030291 0.030291 0.030291 0.030291 0.00403721 0.00403721 0.00403721 0.00403721 0.0328019 0.0328019 0.0328019 0.0328019 0.0218418 0.0218418 0.0218418 0.0218418 0.0221147 0.0221147 0.0221147 0.0221147 0.0331721 0.0331721 0.0331721 0.0331721 0.0194339 0.0194339 0.0194339 0.0194339 0.013173 0.013173 0.013173 0.013173 0.0247598 0.0247598 0.0247598 0.0247598 0.0303987 0.0303987 0.0303987 0.0303987 0.026728 0.026728 0.026728 0.026728 0.0288201 0.0288201 0.0288201 0.0288201 0.0323984 0.0323984 0.0323984 0.0323984 0.019233 0.019233 0.019233 0.019233 -0.00636523 -0.00636523 -0.00636523 -0.00636523 0.0298084 0.0298084 0.0298084 0.0298084 0.0177292 0.0177292 0.0177292 0.0177292 -0.00344549 -0.00344549 -0.00344549 -0.00344549 0.0123223 0.0123223 0.0123223 0.0123223 0.0158812 0.0158812 0.0158812 0.0158812 0.00637574 0.00637574 0.00637574 0.00637574 0.0354122 0.0354122 0.0354122 0.0354122 0.0261019 0.0261019 0.0261019 0.0261019 0.00214617 0.00214617 0.00214617 0.00214617 0.0187376 0.0187376 0.0187376 0.0187376 0.0285067 0.0285067 0.0285067 0.0285067 0.0339929 0.0339929 0.0339929 0.0339929 0.0223374 0.0223374 0.0223374 0.0223374 0.0209519 0.0209519 0.0209519 0.0209519 0.0128669 0.0128669 0.0128669 0.0128669 0.0338999 0.0338999 0.0338999 0.0338999 0.036428 0.036428 0.036428 0.036428 0.028896 0.028896 0.028896 0.028896 0.0275014 0.0275014 0.0275014 0.0275014 0.0220239 0.0220239 0.0220239 0.0220239 0.000578826 0.000578826 0.000578826 0.000578826 0.0228063 0.0228063 0.0228063 0.0228063 0.0295888 0.0295888 0.0295888 0.0295888 0.0113941 0.0113941 0.0113941 0.0113941 0.031414 0.031414 0.031414 0.031414 0.0260051 0.0260051 0.0260051 0.0260051 0.015175 0.015175 0.015175 0.015175 0.0284109 0.0284109 0.0284109 0.0284109 0.0234181 0.0234181 0.0234181 0.0234181 0.0195573 0.0195573 0.0195573 0.0195573 0.0210608 0.0210608 0.0210608 0.0210608 0.0265606 0.0265606 0.0265606 0.0265606 0.013467 0.013467 0.013467 0.013467 0.0311062 0.0311062 0.0311062 0.0311062 0.0291698 0.0291698 0.0291698 0.0291698 0.02001 0.02001 0.02001 0.02001 0.000509826 0.000509826 0.000509826 0.000509826 0.0170246 0.0170246 0.0170246 0.0170246 0.0237555 0.0237555 0.0237555 0.0237555 0.0173245 0.0173245 0.0173245 0.0173245 0.0250014 0.0250014 0.0250014 0.0250014 0.0239106 0.0239106 0.0239106 0.0239106 0.029769 0.029769 0.029769 0.029769 0.022588 0.022588 0.022588 0.022588 0.0104781 0.0104781 0.0104781 0.0104781 0.0189495 0.0189495 0.0189495 0.0189495 0.0337822 0.0337822 0.0337822 0.0337822 0.0344364 0.0344364 0.0344364 0.0344364 0.0211675 0.0211675 0.0211675 0.0211675 0.0296376 0.0296376 0.0296376 0.0296376 0.0105538 0.0105538 0.0105538 0.0105538 0.036061 0.036061 0.036061 0.036061 0.0191788 0.0191788 0.0191788 0.0191788 0.0243788 0.0243788 0.0243788 0.0243788 0.0190115 0.0190115 0.0190115 0.0190115 0.0248616 0.0248616 0.0248616 0.0248616 -0.00683348 -0.00683348 -0.00683348 -0.00683348 0.034756 0.034756 0.034756 0.034756 0.0313038 0.0313038 0.0313038 0.0313038 0.0268056 0.0268056 0.0268056 0.0268056 0.0255464 0.0255464 0.0255464 0.0255464 -0.00438066 -0.00438066 -0.00438066 -0.00438066 0.0336532 0.0336532 0.0336532 0.0336532 0.0223938 0.0223938 0.0223938 0.0223938 0.0142662 0.0142662 0.0142662 0.0142662 0.0106358 0.0106358 0.0106358 0.0106358 0.0312355 0.0312355 0.0312355 0.0312355 0.0132061 0.0132061 0.0132061 0.0132061 0.0293076 0.0293076 0.0293076 0.0293076 0.0190887 0.0190887 0.0190887 0.0190887 0.025959 0.025959 0.025959 0.025959 -0.0775076 -0.0775076 -0.0775076 -0.0775076 0.0257963 0.0257963 0.0257963 0.0257963 0.0121716 0.0121716 0.0121716 0.0121716 -0.00162594 -0.00162594 -0.00162594 -0.00162594 0.00904864 0.00904864 0.00904864 0.00904864 -0.000395944 -0.000395944 -0.000395944 -0.000395944 0.0289436 0.0289436 0.0289436 0.0289436 0.00375577 0.00375577 0.00375577 0.00375577 0.00484136 0.00484136 0.00484136 0.00484136 -0.00426916 -0.00426916 -0.00426916 -0.00426916 0.0112125 0.0112125 0.0112125 0.0112125 -0.00330876 -0.00330876 -0.00330876 -0.00330876 0.0136828 0.0136828 0.0136828 0.0136828 -0.0053739 -0.0053739 -0.0053739 -0.0053739 0.0260202 0.0260202 0.0260202 0.0260202 0.0331962 0.0331962 0.0331962 0.0331962 0.0217818 0.0217818 0.0217818 0.0217818 0.000356088 0.000356088 0.000356088 0.000356088 0.0297319 0.0297319 0.0297319 0.0297319 0.0212773 0.0212773 0.0212773 0.0212773 0.0102929 0.0102929 0.0102929 0.0102929 0.0327021 0.0327021 0.0327021 0.0327021 0.0291231 0.0291231 0.0291231 0.0291231 0.0208425 0.0208425 0.0208425 0.0208425 0.0253755 0.0253755 0.0253755 0.0253755 0.00958036 0.00958036 0.00958036 0.00958036 0.0242733 0.0242733 0.0242733 0.0242733 0.00291601 0.00291601 0.00291601 0.00291601 0.0305579 0.0305579 0.0305579 0.0305579 0.0135327 0.0135327 0.0135327 0.0135327 -0.0162337 -0.0162337 -0.0162337 -0.0162337 0.0163784 0.0163784 0.0163784 0.0163784 0.0103837 0.0103837 0.0103837 0.0103837 0.0345619 0.0345619 0.0345619 0.0345619 -0.0773258 -0.0773258 -0.0773258 -0.0773258 0.000569229 0.000569229 0.000569229 0.000569229 0.0177151 0.0177151 0.0177151 0.0177151 0.0310482 0.0310482 0.0310482 0.0310482 0.0301699 0.0301699 0.0301699 0.0301699 0.00517765 0.00517765 0.00517765 0.00517765 -0.0621753 -0.0621753 -0.0621753 -0.0621753 0.0254977 0.0254977 0.0254977 0.0254977 0.0135546 0.0135546 0.0135546 0.0135546 0.0238881 0.0238881 0.0238881 0.0238881 0.0161391 0.0161391 0.0161391 0.0161391 -0.081511 -0.081511 -0.081511 -0.081511 -0.00239496 -0.00239496 -0.00239496 -0.00239496 0.0338511 0.0338511 0.0338511 0.0338511 0.0288813 0.0288813 0.0288813 0.0288813 0.0299121 0.0299121 0.0299121 0.0299121 0.00069975 0.00069975 0.00069975 0.00069975 0.0154978 0.0154978 0.0154978 0.0154978 0.0260536 0.0260536 0.0260536 0.0260536 0.0236872 0.0236872 0.0236872 0.0236872 0.0266034 0.0266034 0.0266034 0.0266034 0.0142687 0.0142687 0.0142687 0.0142687 0.0229266 0.0229266 0.0229266 0.0229266 0.00180154 0.00180154 0.00180154 0.00180154 -0.00187981 -0.00187981 -0.00187981 -0.00187981 0.011486 0.011486 0.011486 0.011486 0.000355443 0.000355443 0.000355443 0.000355443 0.0155082 0.0155082 0.0155082 0.0155082 -0.00976257 -0.00976257 -0.00976257 -0.00976257 0.00868039 0.00868039 0.00868039 0.00868039 -0.000251437 -0.000251437 -0.000251437 -0.000251437 0.030523 0.030523 0.030523 0.030523 0.0156931 0.0156931 0.0156931 0.0156931 -0.00972831 -0.00972831 -0.00972831 -0.00972831 -0.00728988 -0.00728988 -0.00728988 -0.00728988 0.0121476 0.0121476 0.0121476 0.0121476 0.0103331 0.0103331 0.0103331 0.0103331 0.0331789 0.0331789 0.0331789 0.0331789 0.00284001 0.00284001 0.00284001 0.00284001 0.0113708 0.0113708 0.0113708 0.0113708 0.019857 0.019857 0.019857 0.019857 0.0336867 0.0336867 0.0336867 0.0336867 0.0080523 0.0080523 0.0080523 0.0080523 0.0264779 0.0264779 0.0264779 0.0264779 0.0224429 0.0224429 0.0224429 0.0224429 0.0179702 0.0179702 0.0179702 0.0179702 0.0166629 0.0166629 0.0166629 0.0166629 -0.00691373 -0.00691373 -0.00691373 -0.00691373 0.0134934 0.0134934 0.0134934 0.0134934 -0.000550483 -0.000550483 -0.000550483 -0.000550483 -0.000385613 -0.000385613 -0.000385613 -0.000385613 -0.000426521 -0.000426521 -0.000426521 -0.000426521 -0.0107997 -0.0107997 -0.0107997 -0.0107997 0.0315512 0.0315512 0.0315512 0.0315512 -0.0017428 -0.0017428 -0.0017428 -0.0017428 0.00927383 0.00927383 0.00927383 0.00927383 0.0177082 0.0177082 0.0177082 0.0177082 0.00144758 0.00144758 0.00144758 0.00144758 0.0298811 0.0298811 0.0298811 0.0298811 0.0312439 0.0312439 0.0312439 0.0312439 0.033029 0.033029 0.033029 0.033029 0.0124567 0.0124567 0.0124567 0.0124567 0.000139098 0.000139098 0.000139098 0.000139098 0.011678 0.011678 0.011678 0.011678 0.0192521 0.0192521 0.0192521 0.0192521 0.0229291 0.0229291 0.0229291 0.0229291 0.0343402 0.0343402 0.0343402 0.0343402 -0.00069278 -0.00069278 -0.00069278 -0.00069278 -0.0197355 -0.0197355 -0.0197355 -0.0197355 0.032191 0.032191 0.032191 0.032191 0.0296717 0.0296717 0.0296717 0.0296717 0.000546235 0.000546235 0.000546235 0.000546235 3.55998e-11 3.55998e-11 3.55998e-11 3.55998e-11 0.0128968 0.0128968 0.0128968 0.0128968 0.00235874 0.00235874 0.00235874 0.00235874 0.0175618 0.0175618 0.0175618 0.0175618 0.0150859 0.0150859 0.0150859 0.0150859 0.0161972 0.0161972 0.0161972 0.0161972 0.0189566 0.0189566 0.0189566 0.0189566 0.010431 0.010431 0.010431 0.010431 0.0234315 0.0234315 0.0234315 0.0234315 0.0122946 0.0122946 0.0122946 0.0122946 -0.0110897 -0.0110897 -0.0110897 -0.0110897 0.00036269 0.00036269 0.00036269 0.00036269 0.0144702 0.0144702 0.0144702 0.0144702 -0.0287928 -0.0287928 -0.0287928 -0.0287928 0.0292747 0.0292747 0.0292747 0.0292747 -0.00829516 -0.00829516 -0.00829516 -0.00829516 0.00682871 0.00682871 0.00682871 0.00682871 0.031303 0.031303 0.031303 0.031303 0.0094111 0.0094111 0.0094111 0.0094111 0.0191802 0.0191802 0.0191802 0.0191802 0.0187593 0.0187593 0.0187593 0.0187593 0.0151039 0.0151039 0.0151039 0.0151039 0.0129447 0.0129447 0.0129447 0.0129447 -0.0107477 -0.0107477 -0.0107477 -0.0107477 0.00223621 0.00223621 0.00223621 0.00223621 -0.0069286 -0.0069286 -0.0069286 -0.0069286 0.02637 0.02637 0.02637 0.02637 0.0299688 0.0299688 0.0299688 0.0299688 0.0141075 0.0141075 0.0141075 0.0141075 -0.00495393 -0.00495393 -0.00495393 -0.00495393 0.0230049 0.0230049 0.0230049 0.0230049 0.00160264 0.00160264 0.00160264 0.00160264 0.00310353 0.00310353 0.00310353 0.00310353 0.027477 0.027477 0.027477 0.027477 0.0122995 0.0122995 0.0122995 0.0122995 0.0269922 0.0269922 0.0269922 0.0269922 -0.0216266 -0.0216266 -0.0216266 -0.0216266 0.0203944 0.0203944 0.0203944 0.0203944 0.0230412 0.0230412 0.0230412 0.0230412 0.0169363 0.0169363 0.0169363 0.0169363 0.0130525 0.0130525 0.0130525 0.0130525 0.0191701 0.0191701 0.0191701 0.0191701 0.00278932 0.00278932 0.00278932 0.00278932 0.0253023 0.0253023 0.0253023 0.0253023 0.0135686 0.0135686 0.0135686 0.0135686 0.00240192 0.00240192 0.00240192 0.00240192 0.00195252 0.00195252 0.00195252 0.00195252 0.0283519 0.0283519 0.0283519 0.0283519 0.0178536 0.0178536 0.0178536 0.0178536 0.0215711 0.0215711 0.0215711 0.0215711 0.0110831 0.0110831 0.0110831 0.0110831 0.00208509 0.00208509 0.00208509 0.00208509 -0.075959 -0.075959 -0.075959 -0.075959 0.00231845 0.00231845 0.00231845 0.00231845 0.0149644 0.0149644 0.0149644 0.0149644 -0.0725913 -0.0725913 -0.0725913 -0.0725913 -0.0151373 -0.0151373 -0.0151373 -0.0151373 -0.00303662 -0.00303662 -0.00303662 -0.00303662 0.015134 0.015134 0.015134 0.015134 0.00673979 0.00673979 0.00673979 0.00673979 -0.0153442 -0.0153442 -0.0153442 -0.0153442 0.0114462 0.0114462 0.0114462 0.0114462 0.00208516 0.00208516 0.00208516 0.00208516 0.000905329 0.000905329 0.000905329 0.000905329 0.00609817 0.00609817 0.00609817 0.00609817 -0.00716271 -0.00716271 -0.00716271 -0.00716271 0.0226613 0.0226613 0.0226613 0.0226613 0.022341 0.022341 0.022341 0.022341 -2.77113e-11 -2.77113e-11 -2.77113e-11 -2.77113e-11 -0.0803042 -0.0803042 -0.0803042 -0.0803042 0.0110607 0.0110607 0.0110607 0.0110607 -0.000613755 -0.000613755 -0.000613755 -0.000613755 -0.0159758 -0.0159758 -0.0159758 -0.0159758 0.014353 0.014353 0.014353 0.014353 -0.0123012 -0.0123012 -0.0123012 -0.0123012 0.0170226 0.0170226 0.0170226 0.0170226 -0.0546898 -0.0546898 -0.0546898 -0.0546898 0.0167832 0.0167832 0.0167832 0.0167832 0.00619958 0.00619958 0.00619958 0.00619958 -0.00879063 -0.00879063 -0.00879063 -0.00879063 -0.0109571 -0.0109571 -0.0109571 -0.0109571 0.0036939 0.0036939 0.0036939 0.0036939 5.74395e-12 5.74395e-12 5.74395e-12 5.74395e-12 -6.73466e-07 -6.73466e-07 -6.73466e-07 -6.73466e-07 -0.00277141 -0.00277141 -0.00277141 -0.00277141 -1.57361e-10 -1.57361e-10 -1.57361e-10 -1.57361e-10 0.0197431 0.0197431 0.0197431 0.0197431 -0.0119529 -0.0119529 -0.0119529 -0.0119529 0.00782314 0.00782314 0.00782314 0.00782314 0.00906456 0.00906456 0.00906456 0.00906456 0.0187056 0.0187056 0.0187056 0.0187056 0.0316757 0.0316757 0.0316757 0.0316757 0.0252605 0.0252605 0.0252605 0.0252605 0.0244442 0.0244442 0.0244442 0.0244442 -0.0731149 -0.0731149 -0.0731149 -0.0731149 -0.0258732 -0.0258732 -0.0258732 -0.0258732 0.0173979 0.0173979 0.0173979 0.0173979 -0.001175 -0.001175 -0.001175 -0.001175 0.00399914 0.00399914 0.00399914 0.00399914 -0.0671854 -0.0671854 -0.0671854 -0.0671854 -0.0016699 -0.0016699 -0.0016699 -0.0016699 0.0044774 0.0044774 0.0044774 0.0044774 0.0127794 0.0127794 0.0127794 0.0127794 0.0167144 0.0167144 0.0167144 0.0167144 0.0276922 0.0276922 0.0276922 0.0276922 -0.00865565 -0.00865565 -0.00865565 -0.00865565 -0.014934 -0.014934 -0.014934 -0.014934 0.0012476 0.0012476 0.0012476 0.0012476 -0.073922 -0.073922 -0.073922 -0.073922 -0.0599442 -0.0599442 -0.0599442 -0.0599442 -0.0230085 -0.0230085 -0.0230085 -0.0230085 -0.035291 -0.035291 -0.035291 -0.035291 -0.0766424 -0.0766424 -0.0766424 -0.0766424 0.0223281 0.0223281 0.0223281 0.0223281 -0.0224149 -0.0224149 -0.0224149 -0.0224149 0.020566 0.020566 0.020566 0.020566 0.0198479 0.0198479 0.0198479 0.0198479 -0.0128099 -0.0128099 -0.0128099 -0.0128099 -6.77923e-06 -6.77923e-06 -6.77923e-06 -6.77923e-06 -1.27763e-11 -1.27763e-11 -1.27763e-11 -1.27763e-11 -0.00836797 -0.00836797 -0.00836797 -0.00836797 0.0167573 0.0167573 0.0167573 0.0167573 -4.00687e-10 -4.00687e-10 -4.00687e-10 -4.00687e-10 0.00868684 0.00868684 0.00868684 0.00868684 -0.0160572 -0.0160572 -0.0160572 -0.0160572 0.0129949 0.0129949 0.0129949 0.0129949 -0.0127852 -0.0127852 -0.0127852 -0.0127852 -0.00474219 -0.00474219 -0.00474219 -0.00474219 -0.0390705 -0.0390705 -0.0390705 -0.0390705 0.0197229 0.0197229 0.0197229 0.0197229 0.011471 0.011471 0.011471 0.011471 0.0303049 0.0303049 0.0303049 0.0303049 0.0167795 0.0167795 0.0167795 0.0167795 0.0127083 0.0127083 0.0127083 0.0127083 0.00641387 0.00641387 0.00641387 0.00641387 -0.00246065 -0.00246065 -0.00246065 -0.00246065 0.00703121 0.00703121 0.00703121 0.00703121 -0.00224888 -0.00224888 -0.00224888 -0.00224888 -0.00369371 -0.00369371 -0.00369371 -0.00369371 -0.0125725 -0.0125725 -0.0125725 -0.0125725 -0.00717681 -0.00717681 -0.00717681 -0.00717681 0.0281959 0.0281959 0.0281959 0.0281959 0.025571 0.025571 0.025571 0.025571 0.0107719 0.0107719 0.0107719 0.0107719 0.0115442 0.0115442 0.0115442 0.0115442 0.00745708 0.00745708 0.00745708 0.00745708 -0.0195069 -0.0195069 -0.0195069 -0.0195069 0.0154169 0.0154169 0.0154169 0.0154169 -0.0567849 -0.0567849 -0.0567849 -0.0567849 0.0201806 0.0201806 0.0201806 0.0201806 0.0152729 0.0152729 0.0152729 0.0152729 -0.0227643 -0.0227643 -0.0227643 -0.0227643 -0.0591269 -0.0591269 -0.0591269 -0.0591269 0.00488799 0.00488799 0.00488799 0.00488799 -2.85474e-11 -2.85474e-11 -2.85474e-11 -2.85474e-11 0.0115544 0.0115544 0.0115544 0.0115544 0.00696095 0.00696095 0.00696095 0.00696095 -7.00619e-11 -7.00619e-11 -7.00619e-11 -7.00619e-11 0.00157661 0.00157661 0.00157661 0.00157661 0.0270165 0.0270165 0.0270165 0.0270165 0.00951755 0.00951755 0.00951755 0.00951755 0.0118788 0.0118788 0.0118788 0.0118788 -0.000987865 -0.000987865 -0.000987865 -0.000987865 0.0108155 0.0108155 0.0108155 0.0108155 0.0151048 0.0151048 0.0151048 0.0151048 1.75407e-11 1.75407e-11 1.75407e-11 1.75407e-11 -0.00582027 -0.00582027 -0.00582027 -0.00582027 0.0302837 0.0302837 0.0302837 0.0302837 0.005216 0.005216 0.005216 0.005216 0.0254163 0.0254163 0.0254163 0.0254163 -0.00799883 -0.00799883 -0.00799883 -0.00799883 -0.00503711 -0.00503711 -0.00503711 -0.00503711 0.00121711 0.00121711 0.00121711 0.00121711 0.00889331 0.00889331 0.00889331 0.00889331 -0.0186056 -0.0186056 -0.0186056 -0.0186056 -1.89706e-11 -1.89706e-11 -1.89706e-11 -1.89706e-11 -0.024958 -0.024958 -0.024958 -0.024958 -0.0438537 -0.0438537 -0.0438537 -0.0438537 0.0163054 0.0163054 0.0163054 0.0163054 -0.0567901 -0.0567901 -0.0567901 -0.0567901 -0.0271475 -0.0271475 -0.0271475 -0.0271475 -0.000293675 -0.000293675 -0.000293675 -0.000293675 -6.6371e-12 -6.6371e-12 -6.6371e-12 -6.6371e-12 -0.0491217 -0.0491217 -0.0491217 -0.0491217 -2.67471e-11 -2.67471e-11 -2.67471e-11 -2.67471e-11 1.86e-11 1.86e-11 1.86e-11 1.86e-11 -0.0233567 -0.0233567 -0.0233567 -0.0233567 0.0257082 0.0257082 0.0257082 0.0257082 0.00973688 0.00973688 0.00973688 0.00973688 -0.000239719 -0.000239719 -0.000239719 -0.000239719 -0.00299233 -0.00299233 -0.00299233 -0.00299233 -2.85332e-11 -2.85332e-11 -2.85332e-11 -2.85332e-11 0.00825667 0.00825667 0.00825667 0.00825667 0.0082962 0.0082962 0.0082962 0.0082962 -5.80046e-11 -5.80046e-11 -5.80046e-11 -5.80046e-11 0.0444548 0.0444548 0.0444548 0.0444548 0.000418661 0.000418661 0.000418661 0.000418661 0.0125773 0.0125773 0.0125773 0.0125773 0.0140276 0.0140276 0.0140276 0.0140276 -1.03678e-11 -1.03678e-11 -1.03678e-11 -1.03678e-11 -0.01227 -0.01227 -0.01227 -0.01227 -0.0311472 -0.0311472 -0.0311472 -0.0311472 -0.0839827 -0.0839827 -0.0839827 -0.0839827 0.025194 0.025194 0.025194 0.025194 -0.0251439 -0.0251439 -0.0251439 -0.0251439 -0.0203413 -0.0203413 -0.0203413 -0.0203413 -0.00598128 -0.00598128 -0.00598128 -0.00598128 0.00381259 0.00381259 0.00381259 0.00381259 0.00608833 0.00608833 0.00608833 0.00608833 -0.0697107 -0.0697107 -0.0697107 -0.0697107 -0.0108005 -0.0108005 -0.0108005 -0.0108005 0.0114886 0.0114886 0.0114886 0.0114886 -0.0544055 -0.0544055 -0.0544055 -0.0544055 0.0291167 0.0291167 0.0291167 0.0291167 -7.5305e-12 -7.5305e-12 -7.5305e-12 -7.5305e-12 0.0198816 0.0198816 0.0198816 0.0198816 -0.0486924 -0.0486924 -0.0486924 -0.0486924 0.0041993 0.0041993 0.0041993 0.0041993 0.0195177 0.0195177 0.0195177 0.0195177 -0.0114947 -0.0114947 -0.0114947 -0.0114947 0.0084167 0.0084167 0.0084167 0.0084167 -0.000230508 -0.000230508 -0.000230508 -0.000230508 0.017317 0.017317 0.017317 0.017317 -3.6972e-10 -3.6972e-10 -3.6972e-10 -3.6972e-10 0.00617313 0.00617313 0.00617313 0.00617313 2.17714e-11 2.17714e-11 2.17714e-11 2.17714e-11 -0.00210102 -0.00210102 -0.00210102 -0.00210102 0.013659 0.013659 0.013659 0.013659 9.74354e-11 9.74354e-11 9.74354e-11 9.74354e-11 0.0151723 0.0151723 0.0151723 0.0151723 -0.0674465 -0.0674465 -0.0674465 -0.0674465 0.00100925 0.00100925 0.00100925 0.00100925 -0.0437103 -0.0437103 -0.0437103 -0.0437103 0.0359234 0.0359234 0.0359234 0.0359234 -0.0498954 -0.0498954 -0.0498954 -0.0498954 -0.0476747 -0.0476747 -0.0476747 -0.0476747 -6.01195e-12 -6.01195e-12 -6.01195e-12 -6.01195e-12 0.00734922 0.00734922 0.00734922 0.00734922 0.0196499 0.0196499 0.0196499 0.0196499 0.0307572 0.0307572 0.0307572 0.0307572 0.000680987 0.000680987 0.000680987 0.000680987 0.00549119 0.00549119 0.00549119 0.00549119 -0.00192331 -0.00192331 -0.00192331 -0.00192331 -1.06522e-10 -1.06522e-10 -1.06522e-10 -1.06522e-10 -1.39458e-11 -1.39458e-11 -1.39458e-11 -1.39458e-11 -3.86524e-11 -3.86524e-11 -3.86524e-11 -3.86524e-11 -0.00715831 -0.00715831 -0.00715831 -0.00715831 -0.00301095 -0.00301095 -0.00301095 -0.00301095 0.000865046 0.000865046 0.000865046 0.000865046 -1.58822e-10 -1.58822e-10 -1.58822e-10 -1.58822e-10 -5.86777e-12 -5.86777e-12 -5.86777e-12 -5.86777e-12 0.0189826 0.0189826 0.0189826 0.0189826 0.0167195 0.0167195 0.0167195 0.0167195 0.0151706 0.0151706 0.0151706 0.0151706 0.0230354 0.0230354 0.0230354 0.0230354 0.013078 0.013078 0.013078 0.013078 -0.013413 -0.013413 -0.013413 -0.013413 -0.00964342 -0.00964342 -0.00964342 -0.00964342 -1.852e-10 -1.852e-10 -1.852e-10 -1.852e-10 0.003248 0.003248 0.003248 0.003248 0.0335639 0.0335639 0.0335639 0.0335639 0.00792658 0.00792658 0.00792658 0.00792658 -1.72904e-10 -1.72904e-10 -1.72904e-10 -1.72904e-10 -1.29348e-11 -1.29348e-11 -1.29348e-11 -1.29348e-11 -0.00951712 -0.00951712 -0.00951712 -0.00951712 0.0319714 0.0319714 0.0319714 0.0319714 0.00950067 0.00950067 0.00950067 0.00950067 -0.00973242 -0.00973242 -0.00973242 -0.00973242 -0.0083318 -0.0083318 -0.0083318 -0.0083318 -0.0365212 -0.0365212 -0.0365212 -0.0365212 0.00928625 0.00928625 0.00928625 0.00928625 -0.0302651 -0.0302651 -0.0302651 -0.0302651 0.0147007 0.0147007 0.0147007 0.0147007 0.00970315 0.00970315 0.00970315 0.00970315 0.0350334 0.0350334 0.0350334 0.0350334 -0.00427422 -0.00427422 -0.00427422 -0.00427422 -0.0706367 -0.0706367 -0.0706367 -0.0706367 0.0311937 0.0311937 0.0311937 0.0311937 0.0283272 0.0283272 0.0283272 0.0283272 1.39059e-11 1.39059e-11 1.39059e-11 1.39059e-11 0.0331349 0.0331349 0.0331349 0.0331349 -0.0774634 -0.0774634 -0.0774634 -0.0774634 -0.0728073 -0.0728073 -0.0728073 -0.0728073 -0.00425547 -0.00425547 -0.00425547 -0.00425547 -0.014448 -0.014448 -0.014448 -0.014448 0.0509423 0.0509423 0.0509423 0.0509423 -0.00379933 -0.00379933 -0.00379933 -0.00379933 1.52691e-13 1.52691e-13 1.52691e-13 1.52691e-13 -0.0360253 -0.0360253 -0.0360253 -0.0360253 -3.56312e-10 -3.56312e-10 -3.56312e-10 -3.56312e-10 -3.79788e-11 -3.79788e-11 -3.79788e-11 -3.79788e-11 0.0149377 0.0149377 0.0149377 0.0149377 -2.35926e-10 -2.35926e-10 -2.35926e-10 -2.35926e-10 -5.22621e-11 -5.22621e-11 -5.22621e-11 -5.22621e-11 0.0127042 0.0127042 0.0127042 0.0127042 0.00325579 0.00325579 0.00325579 0.00325579 -0.0619751 -0.0619751 -0.0619751 -0.0619751 0.000735893 0.000735893 0.000735893 0.000735893 -8.64722e-05 -8.64722e-05 -8.64722e-05 -8.64722e-05 -0.0569209 -0.0569209 -0.0569209 -0.0569209 -0.0167684 -0.0167684 -0.0167684 -0.0167684 0.0271001 0.0271001 0.0271001 0.0271001 0.0124772 0.0124772 0.0124772 0.0124772 0.0326649 0.0326649 0.0326649 0.0326649 0.00222217 0.00222217 0.00222217 0.00222217 -0.0628416 -0.0628416 -0.0628416 -0.0628416 -0.00432859 -0.00432859 -0.00432859 -0.00432859 0.0126893 0.0126893 0.0126893 0.0126893 1.52319e-11 1.52319e-11 1.52319e-11 1.52319e-11 -0.00794598 -0.00794598 -0.00794598 -0.00794598 -0.021973 -0.021973 -0.021973 -0.021973 0.0277539 0.0277539 0.0277539 0.0277539 0.0248994 0.0248994 0.0248994 0.0248994 -0.0146221 -0.0146221 -0.0146221 -0.0146221 -1.63076e-10 -1.63076e-10 -1.63076e-10 -1.63076e-10 -1.8059e-10 -1.8059e-10 -1.8059e-10 -1.8059e-10 -3.82759e-11 -3.82759e-11 -3.82759e-11 -3.82759e-11 -8.49365e-11 -8.49365e-11 -8.49365e-11 -8.49365e-11 -1.62632e-11 -1.62632e-11 -1.62632e-11 -1.62632e-11 -0.0293145 -0.0293145 -0.0293145 -0.0293145 -0.0529853 -0.0529853 -0.0529853 -0.0529853 4.53299e-11 4.53299e-11 4.53299e-11 4.53299e-11 -0.0870574 -0.0870574 -0.0870574 -0.0870574 8.51316e-12 8.51316e-12 8.51316e-12 8.51316e-12 -0.0436232 -0.0436232 -0.0436232 -0.0436232 -0.049663 -0.049663 -0.049663 -0.049663 -0.0534513 -0.0534513 -0.0534513 -0.0534513 -0.0266578 -0.0266578 -0.0266578 -0.0266578 0.00909173 0.00909173 0.00909173 0.00909173 0.00658903 0.00658903 0.00658903 0.00658903 -0.0114895 -0.0114895 -0.0114895 -0.0114895 -0.0423554 -0.0423554 -0.0423554 -0.0423554 3.10839e-11 3.10839e-11 3.10839e-11 3.10839e-11 0.00560414 0.00560414 0.00560414 0.00560414 0.00467163 0.00467163 0.00467163 0.00467163 6.33354e-11 6.33354e-11 6.33354e-11 6.33354e-11 0.011843 0.011843 0.011843 0.011843 -0.0806799 -0.0806799 -0.0806799 -0.0806799 -3.41997e-10 -3.41997e-10 -3.41997e-10 -3.41997e-10 0.0323569 0.0323569 0.0323569 0.0323569 7.10729e-11 7.10729e-11 7.10729e-11 7.10729e-11 2.10819e-11 2.10819e-11 2.10819e-11 2.10819e-11 -4.89202e-11 -4.89202e-11 -4.89202e-11 -4.89202e-11 -0.000698983 -0.000698983 -0.000698983 -0.000698983 0.00318351 0.00318351 0.00318351 0.00318351 0.0037784 0.0037784 0.0037784 0.0037784 -0.00692466 -0.00692466 -0.00692466 -0.00692466 6.04765e-12 6.04765e-12 6.04765e-12 6.04765e-12 -0.0217838 -0.0217838 -0.0217838 -0.0217838 0.00626334 0.00626334 0.00626334 0.00626334 -0.0138964 -0.0138964 -0.0138964 -0.0138964 9.93399e-12 9.93399e-12 9.93399e-12 9.93399e-12 -4.5524e-11 -4.5524e-11 -4.5524e-11 -4.5524e-11 -1.7033e-10 -1.7033e-10 -1.7033e-10 -1.7033e-10 -0.0787995 -0.0787995 -0.0787995 -0.0787995 -5.08358e-12 -5.08358e-12 -5.08358e-12 -5.08358e-12 0.0167545 0.0167545 0.0167545 0.0167545 -0.014483 -0.014483 -0.014483 -0.014483 -0.0550319 -0.0550319 -0.0550319 -0.0550319 -0.00367148 -0.00367148 -0.00367148 -0.00367148 0.00870369 0.00870369 0.00870369 0.00870369 -0.0087649 -0.0087649 -0.0087649 -0.0087649 -1.91233e-10 -1.91233e-10 -1.91233e-10 -1.91233e-10 -0.045155 -0.045155 -0.045155 -0.045155 -0.00528173 -0.00528173 -0.00528173 -0.00528173 -1.47579e-10 -1.47579e-10 -1.47579e-10 -1.47579e-10 0.0139909 0.0139909 0.0139909 0.0139909 -1.74037e-10 -1.74037e-10 -1.74037e-10 -1.74037e-10 6.54227e-12 6.54227e-12 6.54227e-12 6.54227e-12 -0.0237647 -0.0237647 -0.0237647 -0.0237647 -3.56373e-11 -3.56373e-11 -3.56373e-11 -3.56373e-11 0.0319314 0.0319314 0.0319314 0.0319314 0.0331509 0.0331509 0.0331509 0.0331509 6.4995e-11 6.4995e-11 6.4995e-11 6.4995e-11 -6.02976e-11 -6.02976e-11 -6.02976e-11 -6.02976e-11 -0.0045245 -0.0045245 -0.0045245 -0.0045245 -0.0229709 -0.0229709 -0.0229709 -0.0229709 -0.0040571 -0.0040571 -0.0040571 -0.0040571 1.81356e-12 1.81356e-12 1.81356e-12 1.81356e-12 -0.00812707 -0.00812707 -0.00812707 -0.00812707 0.0140761 0.0140761 0.0140761 0.0140761 -4.20589e-11 -4.20589e-11 -4.20589e-11 -4.20589e-11 0.0142052 0.0142052 0.0142052 0.0142052 0.0195418 0.0195418 0.0195418 0.0195418 -0.0356361 -0.0356361 -0.0356361 -0.0356361 -0.0117073 -0.0117073 -0.0117073 -0.0117073 -0.0753166 -0.0753166 -0.0753166 -0.0753166 0.0306139 0.0306139 0.0306139 0.0306139 -0.0652984 -0.0652984 -0.0652984 -0.0652984 -0.00437124 -0.00437124 -0.00437124 -0.00437124 7.82094e-11 7.82094e-11 7.82094e-11 7.82094e-11 0.00710742 0.00710742 0.00710742 0.00710742 -4.93468e-13 -4.93468e-13 -4.93468e-13 -4.93468e-13 0.0280562 0.0280562 0.0280562 0.0280562 1.11826e-11 1.11826e-11 1.11826e-11 1.11826e-11 -1.49383e-10 -1.49383e-10 -1.49383e-10 -1.49383e-10 -0.00604141 -0.00604141 -0.00604141 -0.00604141 0.00674235 0.00674235 0.00674235 0.00674235 -5.94363e-11 -5.94363e-11 -5.94363e-11 -5.94363e-11 -2.02024e-13 -2.02024e-13 -2.02024e-13 -2.02024e-13 0.0182138 0.0182138 0.0182138 0.0182138 -0.00442372 -0.00442372 -0.00442372 -0.00442372 -0.0226278 -0.0226278 -0.0226278 -0.0226278 -0.0273115 -0.0273115 -0.0273115 -0.0273115 -0.059999 -0.059999 -0.059999 -0.059999 -0.0441919 -0.0441919 -0.0441919 -0.0441919 -0.0745167 -0.0745167 -0.0745167 -0.0745167 0.0341702 0.0341702 0.0341702 0.0341702 -1.27343e-10 -1.27343e-10 -1.27343e-10 -1.27343e-10 -0.0340889 -0.0340889 -0.0340889 -0.0340889 -2.91751e-11 -2.91751e-11 -2.91751e-11 -2.91751e-11 0.0367501 0.0367501 0.0367501 0.0367501 0.00910596 0.00910596 0.00910596 0.00910596 -0.00160824 -0.00160824 -0.00160824 -0.00160824 0.0268776 0.0268776 0.0268776 0.0268776 -0.0681437 -0.0681437 -0.0681437 -0.0681437 -0.00661704 -0.00661704 -0.00661704 -0.00661704 -0.0028211 -0.0028211 -0.0028211 -0.0028211 -0.0106538 -0.0106538 -0.0106538 -0.0106538 0.0162899 0.0162899 0.0162899 0.0162899 3.38505e-11 3.38505e-11 3.38505e-11 3.38505e-11 0.0120183 0.0120183 0.0120183 0.0120183 0.0335146 0.0335146 0.0335146 0.0335146 0.0101612 0.0101612 0.0101612 0.0101612 -6.7745e-11 -6.7745e-11 -6.7745e-11 -6.7745e-11 0.0257749 0.0257749 0.0257749 0.0257749 0.00156593 0.00156593 0.00156593 0.00156593 -0.00721476 -0.00721476 -0.00721476 -0.00721476 -0.00938439 -0.00938439 -0.00938439 -0.00938439 -0.00117732 -0.00117732 -0.00117732 -0.00117732 0.028217 0.028217 0.028217 0.028217 -5.09292e-12 -5.09292e-12 -5.09292e-12 -5.09292e-12 -0.0491377 -0.0491377 -0.0491377 -0.0491377 5.79213e-11 5.79213e-11 5.79213e-11 5.79213e-11 -0.00277132 -0.00277132 -0.00277132 -0.00277132 0.0157327 0.0157327 0.0157327 0.0157327 0.00615088 0.00615088 0.00615088 0.00615088 1.30504e-11 1.30504e-11 1.30504e-11 1.30504e-11 -0.00816376 -0.00816376 -0.00816376 -0.00816376 -1.18101e-11 -1.18101e-11 -1.18101e-11 -1.18101e-11 -2.57327e-10 -2.57327e-10 -2.57327e-10 -2.57327e-10 -0.00774343 -0.00774343 -0.00774343 -0.00774343 -0.0477517 -0.0477517 -0.0477517 -0.0477517 0.0295785 0.0295785 0.0295785 0.0295785 -3.36418e-11 -3.36418e-11 -3.36418e-11 -3.36418e-11 -0.0100885 -0.0100885 -0.0100885 -0.0100885 0.0312776 0.0312776 0.0312776 0.0312776 -0.02148 -0.02148 -0.02148 -0.02148 6.79626e-11 6.79626e-11 6.79626e-11 6.79626e-11 -0.0136776 -0.0136776 -0.0136776 -0.0136776 0.00744773 0.00744773 0.00744773 0.00744773 -0.0120578 -0.0120578 -0.0120578 -0.0120578 -0.0518687 -0.0518687 -0.0518687 -0.0518687 0.0322082 0.0322082 0.0322082 0.0322082 -0.00480421 -0.00480421 -0.00480421 -0.00480421 -3.53135e-10 -3.53135e-10 -3.53135e-10 -3.53135e-10 -0.00586802 -0.00586802 -0.00586802 -0.00586802 0.0197818 0.0197818 0.0197818 0.0197818 -0.0080474 -0.0080474 -0.0080474 -0.0080474 8.81895e-12 8.81895e-12 8.81895e-12 8.81895e-12 2.78836e-11 2.78836e-11 2.78836e-11 2.78836e-11 4.88989e-11 4.88989e-11 4.88989e-11 4.88989e-11 0.00465558 0.00465558 0.00465558 0.00465558 0.0139918 0.0139918 0.0139918 0.0139918 -2.57243e-10 -2.57243e-10 -2.57243e-10 -2.57243e-10 0.000556016 0.000556016 0.000556016 0.000556016 0.00652879 0.00652879 0.00652879 0.00652879 -6.22287e-12 -6.22287e-12 -6.22287e-12 -6.22287e-12 -2.42377e-11 -2.42377e-11 -2.42377e-11 -2.42377e-11 0.015441 0.015441 0.015441 0.015441 -1.26878e-10 -1.26878e-10 -1.26878e-10 -1.26878e-10 1.45519e-11 1.45519e-11 1.45519e-11 1.45519e-11 1.08996e-10 1.08996e-10 1.08996e-10 1.08996e-10 0.0296865 0.0296865 0.0296865 0.0296865 -0.00116463 -0.00116463 -0.00116463 -0.00116463 0.0330979 0.0330979 0.0330979 0.0330979 -8.05755e-11 -8.05755e-11 -8.05755e-11 -8.05755e-11 -0.00942258 -0.00942258 -0.00942258 -0.00942258 0.00403931 0.00403931 0.00403931 0.00403931 0.0324112 0.0324112 0.0324112 0.0324112 -0.0169214 -0.0169214 -0.0169214 -0.0169214 -0.0516414 -0.0516414 -0.0516414 -0.0516414 -0.00548693 -0.00548693 -0.00548693 -0.00548693 -0.0146702 -0.0146702 -0.0146702 -0.0146702 0.00386511 0.00386511 0.00386511 0.00386511 -4.4157e-11 -4.4157e-11 -4.4157e-11 -4.4157e-11 0.00636839 0.00636839 0.00636839 0.00636839 0.00698457 0.00698457 0.00698457 0.00698457 0.00239632 0.00239632 0.00239632 0.00239632 -2.67738e-11 -2.67738e-11 -2.67738e-11 -2.67738e-11 2.51092e-11 2.51092e-11 2.51092e-11 2.51092e-11 0.0137716 0.0137716 0.0137716 0.0137716 -0.0242768 -0.0242768 -0.0242768 -0.0242768 0.00405215 0.00405215 0.00405215 0.00405215 0.0276912 0.0276912 0.0276912 0.0276912 -1.88732e-10 -1.88732e-10 -1.88732e-10 -1.88732e-10 -0.00167693 -0.00167693 -0.00167693 -0.00167693 -0.0206247 -0.0206247 -0.0206247 -0.0206247 -6.65595e-14 -6.65595e-14 -6.65595e-14 -6.65595e-14 0.0367489 0.0367489 0.0367489 0.0367489 -7.9844e-11 -7.9844e-11 -7.9844e-11 -7.9844e-11 2.26983e-10 2.26983e-10 2.26983e-10 2.26983e-10 0.011744 0.011744 0.011744 0.011744 0.0196342 0.0196342 0.0196342 0.0196342 -0.0474835 -0.0474835 -0.0474835 -0.0474835 -5.28929e-11 -5.28929e-11 -5.28929e-11 -5.28929e-11 -0.000782606 -0.000782606 -0.000782606 -0.000782606 -0.0812022 -0.0812022 -0.0812022 -0.0812022 0.00213633 0.00213633 0.00213633 0.00213633 1.75072e-11 1.75072e-11 1.75072e-11 1.75072e-11 -0.0805614 -0.0805614 -0.0805614 -0.0805614 -0.00794738 -0.00794738 -0.00794738 -0.00794738 0.0341128 0.0341128 0.0341128 0.0341128 -0.00346317 -0.00346317 -0.00346317 -0.00346317 1.60342e-11 1.60342e-11 1.60342e-11 1.60342e-11 0.0442167 0.0442167 0.0442167 0.0442167 -0.000707622 -0.000707622 -0.000707622 -0.000707622 -0.000399059 -0.000399059 -0.000399059 -0.000399059 0.0136154 0.0136154 0.0136154 0.0136154 -0.0787636 -0.0787636 -0.0787636 -0.0787636 9.65403e-11 9.65403e-11 9.65403e-11 9.65403e-11 -0.00668912 -0.00668912 -0.00668912 -0.00668912 -0.0542742 -0.0542742 -0.0542742 -0.0542742 -1.72288e-10 -1.72288e-10 -1.72288e-10 -1.72288e-10 0.000420164 0.000420164 0.000420164 0.000420164 0.0183412 0.0183412 0.0183412 0.0183412 0.037445 0.037445 0.037445 0.037445 -0.0311026 -0.0311026 -0.0311026 -0.0311026 0.0195478 0.0195478 0.0195478 0.0195478 4.94516e-11 4.94516e-11 4.94516e-11 4.94516e-11 0.0167746 0.0167746 0.0167746 0.0167746 1.11547e-10 1.11547e-10 1.11547e-10 1.11547e-10 -2.39654e-11 -2.39654e-11 -2.39654e-11 -2.39654e-11 -0.0153074 -0.0153074 -0.0153074 -0.0153074 -2.86951e-11 -2.86951e-11 -2.86951e-11 -2.86951e-11 -3.13781e-10 -3.13781e-10 -3.13781e-10 -3.13781e-10 -0.0487185 -0.0487185 -0.0487185 -0.0487185 -1.61006e-10 -1.61006e-10 -1.61006e-10 -1.61006e-10 0.0165688 0.0165688 0.0165688 0.0165688 0.0129529 0.0129529 0.0129529 0.0129529 0.0400805 0.0400805 0.0400805 0.0400805 0.0175637 0.0175637 0.0175637 0.0175637 -0.011472 -0.011472 -0.011472 -0.011472 -0.00280213 -0.00280213 -0.00280213 -0.00280213 0.0384827 0.0384827 0.0384827 0.0384827 -8.4215e-11 -8.4215e-11 -8.4215e-11 -8.4215e-11 0.0119799 0.0119799 0.0119799 0.0119799 -0.00934635 -0.00934635 -0.00934635 -0.00934635 0.0308757 0.0308757 0.0308757 0.0308757 1.5351e-11 1.5351e-11 1.5351e-11 1.5351e-11 -0.0106103 -0.0106103 -0.0106103 -0.0106103 0.0227476 0.0227476 0.0227476 0.0227476 -4.33966e-11 -4.33966e-11 -4.33966e-11 -4.33966e-11 9.74986e-11 9.74986e-11 9.74986e-11 9.74986e-11 8.38371e-11 8.38371e-11 8.38371e-11 8.38371e-11 -0.00156485 -0.00156485 -0.00156485 -0.00156485 -0.00312278 -0.00312278 -0.00312278 -0.00312278 -0.00526129 -0.00526129 -0.00526129 -0.00526129 -1.08713e-11 -1.08713e-11 -1.08713e-11 -1.08713e-11 -1.57933e-10 -1.57933e-10 -1.57933e-10 -1.57933e-10 0.0149384 0.0149384 0.0149384 0.0149384 -1.71165e-10 -1.71165e-10 -1.71165e-10 -1.71165e-10 -0.00524792 -0.00524792 -0.00524792 -0.00524792 -0.00307237 -0.00307237 -0.00307237 -0.00307237 0.0533409 0.0533409 0.0533409 0.0533409 0.00622299 0.00622299 0.00622299 0.00622299 -0.00594503 -0.00594503 -0.00594503 -0.00594503 0.0200115 0.0200115 0.0200115 0.0200115 2.09748e-10 2.09748e-10 2.09748e-10 2.09748e-10 0.0207399 0.0207399 0.0207399 0.0207399 -6.77181e-11 -6.77181e-11 -6.77181e-11 -6.77181e-11 0.0244887 0.0244887 0.0244887 0.0244887 0.00453627 0.00453627 0.00453627 0.00453627 0.0185264 0.0185264 0.0185264 0.0185264 0.0562093 0.0562093 0.0562093 0.0562093 -0.0342466 -0.0342466 -0.0342466 -0.0342466 1.14413e-10 1.14413e-10 1.14413e-10 1.14413e-10 1.4034e-10 1.4034e-10 1.4034e-10 1.4034e-10 -1.82153e-11 -1.82153e-11 -1.82153e-11 -1.82153e-11 0.0267106 0.0267106 0.0267106 0.0267106 2.16114e-10 2.16114e-10 2.16114e-10 2.16114e-10 0.023782 0.023782 0.023782 0.023782 -0.00513174 -0.00513174 -0.00513174 -0.00513174 3.4132e-10 3.4132e-10 3.4132e-10 3.4132e-10 -1.68531e-10 -1.68531e-10 -1.68531e-10 -1.68531e-10 0.0417921 0.0417921 0.0417921 0.0417921 -0.0261562 -0.0261562 -0.0261562 -0.0261562 0.0285244 0.0285244 0.0285244 0.0285244 0.037851 0.037851 0.037851 0.037851 0.00703959 0.00703959 0.00703959 0.00703959 0.0319704 0.0319704 0.0319704 0.0319704 0.0190802 0.0190802 0.0190802 0.0190802 -5.24436e-11 -5.24436e-11 -5.24436e-11 -5.24436e-11 4.47537e-11 4.47537e-11 4.47537e-11 4.47537e-11 0.0235522 0.0235522 0.0235522 0.0235522 2.63759e-10 2.63759e-10 2.63759e-10 2.63759e-10 1.09559e-10 1.09559e-10 1.09559e-10 1.09559e-10 0.0264554 0.0264554 0.0264554 0.0264554 0.0265374 0.0265374 0.0265374 0.0265374 -5.70262e-11 -5.70262e-11 -5.70262e-11 -5.70262e-11 0.0203096 0.0203096 0.0203096 0.0203096 -8.50113e-11 -8.50113e-11 -8.50113e-11 -8.50113e-11 0.023285 0.023285 0.023285 0.023285 0.00669892 0.00669892 0.00669892 0.00669892 0.0255292 0.0255292 0.0255292 0.0255292 0.0300994 0.0300994 0.0300994 0.0300994 3.77233e-11 3.77233e-11 3.77233e-11 3.77233e-11 0.0193286 0.0193286 0.0193286 0.0193286 -0.00173066 -0.00173066 -0.00173066 -0.00173066 0.0132189 0.0132189 0.0132189 0.0132189 0.0229388 0.0229388 0.0229388 0.0229388 2.12791e-10 2.12791e-10 2.12791e-10 2.12791e-10 0.0106684 0.0106684 0.0106684 0.0106684 -0.00164035 -0.00164035 -0.00164035 -0.00164035 -1.8025e-11 -1.8025e-11 -1.8025e-11 -1.8025e-11 0.0159396 0.0159396 0.0159396 0.0159396 3.47112e-10 3.47112e-10 3.47112e-10 3.47112e-10 0.00590998 0.00590998 0.00590998 0.00590998 -0.000887452 -0.000887452 -0.000887452 -0.000887452 0.014216 0.014216 0.014216 0.014216 2.15846e-10 2.15846e-10 2.15846e-10 2.15846e-10 -2.79177e-11 -2.79177e-11 -2.79177e-11 -2.79177e-11 1.6089e-12 1.6089e-12 1.6089e-12 1.6089e-12 0.0517705 0.0517705 0.0517705 0.0517705 -1.75651e-10 -1.75651e-10 -1.75651e-10 -1.75651e-10 0.0320793 0.0320793 0.0320793 0.0320793 0.0408704 0.0408704 0.0408704 0.0408704 0.0252196 0.0252196 0.0252196 0.0252196 0.0268227 0.0268227 0.0268227 0.0268227 0.0135962 0.0135962 0.0135962 0.0135962 0.0115303 0.0115303 0.0115303 0.0115303 3.53785e-10 3.53785e-10 3.53785e-10 3.53785e-10 0.0210777 0.0210777 0.0210777 0.0210777 0.0191988 0.0191988 0.0191988 0.0191988 0.0290908 0.0290908 0.0290908 0.0290908 0.0229004 0.0229004 0.0229004 0.0229004 -0.00704062 -0.00704062 -0.00704062 -0.00704062 -3.29923e-11 -3.29923e-11 -3.29923e-11 -3.29923e-11 2.83256e-10 2.83256e-10 2.83256e-10 2.83256e-10 -5.38968e-11 -5.38968e-11 -5.38968e-11 -5.38968e-11 1.28126e-10 1.28126e-10 1.28126e-10 1.28126e-10 0.0324538 0.0324538 0.0324538 0.0324538 0.0530601 0.0530601 0.0530601 0.0530601 0.02492 0.02492 0.02492 0.02492 0.000332175 0.000332175 0.000332175 0.000332175 1.92396e-10 1.92396e-10 1.92396e-10 1.92396e-10 -3.7387e-10 -3.7387e-10 -3.7387e-10 -3.7387e-10 -0.00838109 -0.00838109 -0.00838109 -0.00838109 0.0430258 0.0430258 0.0430258 0.0430258 0.00227009 0.00227009 0.00227009 0.00227009 0.00563328 0.00563328 0.00563328 0.00563328 -8.09762e-12 -8.09762e-12 -8.09762e-12 -8.09762e-12 0.00923058 0.00923058 0.00923058 0.00923058 0.0597597 0.0597597 0.0597597 0.0597597 0.00593843 0.00593843 0.00593843 0.00593843 0.027176 0.027176 0.027176 0.027176 4.18529e-11 4.18529e-11 4.18529e-11 4.18529e-11 0.0181013 0.0181013 0.0181013 0.0181013 -2.78539e-12 -2.78539e-12 -2.78539e-12 -2.78539e-12 -4.79902e-11 -4.79902e-11 -4.79902e-11 -4.79902e-11 0.030606 0.030606 0.030606 0.030606 0.0207519 0.0207519 0.0207519 0.0207519 -0.00193635 -0.00193635 -0.00193635 -0.00193635 0.011056 0.011056 0.011056 0.011056 6.32919e-11 6.32919e-11 6.32919e-11 6.32919e-11 0.0163796 0.0163796 0.0163796 0.0163796 0.0164047 0.0164047 0.0164047 0.0164047 0.0328636 0.0328636 0.0328636 0.0328636 0.0313551 0.0313551 0.0313551 0.0313551 0.0523749 0.0523749 0.0523749 0.0523749 0.00192463 0.00192463 0.00192463 0.00192463 0.00868014 0.00868014 0.00868014 0.00868014 0.0269861 0.0269861 0.0269861 0.0269861 0.059023 0.059023 0.059023 0.059023 0.0297112 0.0297112 0.0297112 0.0297112 0.0268022 0.0268022 0.0268022 0.0268022 0.00411066 0.00411066 0.00411066 0.00411066 0.00921433 0.00921433 0.00921433 0.00921433 0.011596 0.011596 0.011596 0.011596 0.00529366 0.00529366 0.00529366 0.00529366 0.0309693 0.0309693 0.0309693 0.0309693 0.0130482 0.0130482 0.0130482 0.0130482 0.0320688 0.0320688 0.0320688 0.0320688 0.0156899 0.0156899 0.0156899 0.0156899 0.0274798 0.0274798 0.0274798 0.0274798 7.63084e-12 7.63084e-12 7.63084e-12 7.63084e-12 1.50213e-11 1.50213e-11 1.50213e-11 1.50213e-11 3.53146e-12 3.53146e-12 3.53146e-12 3.53146e-12 0.0127794 0.0127794 0.0127794 0.0127794 9.28874e-13 9.28874e-13 9.28874e-13 9.28874e-13 8.40491e-12 8.40491e-12 8.40491e-12 8.40491e-12 1.80217e-11 1.80217e-11 1.80217e-11 1.80217e-11 1.43145e-11 1.43145e-11 1.43145e-11 1.43145e-11 0.00774836 0.00774836 0.00774836 0.00774836 1.48056e-11 1.48056e-11 1.48056e-11 1.48056e-11 0.00735423 0.00735423 0.00735423 0.00735423 -2.8098e-11 -2.8098e-11 -2.8098e-11 -2.8098e-11 0.00846141 0.00846141 0.00846141 0.00846141 -6.21046e-13 -6.21046e-13 -6.21046e-13 -6.21046e-13 -1.07814e-11 -1.07814e-11 -1.07814e-11 -1.07814e-11 9.96913e-12 9.96913e-12 9.96913e-12 9.96913e-12 0.0299298 0.0299298 0.0299298 0.0299298 2.2171e-11 2.2171e-11 2.2171e-11 2.2171e-11 0.0161715 0.0161715 0.0161715 0.0161715 0.0141644 0.0141644 0.0141644 0.0141644 1.10924e-11 1.10924e-11 1.10924e-11 1.10924e-11 0.0301623 0.0301623 0.0301623 0.0301623 0.0277293 0.0277293 0.0277293 0.0277293 7.21224e-12 7.21224e-12 7.21224e-12 7.21224e-12 0.00291074 0.00291074 0.00291074 0.00291074 4.72962e-12 4.72962e-12 4.72962e-12 4.72962e-12 0.01215 0.01215 0.01215 0.01215 0.00198415 0.00198415 0.00198415 0.00198415 -1.2332e-11 -1.2332e-11 -1.2332e-11 -1.2332e-11 0.00515565 0.00515565 0.00515565 0.00515565 0.0120564 0.0120564 0.0120564 0.0120564 0.00912572 0.00912572 0.00912572 0.00912572 0.00177174 0.00177174 0.00177174 0.00177174 0.0816274 0.0816274 0.0816274 0.0816274 0.0076152 0.0076152 0.0076152 0.0076152 0.00510924 0.00510924 0.00510924 0.00510924 3.32339e-10 3.32339e-10 3.32339e-10 3.32339e-10 0.0295882 0.0295882 0.0295882 0.0295882 0.00273964 0.00273964 0.00273964 0.00273964 2.70198e-11 2.70198e-11 2.70198e-11 2.70198e-11 0.022028 0.022028 0.022028 0.022028 0.0146066 0.0146066 0.0146066 0.0146066 0.0139924 0.0139924 0.0139924 0.0139924 -1.90253e-12 -1.90253e-12 -1.90253e-12 -1.90253e-12 0.0162792 0.0162792 0.0162792 0.0162792 0.0290581 0.0290581 0.0290581 0.0290581 0.00235981 0.00235981 0.00235981 0.00235981 0.0146267 0.0146267 0.0146267 0.0146267 0.0480249 0.0480249 0.0480249 0.0480249 0.0601301 0.0601301 0.0601301 0.0601301 1.40623e-10 1.40623e-10 1.40623e-10 1.40623e-10 0.0140218 0.0140218 0.0140218 0.0140218 0.0410546 0.0410546 0.0410546 0.0410546 3.18443e-11 3.18443e-11 3.18443e-11 3.18443e-11 0.0298803 0.0298803 0.0298803 0.0298803 0.0359641 0.0359641 0.0359641 0.0359641 1.76717e-11 1.76717e-11 1.76717e-11 1.76717e-11 0.0377761 0.0377761 0.0377761 0.0377761 0.00841724 0.00841724 0.00841724 0.00841724 3.56993e-10 3.56993e-10 3.56993e-10 3.56993e-10 0.0297852 0.0297852 0.0297852 0.0297852 1.1319e-10 1.1319e-10 1.1319e-10 1.1319e-10 -0.00438984 -0.00438984 -0.00438984 -0.00438984 0.02863 0.02863 0.02863 0.02863 0.0302695 0.0302695 0.0302695 0.0302695 -2.72863e-11 -2.72863e-11 -2.72863e-11 -2.72863e-11 0.0325907 0.0325907 0.0325907 0.0325907 2.23886e-11 2.23886e-11 2.23886e-11 2.23886e-11 1.00367e-10 1.00367e-10 1.00367e-10 1.00367e-10 -5.08325e-11 -5.08325e-11 -5.08325e-11 -5.08325e-11 0.0204231 0.0204231 0.0204231 0.0204231 0.00484137 0.00484137 0.00484137 0.00484137 0.0136471 0.0136471 0.0136471 0.0136471 0.0119497 0.0119497 0.0119497 0.0119497 -0.0105481 -0.0105481 -0.0105481 -0.0105481 0.0154862 0.0154862 0.0154862 0.0154862 0.0177596 0.0177596 0.0177596 0.0177596 1.17291e-11 1.17291e-11 1.17291e-11 1.17291e-11 1.15344e-10 1.15344e-10 1.15344e-10 1.15344e-10 0.0345376 0.0345376 0.0345376 0.0345376 6.34151e-11 6.34151e-11 6.34151e-11 6.34151e-11 8.30949e-11 8.30949e-11 8.30949e-11 8.30949e-11 0.00556803 0.00556803 0.00556803 0.00556803 1.85833e-10 1.85833e-10 1.85833e-10 1.85833e-10 0.0293692 0.0293692 0.0293692 0.0293692 2.28711e-10 2.28711e-10 2.28711e-10 2.28711e-10 0.0113307 0.0113307 0.0113307 0.0113307 0.00784833 0.00784833 0.00784833 0.00784833 6.98349e-11 6.98349e-11 6.98349e-11 6.98349e-11 0.0281368 0.0281368 0.0281368 0.0281368 2.24654e-10 2.24654e-10 2.24654e-10 2.24654e-10 0.0423524 0.0423524 0.0423524 0.0423524 0.0859303 0.0859303 0.0859303 0.0859303 0.00627059 0.00627059 0.00627059 0.00627059 0.0319164 0.0319164 0.0319164 0.0319164 0.0132732 0.0132732 0.0132732 0.0132732 0.0251688 0.0251688 0.0251688 0.0251688 0.0276741 0.0276741 0.0276741 0.0276741 1.17975e-10 1.17975e-10 1.17975e-10 1.17975e-10 1.4595e-10 1.4595e-10 1.4595e-10 1.4595e-10 3.25306e-10 3.25306e-10 3.25306e-10 3.25306e-10 1.80074e-10 1.80074e-10 1.80074e-10 1.80074e-10 7.4872e-11 7.4872e-11 7.4872e-11 7.4872e-11 2.30654e-10 2.30654e-10 2.30654e-10 2.30654e-10 0.0125169 0.0125169 0.0125169 0.0125169 -1.83732e-11 -1.83732e-11 -1.83732e-11 -1.83732e-11 0.0206763 0.0206763 0.0206763 0.0206763 0.0237609 0.0237609 0.0237609 0.0237609 4.05799e-10 4.05799e-10 4.05799e-10 4.05799e-10 3.2022e-10 3.2022e-10 3.2022e-10 3.2022e-10 0.0547675 0.0547675 0.0547675 0.0547675 1.78555e-10 1.78555e-10 1.78555e-10 1.78555e-10 0.0490329 0.0490329 0.0490329 0.0490329 2.24534e-10 2.24534e-10 2.24534e-10 2.24534e-10 4.3008e-11 4.3008e-11 4.3008e-11 4.3008e-11 0.0214844 0.0214844 0.0214844 0.0214844 3.65865e-11 3.65865e-11 3.65865e-11 3.65865e-11 0.0347546 0.0347546 0.0347546 0.0347546 -1.6211e-11 -1.6211e-11 -1.6211e-11 -1.6211e-11 -2.86392e-11 -2.86392e-11 -2.86392e-11 -2.86392e-11 0.0171378 0.0171378 0.0171378 0.0171378 0.0225679 0.0225679 0.0225679 0.0225679 1.02585e-11 1.02585e-11 1.02585e-11 1.02585e-11 0.0177667 0.0177667 0.0177667 0.0177667 0.0261917 0.0261917 0.0261917 0.0261917 0.0260224 0.0260224 0.0260224 0.0260224 0.00982306 0.00982306 0.00982306 0.00982306 0.0217044 0.0217044 0.0217044 0.0217044 0.0192303 0.0192303 0.0192303 0.0192303 -0.00113776 -0.00113776 -0.00113776 -0.00113776 -2.4296e-11 -2.4296e-11 -2.4296e-11 -2.4296e-11 0.0174698 0.0174698 0.0174698 0.0174698 9.32388e-12 9.32388e-12 9.32388e-12 9.32388e-12 4.31551e-11 4.31551e-11 4.31551e-11 4.31551e-11 0.0144106 0.0144106 0.0144106 0.0144106 0.0296314 0.0296314 0.0296314 0.0296314 0.0321267 0.0321267 0.0321267 0.0321267 0.0346305 0.0346305 0.0346305 0.0346305 0.0164268 0.0164268 0.0164268 0.0164268 0.00927226 0.00927226 0.00927226 0.00927226 -0.000289749 -0.000289749 -0.000289749 -0.000289749 -1.99134e-11 -1.99134e-11 -1.99134e-11 -1.99134e-11 0.0100221 0.0100221 0.0100221 0.0100221 0.0138679 0.0138679 0.0138679 0.0138679 0.0332675 0.0332675 0.0332675 0.0332675 0.0172939 0.0172939 0.0172939 0.0172939 0.0283483 0.0283483 0.0283483 0.0283483 0.0148098 0.0148098 0.0148098 0.0148098 0.00276126 0.00276126 0.00276126 0.00276126 0.0194402 0.0194402 0.0194402 0.0194402 0.0139824 0.0139824 0.0139824 0.0139824 -0.000165289 -0.000165289 -0.000165289 -0.000165289 -0.043477 -0.043477 -0.043477 -0.043477 -0.0568748 -0.0568748 -0.0568748 -0.0568748 0.0122852 0.0122852 0.0122852 0.0122852 0.00595302 0.00595302 0.00595302 0.00595302 0.00468836 0.00468836 0.00468836 0.00468836 -0.00182119 -0.00182119 -0.00182119 -0.00182119 4.87442e-11 4.87442e-11 4.87442e-11 4.87442e-11 -0.00729745 -0.00729745 -0.00729745 -0.00729745 0.0156684 0.0156684 0.0156684 0.0156684 0.029832 0.029832 0.029832 0.029832 2.0506e-11 2.0506e-11 2.0506e-11 2.0506e-11 0.00456968 0.00456968 0.00456968 0.00456968 -0.00666774 -0.00666774 -0.00666774 -0.00666774 -0.00701117 -0.00701117 -0.00701117 -0.00701117 0.00353601 0.00353601 0.00353601 0.00353601 -1.96293e-10 -1.96293e-10 -1.96293e-10 -1.96293e-10 -0.0481088 -0.0481088 -0.0481088 -0.0481088 -0.0569047 -0.0569047 -0.0569047 -0.0569047 -0.0633843 -0.0633843 -0.0633843 -0.0633843 -0.0646312 -0.0646312 -0.0646312 -0.0646312 0.034433 0.034433 0.034433 0.034433 0.019833 0.019833 0.019833 0.019833 -0.00246698 -0.00246698 -0.00246698 -0.00246698 -1.6699e-10 -1.6699e-10 -1.6699e-10 -1.6699e-10 -0.0389772 -0.0389772 -0.0389772 -0.0389772 -0.0510613 -0.0510613 -0.0510613 -0.0510613 0.0298583 0.0298583 0.0298583 0.0298583 0.0294792 0.0294792 0.0294792 0.0294792 0.0351154 0.0351154 0.0351154 0.0351154 0.0319795 0.0319795 0.0319795 0.0319795 0.0325356 0.0325356 0.0325356 0.0325356 0.0549776 0.0549776 0.0549776 0.0549776 0.0261481 0.0261481 0.0261481 0.0261481 0.0346895 0.0346895 0.0346895 0.0346895 0.0304809 0.0304809 0.0304809 0.0304809 0.0290297 0.0290297 0.0290297 0.0290297 0.0305075 0.0305075 0.0305075 0.0305075 0.029995 0.029995 0.029995 0.029995 0.0455765 0.0455765 0.0455765 0.0455765 0.0333472 0.0333472 0.0333472 0.0333472 0.0296315 0.0296315 0.0296315 0.0296315 0.0293192 0.0293192 0.0293192 0.0293192 0.030291 0.030291 0.030291 0.030291 0.00403721 0.00403721 0.00403721 0.00403721 0.0328019 0.0328019 0.0328019 0.0328019 0.0218418 0.0218418 0.0218418 0.0218418 0.0475646 0.0475646 0.0475646 0.0475646 0.0294442 0.0294442 0.0294442 0.0294442 0.0398364 0.0398364 0.0398364 0.0398364 0.013173 0.013173 0.013173 0.013173 0.0247598 0.0247598 0.0247598 0.0247598 0.0303987 0.0303987 0.0303987 0.0303987 0.026728 0.026728 0.026728 0.026728 0.0288201 0.0288201 0.0288201 0.0288201 0.0323984 0.0323984 0.0323984 0.0323984 0.0424251 0.0424251 0.0424251 0.0424251 -0.00636523 -0.00636523 -0.00636523 -0.00636523 0.0298084 0.0298084 0.0298084 0.0298084 0.0177292 0.0177292 0.0177292 0.0177292 -0.00344549 -0.00344549 -0.00344549 -0.00344549 0.0231807 0.0231807 0.0231807 0.0231807 0.0158812 0.0158812 0.0158812 0.0158812 0.00637574 0.00637574 0.00637574 0.00637574 0.0354122 0.0354122 0.0354122 0.0354122 0.0460942 0.0460942 0.0460942 0.0460942 0.00214617 0.00214617 0.00214617 0.00214617 0.0187376 0.0187376 0.0187376 0.0187376 0.0285067 0.0285067 0.0285067 0.0285067 0.0339929 0.0339929 0.0339929 0.0339929 0.0487401 0.0487401 0.0487401 0.0487401 0.0209519 0.0209519 0.0209519 0.0209519 0.0128669 0.0128669 0.0128669 0.0128669 0.0338999 0.0338999 0.0338999 0.0338999 0.036428 0.036428 0.036428 0.036428 0.028896 0.028896 0.028896 0.028896 0.0275014 0.0275014 0.0275014 0.0275014 0.0220239 0.0220239 0.0220239 0.0220239 0.0874406 0.0874406 0.0874406 0.0874406 0.0228063 0.0228063 0.0228063 0.0228063 0.0295888 0.0295888 0.0295888 0.0295888 0.0751515 0.0751515 0.0751515 0.0751515 0.031414 0.031414 0.031414 0.031414 0.0260051 0.0260051 0.0260051 0.0260051 0.015175 0.015175 0.015175 0.015175 0.0346082 0.0346082 0.0346082 0.0346082 0.0234181 0.0234181 0.0234181 0.0234181 0.0195573 0.0195573 0.0195573 0.0195573 0.0563866 0.0563866 0.0563866 0.0563866 0.0265606 0.0265606 0.0265606 0.0265606 0.0634553 0.0634553 0.0634553 0.0634553 0.0311062 0.0311062 0.0311062 0.0311062 0.0291698 0.0291698 0.0291698 0.0291698 0.02001 0.02001 0.02001 0.02001 0.0854842 0.0854842 0.0854842 0.0854842 0.0170246 0.0170246 0.0170246 0.0170246 0.0237555 0.0237555 0.0237555 0.0237555 0.0588853 0.0588853 0.0588853 0.0588853 0.0250014 0.0250014 0.0250014 0.0250014 0.0239106 0.0239106 0.0239106 0.0239106 0.029769 0.029769 0.029769 0.029769 0.022588 0.022588 0.022588 0.022588 0.0104781 0.0104781 0.0104781 0.0104781 0.0337822 0.0337822 0.0337822 0.0337822 0.0344364 0.0344364 0.0344364 0.0344364 0.0211675 0.0211675 0.0211675 0.0211675 0.0296376 0.0296376 0.0296376 0.0296376 0.0105538 0.0105538 0.0105538 0.0105538 0.036061 0.036061 0.036061 0.036061 0.0489555 0.0489555 0.0489555 0.0489555 0.0243788 0.0243788 0.0243788 0.0243788 0.057046 0.057046 0.057046 0.057046 0.0248616 0.0248616 0.0248616 0.0248616 -0.00683348 -0.00683348 -0.00683348 -0.00683348 0.034756 0.034756 0.034756 0.034756 0.0313038 0.0313038 0.0313038 0.0313038 0.0345214 0.0345214 0.0345214 0.0345214 0.0496348 0.0496348 0.0496348 0.0496348 0.0255464 0.0255464 0.0255464 0.0255464 0.0336532 0.0336532 0.0336532 0.0336532 0.0223938 0.0223938 0.0223938 0.0223938 0.0644026 0.0644026 0.0644026 0.0644026 0.0650232 0.0650232 0.0650232 0.0650232 0.0312355 0.0312355 0.0312355 0.0312355 0.0132061 0.0132061 0.0132061 0.0132061 0.0293076 0.0293076 0.0293076 0.0293076 0.025959 0.025959 0.025959 0.025959 -0.119891 -0.119891 -0.119891 -0.119891 0.0257963 0.0257963 0.0257963 0.0257963 0.0121716 0.0121716 0.0121716 0.0121716 0.122434 0.122434 0.122434 0.122434 0.0958953 0.0958953 0.0958953 0.0958953 0.0247597 0.0247597 0.0247597 0.0247597 0.0900277 0.0900277 0.0900277 0.0900277 0.110029 0.110029 0.110029 0.110029 0.0947298 0.0947298 0.0947298 0.0947298 0.0334889 0.0334889 0.0334889 0.0334889 -0.00330876 -0.00330876 -0.00330876 -0.00330876 0.0136828 0.0136828 0.0136828 0.0136828 0.100589 0.100589 0.100589 0.100589 0.0260202 0.0260202 0.0260202 0.0260202 0.0331962 0.0331962 0.0331962 0.0331962 0.0465835 0.0465835 0.0465835 0.0465835 0.107629 0.107629 0.107629 0.107629 0.0297319 0.0297319 0.0297319 0.0297319 0.0517703 0.0517703 0.0517703 0.0517703 0.0853899 0.0853899 0.0853899 0.0853899 0.0327021 0.0327021 0.0327021 0.0327021 0.0291231 0.0291231 0.0291231 0.0291231 0.0235934 0.0235934 0.0235934 0.0235934 0.00958036 0.00958036 0.00958036 0.00958036 0.0242733 0.0242733 0.0242733 0.0242733 0.101769 0.101769 0.101769 0.101769 0.0237394 0.0237394 0.0237394 0.0237394 0.0135327 0.0135327 0.0135327 0.0135327 0.187769 0.187769 0.187769 0.187769 0.0522251 0.0522251 0.0522251 0.0522251 0.0638686 0.0638686 0.0638686 0.0638686 0.0345619 0.0345619 0.0345619 0.0345619 -0.118454 -0.118454 -0.118454 -0.118454 0.0130294 0.0130294 0.0130294 0.0130294 0.036567 0.036567 0.036567 0.036567 0.0310482 0.0310482 0.0310482 0.0310482 0.0301699 0.0301699 0.0301699 0.0301699 0.104245 0.104245 0.104245 0.104245 -0.0621753 -0.0621753 -0.0621753 -0.0621753 0.0254977 0.0254977 0.0254977 0.0254977 0.00718632 0.00718632 0.00718632 0.00718632 0.0297476 0.0297476 0.0297476 0.0297476 0.0161391 0.0161391 0.0161391 0.0161391 -0.15184 -0.15184 -0.15184 -0.15184 -0.00239496 -0.00239496 -0.00239496 -0.00239496 0.0338511 0.0338511 0.0338511 0.0338511 0.0288813 0.0288813 0.0288813 0.0288813 0.0299121 0.0299121 0.0299121 0.0299121 0.0998897 0.0998897 0.0998897 0.0998897 0.061756 0.061756 0.061756 0.061756 0.0260536 0.0260536 0.0260536 0.0260536 0.017317 0.017317 0.017317 0.017317 0.0266034 0.0266034 0.0266034 0.0266034 0.0142687 0.0142687 0.0142687 0.0142687 0.0483559 0.0483559 0.0483559 0.0483559 0.00180154 0.00180154 0.00180154 0.00180154 0.0918426 0.0918426 0.0918426 0.0918426 0.0822538 0.0822538 0.0822538 0.0822538 0.051586 0.051586 0.051586 0.051586 0.0155082 0.0155082 0.0155082 0.0155082 0.196607 0.196607 0.196607 0.196607 0.107601 0.107601 0.107601 0.107601 -0.000251437 -0.000251437 -0.000251437 -0.000251437 0.030523 0.030523 0.030523 0.030523 0.0694756 0.0694756 0.0694756 0.0694756 -0.00972831 -0.00972831 -0.00972831 -0.00972831 -0.00728988 -0.00728988 -0.00728988 -0.00728988 0.0658799 0.0658799 0.0658799 0.0658799 0.0103331 0.0103331 0.0103331 0.0103331 0.0331789 0.0331789 0.0331789 0.0331789 0.0982552 0.0982552 0.0982552 0.0982552 0.0479305 0.0479305 0.0479305 0.0479305 0.00879939 0.00879939 0.00879939 0.00879939 0.0336867 0.0336867 0.0336867 0.0336867 0.110723 0.110723 0.110723 0.110723 0.0700133 0.0700133 0.0700133 0.0700133 0.036838 0.036838 0.036838 0.036838 0.0224429 0.0224429 0.0224429 0.0224429 0.0179702 0.0179702 0.0179702 0.0179702 0.0166629 0.0166629 0.0166629 0.0166629 -0.00691373 -0.00691373 -0.00691373 -0.00691373 0.0772277 0.0772277 0.0772277 0.0772277 -0.000550483 -0.000550483 -0.000550483 -0.000550483 0.0524237 0.0524237 0.0524237 0.0524237 0.100261 0.100261 0.100261 0.100261 -0.0107997 -0.0107997 -0.0107997 -0.0107997 0.0219964 0.0219964 0.0219964 0.0219964 -0.0017428 -0.0017428 -0.0017428 -0.0017428 0.0805307 0.0805307 0.0805307 0.0805307 0.0177082 0.0177082 0.0177082 0.0177082 0.102445 0.102445 0.102445 0.102445 0.0298811 0.0298811 0.0298811 0.0298811 0.0312439 0.0312439 0.0312439 0.0312439 0.033029 0.033029 0.033029 0.033029 0.0174508 0.0174508 0.0174508 0.0174508 0.0946556 0.0946556 0.0946556 0.0946556 0.011678 0.011678 0.011678 0.011678 0.0192521 0.0192521 0.0192521 0.0192521 0.029332 0.029332 0.029332 0.029332 0.0343402 0.0343402 0.0343402 0.0343402 0.170583 0.170583 0.170583 0.170583 0.106389 0.106389 0.106389 0.106389 0.032191 0.032191 0.032191 0.032191 0.0296717 0.0296717 0.0296717 0.0296717 0.102303 0.102303 0.102303 0.102303 0.0898291 0.0898291 0.0898291 0.0898291 0.0128968 0.0128968 0.0128968 0.0128968 0.135625 0.135625 0.135625 0.135625 0.0628364 0.0628364 0.0628364 0.0628364 0.0150859 0.0150859 0.0150859 0.0150859 0.0161972 0.0161972 0.0161972 0.0161972 0.0570107 0.0570107 0.0570107 0.0570107 -0.0124688 -0.0124688 -0.0124688 -0.0124688 0.0234315 0.0234315 0.0234315 0.0234315 0.101605 0.101605 0.101605 0.101605 0.0122946 0.0122946 0.0122946 0.0122946 -0.0110897 -0.0110897 -0.0110897 -0.0110897 0.0302734 0.0302734 0.0302734 0.0302734 -0.0287928 -0.0287928 -0.0287928 -0.0287928 0.0292747 0.0292747 0.0292747 0.0292747 0.180363 0.180363 0.180363 0.180363 0.0687828 0.0687828 0.0687828 0.0687828 0.031303 0.031303 0.031303 0.031303 0.070856 0.070856 0.070856 0.070856 0.0133647 0.0133647 0.0133647 0.0133647 0.0187593 0.0187593 0.0187593 0.0187593 0.0563635 0.0563635 0.0563635 0.0563635 0.0655737 0.0655737 0.0655737 0.0655737 -0.0107477 -0.0107477 -0.0107477 -0.0107477 0.0998075 0.0998075 0.0998075 0.0998075 -0.0069286 -0.0069286 -0.0069286 -0.0069286 0.0347567 0.0347567 0.0347567 0.0347567 0.0299688 0.0299688 0.0299688 0.0299688 0.0634937 0.0634937 0.0634937 0.0634937 0.113345 0.113345 0.113345 0.113345 0.0260741 0.0260741 0.0260741 0.0260741 0.125021 0.125021 0.125021 0.125021 0.0830409 0.0830409 0.0830409 0.0830409 0.027477 0.027477 0.027477 0.027477 0.0122995 0.0122995 0.0122995 0.0122995 0.0269922 0.0269922 0.0269922 0.0269922 0.00356526 0.00356526 0.00356526 0.00356526 0.0542637 0.0542637 0.0542637 0.0542637 0.0230412 0.0230412 0.0230412 0.0230412 0.0627493 0.0627493 0.0627493 0.0627493 0.0656596 0.0656596 0.0656596 0.0656596 0.0191701 0.0191701 0.0191701 0.0191701 0.0981606 0.0981606 0.0981606 0.0981606 0.0253023 0.0253023 0.0253023 0.0253023 0.0594118 0.0594118 0.0594118 0.0594118 0.00240192 0.00240192 0.00240192 0.00240192 -0.00142625 -0.00142625 -0.00142625 -0.00142625 0.0404655 0.0404655 0.0404655 0.0404655 0.0178536 0.0178536 0.0178536 0.0178536 0.050874 0.050874 0.050874 0.050874 0.0669155 0.0669155 0.0669155 0.0669155 0.112627 0.112627 0.112627 0.112627 0.0194402 0.0194402 0.0194402 0.0194402 -0.161492 -0.161492 -0.161492 -0.161492 0.00231845 0.00231845 0.00231845 0.00231845 0.0149644 0.0149644 0.0149644 0.0149644 -0.111123 -0.111123 -0.111123 -0.111123 0.0360295 0.0360295 0.0360295 0.0360295 0.163325 0.163325 0.163325 0.163325 0.140011 0.140011 0.140011 0.140011 0.116036 0.116036 0.116036 0.116036 0.00673979 0.00673979 0.00673979 0.00673979 0.114639 0.114639 0.114639 0.114639 0.0750972 0.0750972 0.0750972 0.0750972 -0.0393091 -0.0393091 -0.0393091 -0.0393091 0.000905329 0.000905329 0.000905329 0.000905329 0.00427343 0.00427343 0.00427343 0.00427343 0.0436254 0.0436254 0.0436254 0.0436254 0.106952 0.106952 0.106952 0.106952 0.0226613 0.0226613 0.0226613 0.0226613 0.022341 0.022341 0.022341 0.022341 0.161741 0.161741 0.161741 0.161741 0.0845007 0.0845007 0.0845007 0.0845007 -0.144629 -0.144629 -0.144629 -0.144629 0.0623317 0.0623317 0.0623317 0.0623317 0.113186 0.113186 0.113186 0.113186 -0.0159758 -0.0159758 -0.0159758 -0.0159758 0.00952154 0.00952154 0.00952154 0.00952154 0.141828 0.141828 0.141828 0.141828 0.0689584 0.0689584 0.0689584 0.0689584 -0.0546898 -0.0546898 -0.0546898 -0.0546898 0.0168017 0.0168017 0.0168017 0.0168017 0.0468235 0.0468235 0.0468235 0.0468235 0.0663983 0.0663983 0.0663983 0.0663983 0.0297191 0.0297191 0.0297191 0.0297191 0.100894 0.100894 0.100894 0.100894 0.091046 0.091046 0.091046 0.091046 0.103511 0.103511 0.103511 0.103511 0.0322382 0.0322382 0.0322382 0.0322382 -0.0119529 -0.0119529 -0.0119529 -0.0119529 0.0726114 0.0726114 0.0726114 0.0726114 0.0687332 0.0687332 0.0687332 0.0687332 0.0552678 0.0552678 0.0552678 0.0552678 0.0316757 0.0316757 0.0316757 0.0316757 0.0252605 0.0252605 0.0252605 0.0252605 0.0341824 0.0341824 0.0341824 0.0341824 -0.165069 -0.165069 -0.165069 -0.165069 -0.0241241 -0.0241241 -0.0241241 -0.0241241 0.0173979 0.0173979 0.0173979 0.0173979 0.139836 0.139836 0.139836 0.139836 0.00399914 0.00399914 0.00399914 0.00399914 -0.0839829 -0.0839829 -0.0839829 -0.0839829 0.0388652 0.0388652 0.0388652 0.0388652 0.0587915 0.0587915 0.0587915 0.0587915 0.0646643 0.0646643 0.0646643 0.0646643 0.0167144 0.0167144 0.0167144 0.0167144 0.0371196 0.0371196 0.0371196 0.0371196 0.0592376 0.0592376 0.0592376 0.0592376 -0.031781 -0.031781 -0.031781 -0.031781 0.0012476 0.0012476 0.0012476 0.0012476 -0.119974 -0.119974 -0.119974 -0.119974 -0.134211 -0.134211 -0.134211 -0.134211 0.0332858 0.0332858 0.0332858 0.0332858 -0.147874 -0.147874 -0.147874 -0.147874 -0.0705751 -0.0705751 -0.0705751 -0.0705751 0.0455857 0.0455857 0.0455857 0.0455857 0.0338733 0.0338733 0.0338733 0.0338733 0.00918205 0.00918205 0.00918205 0.00918205 -0.0420807 -0.0420807 -0.0420807 -0.0420807 0.0326001 0.0326001 0.0326001 0.0326001 0.118294 0.118294 0.118294 0.118294 0.118242 0.118242 0.118242 0.118242 0.0283652 0.0283652 0.0283652 0.0283652 0.0167573 0.0167573 0.0167573 0.0167573 0.189589 0.189589 0.189589 0.189589 0.0658025 0.0658025 0.0658025 0.0658025 -0.0160572 -0.0160572 -0.0160572 -0.0160572 0.0634839 0.0634839 0.0634839 0.0634839 -0.0127852 -0.0127852 -0.0127852 -0.0127852 -0.0254564 -0.0254564 -0.0254564 -0.0254564 0.0509247 0.0509247 0.0509247 0.0509247 -0.00408537 -0.00408537 -0.00408537 -0.00408537 0.0358113 0.0358113 0.0358113 0.0358113 0.0167795 0.0167795 0.0167795 0.0167795 0.0826431 0.0826431 0.0826431 0.0826431 0.0819058 0.0819058 0.0819058 0.0819058 0.146053 0.146053 0.146053 0.146053 0.0519269 0.0519269 0.0519269 0.0519269 0.132937 0.132937 0.132937 0.132937 0.164342 0.164342 0.164342 0.164342 -0.0125725 -0.0125725 -0.0125725 -0.0125725 0.156646 0.156646 0.156646 0.156646 0.0281959 0.0281959 0.0281959 0.0281959 0.0486236 0.0486236 0.0486236 0.0486236 0.0721303 0.0721303 0.0721303 0.0721303 0.0618323 0.0618323 0.0618323 0.0618323 -0.0491034 -0.0491034 -0.0491034 -0.0491034 0.0732492 0.0732492 0.0732492 0.0732492 -0.00289922 -0.00289922 -0.00289922 -0.00289922 -0.0295528 -0.0295528 -0.0295528 -0.0295528 0.0104764 0.0104764 0.0104764 0.0104764 0.0152729 0.0152729 0.0152729 0.0152729 0.00635642 0.00635642 0.00635642 0.00635642 -0.0894441 -0.0894441 -0.0894441 -0.0894441 -0.000723848 -0.000723848 -0.000723848 -0.000723848 0.112959 0.112959 0.112959 0.112959 0.049304 0.049304 0.049304 0.049304 0.00804165 0.00804165 0.00804165 0.00804165 0.124118 0.124118 0.124118 0.124118 0.00157661 0.00157661 0.00157661 0.00157661 0.0270165 0.0270165 0.0270165 0.0270165 0.00951755 0.00951755 0.00951755 0.00951755 0.00215177 0.00215177 0.00215177 0.00215177 0.11949 0.11949 0.11949 0.11949 0.0108155 0.0108155 0.0108155 0.0108155 0.0529406 0.0529406 0.0529406 0.0529406 0.103763 0.103763 0.103763 0.103763 -0.00893672 -0.00893672 -0.00893672 -0.00893672 0.0302837 0.0302837 0.0302837 0.0302837 0.005216 0.005216 0.005216 0.005216 0.0254163 0.0254163 0.0254163 0.0254163 0.132382 0.132382 0.132382 0.132382 0.0308815 0.0308815 0.0308815 0.0308815 0.00121711 0.00121711 0.00121711 0.00121711 0.070767 0.070767 0.070767 0.070767 0.173215 0.173215 0.173215 0.173215 0.167424 0.167424 0.167424 0.167424 -0.0130123 -0.0130123 -0.0130123 -0.0130123 0.0119314 0.0119314 0.0119314 0.0119314 0.0483588 0.0483588 0.0483588 0.0483588 -0.0295933 -0.0295933 -0.0295933 -0.0295933 -0.0568748 -0.0568748 -0.0568748 -0.0568748 -0.0271475 -0.0271475 -0.0271475 -0.0271475 0.167633 0.167633 0.167633 0.167633 0.113646 0.113646 0.113646 0.113646 0.137975 0.137975 0.137975 0.137975 0.124772 0.124772 0.124772 0.124772 0.234252 0.234252 0.234252 0.234252 0.00872964 0.00872964 0.00872964 0.00872964 0.0786587 0.0786587 0.0786587 0.0786587 0.0875816 0.0875816 0.0875816 0.0875816 0.101749 0.101749 0.101749 0.101749 -0.00299233 -0.00299233 -0.00299233 -0.00299233 0.144506 0.144506 0.144506 0.144506 0.0994402 0.0994402 0.0994402 0.0994402 0.0477839 0.0477839 0.0477839 0.0477839 0.149484 0.149484 0.149484 0.149484 0.0254812 0.0254812 0.0254812 0.0254812 0.0039045 0.0039045 0.0039045 0.0039045 0.0206447 0.0206447 0.0206447 0.0206447 0.0140276 0.0140276 0.0140276 0.0140276 0.104704 0.104704 0.104704 0.104704 0.0629391 0.0629391 0.0629391 0.0629391 0.101653 0.101653 0.101653 0.101653 -0.16932 -0.16932 -0.16932 -0.16932 0.025194 0.025194 0.025194 0.025194 -0.0251439 -0.0251439 -0.0251439 -0.0251439 -0.0841719 -0.0841719 -0.0841719 -0.0841719 -0.00598128 -0.00598128 -0.00598128 -0.00598128 0.0753165 0.0753165 0.0753165 0.0753165 0.0396404 0.0396404 0.0396404 0.0396404 -0.0974529 -0.0974529 -0.0974529 -0.0974529 0.112589 0.112589 0.112589 0.112589 0.0114886 0.0114886 0.0114886 0.0114886 -0.0707515 -0.0707515 -0.0707515 -0.0707515 0.0291167 0.0291167 0.0291167 0.0291167 0.0917761 0.0917761 0.0917761 0.0917761 0.0198816 0.0198816 0.0198816 0.0198816 -0.0486924 -0.0486924 -0.0486924 -0.0486924 0.0571285 0.0571285 0.0571285 0.0571285 0.0195177 0.0195177 0.0195177 0.0195177 0.0194227 0.0194227 0.0194227 0.0194227 0.0609066 0.0609066 0.0609066 0.0609066 0.123453 0.123453 0.123453 0.123453 -0.00656637 -0.00656637 -0.00656637 -0.00656637 0.244504 0.244504 0.244504 0.244504 0.100151 0.100151 0.100151 0.100151 0.104153 0.104153 0.104153 0.104153 -0.0173856 -0.0173856 -0.0173856 -0.0173856 0.013659 0.013659 0.013659 0.013659 0.202803 0.202803 0.202803 0.202803 0.0151723 0.0151723 0.0151723 0.0151723 -0.0552842 -0.0552842 -0.0552842 -0.0552842 0.12219 0.12219 0.12219 0.12219 0.0168478 0.0168478 0.0168478 0.0168478 0.0359234 0.0359234 0.0359234 0.0359234 -0.0498954 -0.0498954 -0.0498954 -0.0498954 -0.0242739 -0.0242739 -0.0242739 -0.0242739 0.100905 0.100905 0.100905 0.100905 0.0805106 0.0805106 0.0805106 0.0805106 0.0196499 0.0196499 0.0196499 0.0196499 0.0181186 0.0181186 0.0181186 0.0181186 0.124722 0.124722 0.124722 0.124722 0.0841919 0.0841919 0.0841919 0.0841919 0.160596 0.160596 0.160596 0.160596 0.364627 0.364627 0.364627 0.364627 0.109122 0.109122 0.109122 0.109122 0.121311 0.121311 0.121311 0.121311 -0.00715831 -0.00715831 -0.00715831 -0.00715831 -0.00301095 -0.00301095 -0.00301095 -0.00301095 0.259318 0.259318 0.259318 0.259318 0.104027 0.104027 0.104027 0.104027 0.124604 0.124604 0.124604 0.124604 0.0550647 0.0550647 0.0550647 0.0550647 0.0628656 0.0628656 0.0628656 0.0628656 0.108411 0.108411 0.108411 0.108411 0.0385845 0.0385845 0.0385845 0.0385845 0.0382164 0.0382164 0.0382164 0.0382164 0.0332821 0.0332821 0.0332821 0.0332821 0.00892405 0.00892405 0.00892405 0.00892405 0.252041 0.252041 0.252041 0.252041 0.100285 0.100285 0.100285 0.100285 0.0335639 0.0335639 0.0335639 0.0335639 0.0694426 0.0694426 0.0694426 0.0694426 0.150318 0.150318 0.150318 0.150318 0.167664 0.167664 0.167664 0.167664 -0.0382286 -0.0382286 -0.0382286 -0.0382286 0.0319714 0.0319714 0.0319714 0.0319714 -0.0229201 -0.0229201 -0.0229201 -0.0229201 0.023966 0.023966 0.023966 0.023966 -0.0126194 -0.0126194 -0.0126194 -0.0126194 -0.0329382 -0.0329382 -0.0329382 -0.0329382 -0.0541882 -0.0541882 -0.0541882 -0.0541882 -0.0350978 -0.0350978 -0.0350978 -0.0350978 0.00543717 0.00543717 0.00543717 0.00543717 -0.0999365 -0.0999365 -0.0999365 -0.0999365 -0.0524874 -0.0524874 -0.0524874 -0.0524874 0.154938 0.154938 0.154938 0.154938 -0.106727 -0.106727 -0.106727 -0.106727 0.0283449 0.0283449 0.0283449 0.0283449 0.0283272 0.0283272 0.0283272 0.0283272 0.0895325 0.0895325 0.0895325 0.0895325 0.0331349 0.0331349 0.0331349 0.0331349 -0.154311 -0.154311 -0.154311 -0.154311 -0.128983 -0.128983 -0.128983 -0.128983 0.160416 0.160416 0.160416 0.160416 -0.0316927 -0.0316927 -0.0316927 -0.0316927 0.0140709 0.0140709 0.0140709 0.0140709 0.153674 0.153674 0.153674 0.153674 0.11297 0.11297 0.11297 0.11297 0.0102171 0.0102171 0.0102171 0.0102171 0.291018 0.291018 0.291018 0.291018 0.166684 0.166684 0.166684 0.166684 0.0667785 0.0667785 0.0667785 0.0667785 0.237898 0.237898 0.237898 0.237898 0.122955 0.122955 0.122955 0.122955 0.0127042 0.0127042 0.0127042 0.0127042 0.226268 0.226268 0.226268 0.226268 -0.0758756 -0.0758756 -0.0758756 -0.0758756 0.147576 0.147576 0.147576 0.147576 -8.64722e-05 -8.64722e-05 -8.64722e-05 -8.64722e-05 -0.0569819 -0.0569819 -0.0569819 -0.0569819 -0.0167684 -0.0167684 -0.0167684 -0.0167684 0.0271001 0.0271001 0.0271001 0.0271001 0.0598877 0.0598877 0.0598877 0.0598877 0.0326649 0.0326649 0.0326649 0.0326649 0.0679841 0.0679841 0.0679841 0.0679841 -0.128192 -0.128192 -0.128192 -0.128192 0.150581 0.150581 0.150581 0.150581 0.080413 0.080413 0.080413 0.080413 0.180097 0.180097 0.180097 0.180097 -0.00794598 -0.00794598 -0.00794598 -0.00794598 -0.021973 -0.021973 -0.021973 -0.021973 0.0277539 0.0277539 0.0277539 0.0277539 0.0248994 0.0248994 0.0248994 0.0248994 0.0689045 0.0689045 0.0689045 0.0689045 0.339929 0.339929 0.339929 0.339929 0.118503 0.118503 0.118503 0.118503 0.0903112 0.0903112 0.0903112 0.0903112 0.116216 0.116216 0.116216 0.116216 0.133514 0.133514 0.133514 0.133514 0.0289787 0.0289787 0.0289787 0.0289787 -0.0529853 -0.0529853 -0.0529853 -0.0529853 0.181207 0.181207 0.181207 0.181207 -0.22857 -0.22857 -0.22857 -0.22857 0.106059 0.106059 0.106059 0.106059 0.0176144 0.0176144 0.0176144 0.0176144 -0.0552282 -0.0552282 -0.0552282 -0.0552282 0.0701184 0.0701184 0.0701184 0.0701184 -0.0589507 -0.0589507 -0.0589507 -0.0589507 0.0651439 0.0651439 0.0651439 0.0651439 0.189745 0.189745 0.189745 0.189745 0.157275 0.157275 0.157275 0.157275 -0.00513158 -0.00513158 -0.00513158 -0.00513158 0.153371 0.153371 0.153371 0.153371 0.0600305 0.0600305 0.0600305 0.0600305 0.00467163 0.00467163 0.00467163 0.00467163 0.0946204 0.0946204 0.0946204 0.0946204 0.011843 0.011843 0.011843 0.011843 -0.155328 -0.155328 -0.155328 -0.155328 0.200199 0.200199 0.200199 0.200199 0.0323569 0.0323569 0.0323569 0.0323569 0.147025 0.147025 0.147025 0.147025 0.102033 0.102033 0.102033 0.102033 0.093792 0.093792 0.093792 0.093792 0.137671 0.137671 0.137671 0.137671 0.199053 0.199053 0.199053 0.199053 0.0037784 0.0037784 0.0037784 0.0037784 0.132425 0.132425 0.132425 0.132425 0.0892574 0.0892574 0.0892574 0.0892574 0.126102 0.126102 0.126102 0.126102 0.00626334 0.00626334 0.00626334 0.00626334 -0.0148624 -0.0148624 -0.0148624 -0.0148624 0.140895 0.140895 0.140895 0.140895 0.236251 0.236251 0.236251 0.236251 0.144526 0.144526 0.144526 0.144526 -0.119038 -0.119038 -0.119038 -0.119038 0.10981 0.10981 0.10981 0.10981 0.0690139 0.0690139 0.0690139 0.0690139 0.142398 0.142398 0.142398 0.142398 -0.0550319 -0.0550319 -0.0550319 -0.0550319 0.0639011 0.0639011 0.0639011 0.0639011 0.0554822 0.0554822 0.0554822 0.0554822 0.0175832 0.0175832 0.0175832 0.0175832 0.241004 0.241004 0.241004 0.241004 0.106595 0.106595 0.106595 0.106595 0.14866 0.14866 0.14866 0.14866 0.238406 0.238406 0.238406 0.238406 0.0604897 0.0604897 0.0604897 0.0604897 0.210931 0.210931 0.210931 0.210931 0.159175 0.159175 0.159175 0.159175 -0.0237647 -0.0237647 -0.0237647 -0.0237647 0.12674 0.12674 0.12674 0.12674 0.0406675 0.0406675 0.0406675 0.0406675 0.0331509 0.0331509 0.0331509 0.0331509 0.145528 0.145528 0.145528 0.145528 0.141155 0.141155 0.141155 0.141155 0.110443 0.110443 0.110443 0.110443 0.0559764 0.0559764 0.0559764 0.0559764 0.0347883 0.0347883 0.0347883 0.0347883 0.16627 0.16627 0.16627 0.16627 -0.00812707 -0.00812707 -0.00812707 -0.00812707 0.0140761 0.0140761 0.0140761 0.0140761 0.0982339 0.0982339 0.0982339 0.0982339 0.0619884 0.0619884 0.0619884 0.0619884 0.0202966 0.0202966 0.0202966 0.0202966 -0.0323602 -0.0323602 -0.0323602 -0.0323602 -0.0117073 -0.0117073 -0.0117073 -0.0117073 -0.130436 -0.130436 -0.130436 -0.130436 0.0306139 0.0306139 0.0306139 0.0306139 -0.0626147 -0.0626147 -0.0626147 -0.0626147 -0.00437124 -0.00437124 -0.00437124 -0.00437124 0.161053 0.161053 0.161053 0.161053 0.00710742 0.00710742 0.00710742 0.00710742 0.108689 0.108689 0.108689 0.108689 0.0421682 0.0421682 0.0421682 0.0421682 0.10871 0.10871 0.10871 0.10871 0.212308 0.212308 0.212308 0.212308 -0.00604141 -0.00604141 -0.00604141 -0.00604141 0.0695843 0.0695843 0.0695843 0.0695843 0.175623 0.175623 0.175623 0.175623 0.0876179 0.0876179 0.0876179 0.0876179 0.0518115 0.0518115 0.0518115 0.0518115 0.0303691 0.0303691 0.0303691 0.0303691 0.0443133 0.0443133 0.0443133 0.0443133 0.0830243 0.0830243 0.0830243 0.0830243 -0.0121139 -0.0121139 -0.0121139 -0.0121139 0.216782 0.216782 0.216782 0.216782 -0.137713 -0.137713 -0.137713 -0.137713 0.230637 0.230637 0.230637 0.230637 0.0296564 0.0296564 0.0296564 0.0296564 -0.0228153 -0.0228153 -0.0228153 -0.0228153 0.122598 0.122598 0.122598 0.122598 0.0367501 0.0367501 0.0367501 0.0367501 -0.00160824 -0.00160824 -0.00160824 -0.00160824 0.0348349 0.0348349 0.0348349 0.0348349 0.0268776 0.0268776 0.0268776 0.0268776 -0.0670924 -0.0670924 -0.0670924 -0.0670924 0.109749 0.109749 0.109749 0.109749 -0.022368 -0.022368 -0.022368 -0.022368 0.0791894 0.0791894 0.0791894 0.0791894 0.0162899 0.0162899 0.0162899 0.0162899 0.14663 0.14663 0.14663 0.14663 0.0670401 0.0670401 0.0670401 0.0670401 0.0101612 0.0101612 0.0101612 0.0101612 0.0335146 0.0335146 0.0335146 0.0335146 0.166895 0.166895 0.166895 0.166895 0.0301799 0.0301799 0.0301799 0.0301799 0.03153 0.03153 0.03153 0.03153 -0.00721476 -0.00721476 -0.00721476 -0.00721476 -0.00938439 -0.00938439 -0.00938439 -0.00938439 0.038526 0.038526 0.038526 0.038526 0.0283388 0.0283388 0.0283388 0.0283388 0.230307 0.230307 0.230307 0.230307 -0.0449239 -0.0449239 -0.0449239 -0.0449239 0.192553 0.192553 0.192553 0.192553 -0.00277132 -0.00277132 -0.00277132 -0.00277132 0.0157327 0.0157327 0.0157327 0.0157327 0.00615088 0.00615088 0.00615088 0.00615088 0.0900785 0.0900785 0.0900785 0.0900785 -0.00816376 -0.00816376 -0.00816376 -0.00816376 0.121066 0.121066 0.121066 0.121066 0.16746 0.16746 0.16746 0.16746 -0.0346567 -0.0346567 -0.0346567 -0.0346567 0.0953107 0.0953107 0.0953107 0.0953107 0.0295785 0.0295785 0.0295785 0.0295785 0.172212 0.172212 0.172212 0.172212 -0.0100885 -0.0100885 -0.0100885 -0.0100885 0.0312776 0.0312776 0.0312776 0.0312776 -0.02148 -0.02148 -0.02148 -0.02148 0.109041 0.109041 0.109041 0.109041 -0.0136776 -0.0136776 -0.0136776 -0.0136776 0.00744773 0.00744773 0.00744773 0.00744773 0.0433225 0.0433225 0.0433225 0.0433225 -0.0518687 -0.0518687 -0.0518687 -0.0518687 0.0322082 0.0322082 0.0322082 0.0322082 0.195858 0.195858 0.195858 0.195858 0.278218 0.278218 0.278218 0.278218 0.0912642 0.0912642 0.0912642 0.0912642 0.0197818 0.0197818 0.0197818 0.0197818 0.0459388 0.0459388 0.0459388 0.0459388 0.171144 0.171144 0.171144 0.171144 0.19593 0.19593 0.19593 0.19593 0.14519 0.14519 0.14519 0.14519 0.00465558 0.00465558 0.00465558 0.00465558 0.275552 0.275552 0.275552 0.275552 0.0653027 0.0653027 0.0653027 0.0653027 0.167575 0.167575 0.167575 0.167575 0.033878 0.033878 0.033878 0.033878 0.124372 0.124372 0.124372 0.124372 0.163417 0.163417 0.163417 0.163417 0.015441 0.015441 0.015441 0.015441 0.24893 0.24893 0.24893 0.24893 0.152119 0.152119 0.152119 0.152119 0.0905172 0.0905172 0.0905172 0.0905172 0.168243 0.168243 0.168243 0.168243 0.0296865 0.0296865 0.0296865 0.0296865 0.249211 0.249211 0.249211 0.249211 0.0330979 0.0330979 0.0330979 0.0330979 0.112283 0.112283 0.112283 0.112283 0.0174848 0.0174848 0.0174848 0.0174848 0.0284146 0.0284146 0.0284146 0.0284146 0.0324112 0.0324112 0.0324112 0.0324112 0.095549 0.095549 0.095549 0.095549 -0.0516414 -0.0516414 -0.0516414 -0.0516414 0.0393085 0.0393085 0.0393085 0.0393085 0.0441238 0.0441238 0.0441238 0.0441238 0.00386511 0.00386511 0.00386511 0.00386511 0.131002 0.131002 0.131002 0.131002 0.0170102 0.0170102 0.0170102 0.0170102 -0.0687503 -0.0687503 -0.0687503 -0.0687503 0.00239632 0.00239632 0.00239632 0.00239632 0.150936 0.150936 0.150936 0.150936 0.103243 0.103243 0.103243 0.103243 0.0627126 0.0627126 0.0627126 0.0627126 0.153313 0.153313 0.153313 0.153313 0.00405215 0.00405215 0.00405215 0.00405215 0.0276912 0.0276912 0.0276912 0.0276912 0.251772 0.251772 0.251772 0.251772 0.231302 0.231302 0.231302 0.231302 0.0487653 0.0487653 0.0487653 0.0487653 0.14961 0.14961 0.14961 0.14961 0.140917 0.140917 0.140917 0.140917 0.0350792 0.0350792 0.0350792 0.0350792 0.244611 0.244611 0.244611 0.244611 0.256078 0.256078 0.256078 0.256078 0.060627 0.060627 0.060627 0.060627 0.0196342 0.0196342 0.0196342 0.0196342 0.0367958 0.0367958 0.0367958 0.0367958 0.246847 0.246847 0.246847 0.246847 0.125358 0.125358 0.125358 0.125358 -0.0812022 -0.0812022 -0.0812022 -0.0812022 0.283289 0.283289 0.283289 0.283289 0.135502 0.135502 0.135502 0.135502 -0.154979 -0.154979 -0.154979 -0.154979 0.187187 0.187187 0.187187 0.187187 0.105711 0.105711 0.105711 0.105711 0.0393755 0.0393755 0.0393755 0.0393755 0.117694 0.117694 0.117694 0.117694 0.0442167 0.0442167 0.0442167 0.0442167 0.168525 0.168525 0.168525 0.168525 -0.000399059 -0.000399059 -0.000399059 -0.000399059 0.0581706 0.0581706 0.0581706 0.0581706 -0.0787636 -0.0787636 -0.0787636 -0.0787636 0.268074 0.268074 0.268074 0.268074 -0.00668912 -0.00668912 -0.00668912 -0.00668912 -0.0542742 -0.0542742 -0.0542742 -0.0542742 0.219954 0.219954 0.219954 0.219954 0.000420164 0.000420164 0.000420164 0.000420164 0.0183412 0.0183412 0.0183412 0.0183412 0.037445 0.037445 0.037445 0.037445 -0.0311026 -0.0311026 -0.0311026 -0.0311026 0.0195478 0.0195478 0.0195478 0.0195478 0.145997 0.145997 0.145997 0.145997 0.0167746 0.0167746 0.0167746 0.0167746 0.16508 0.16508 0.16508 0.16508 -0.0153074 -0.0153074 -0.0153074 -0.0153074 0.163807 0.163807 0.163807 0.163807 0.190004 0.190004 0.190004 0.190004 0.177367 0.177367 0.177367 0.177367 -0.0487185 -0.0487185 -0.0487185 -0.0487185 0.132241 0.132241 0.132241 0.132241 0.104154 0.104154 0.104154 0.104154 0.0129529 0.0129529 0.0129529 0.0129529 0.0400805 0.0400805 0.0400805 0.0400805 0.0433059 0.0433059 0.0433059 0.0433059 0.0798792 0.0798792 0.0798792 0.0798792 0.18759 0.18759 0.18759 0.18759 0.0269306 0.0269306 0.0269306 0.0269306 0.119746 0.119746 0.119746 0.119746 0.0604868 0.0604868 0.0604868 0.0604868 -0.00934635 -0.00934635 -0.00934635 -0.00934635 0.0308757 0.0308757 0.0308757 0.0308757 0.0877111 0.0877111 0.0877111 0.0877111 -0.0106103 -0.0106103 -0.0106103 -0.0106103 0.0345046 0.0345046 0.0345046 0.0345046 0.259972 0.259972 0.259972 0.259972 0.168794 0.168794 0.168794 0.168794 0.108248 0.108248 0.108248 0.108248 0.244295 0.244295 0.244295 0.244295 0.17037 0.17037 0.17037 0.17037 0.0334816 0.0334816 0.0334816 0.0334816 0.162597 0.162597 0.162597 0.162597 0.231964 0.231964 0.231964 0.231964 0.0459656 0.0459656 0.0459656 0.0459656 0.0587442 0.0587442 0.0587442 0.0587442 0.211428 0.211428 0.211428 0.211428 0.222624 0.222624 0.222624 0.222624 0.0516023 0.0516023 0.0516023 0.0516023 0.047714 0.047714 0.047714 0.047714 -0.00594503 -0.00594503 -0.00594503 -0.00594503 0.0200115 0.0200115 0.0200115 0.0200115 0.245241 0.245241 0.245241 0.245241 0.0207399 0.0207399 0.0207399 0.0207399 0.227241 0.227241 0.227241 0.227241 0.0244887 0.0244887 0.0244887 0.0244887 0.0273002 0.0273002 0.0273002 0.0273002 0.0436065 0.0436065 0.0436065 0.0436065 0.0503451 0.0503451 0.0503451 0.0503451 -0.0563866 -0.0563866 -0.0563866 -0.0563866 0.0895205 0.0895205 0.0895205 0.0895205 0.309587 0.309587 0.309587 0.309587 0.163992 0.163992 0.163992 0.163992 0.244512 0.244512 0.244512 0.244512 0.0267106 0.0267106 0.0267106 0.0267106 0.023782 0.023782 0.023782 0.023782 0.153628 0.153628 0.153628 0.153628 0.440867 0.440867 0.440867 0.440867 0.225364 0.225364 0.225364 0.225364 0.0417921 0.0417921 0.0417921 0.0417921 -0.0775634 -0.0775634 -0.0775634 -0.0775634 0.0285244 0.0285244 0.0285244 0.0285244 0.032059 0.032059 0.032059 0.032059 0.349154 0.349154 0.349154 0.349154 0.0319704 0.0319704 0.0319704 0.0319704 0.147214 0.147214 0.147214 0.147214 0.0356814 0.0356814 0.0356814 0.0356814 0.15948 0.15948 0.15948 0.15948 0.0391332 0.0391332 0.0391332 0.0391332 0.251377 0.251377 0.251377 0.251377 0.357833 0.357833 0.357833 0.357833 0.0264554 0.0264554 0.0264554 0.0264554 0.0265374 0.0265374 0.0265374 0.0265374 0.1586 0.1586 0.1586 0.1586 0.152866 0.152866 0.152866 0.152866 0.0203096 0.0203096 0.0203096 0.0203096 0.023285 0.023285 0.023285 0.023285 0.0837679 0.0837679 0.0837679 0.0837679 0.0255292 0.0255292 0.0255292 0.0255292 0.0300994 0.0300994 0.0300994 0.0300994 0.090744 0.090744 0.090744 0.090744 0.0193286 0.0193286 0.0193286 0.0193286 0.146847 0.146847 0.146847 0.146847 0.0633589 0.0633589 0.0633589 0.0633589 0.0229388 0.0229388 0.0229388 0.0229388 0.316372 0.316372 0.316372 0.316372 0.0451477 0.0451477 0.0451477 0.0451477 0.035768 0.035768 0.035768 0.035768 0.0991143 0.0991143 0.0991143 0.0991143 0.2545 0.2545 0.2545 0.2545 0.0159396 0.0159396 0.0159396 0.0159396 0.386623 0.386623 0.386623 0.386623 0.404266 0.404266 0.404266 0.404266 0.0619217 0.0619217 0.0619217 0.0619217 0.143044 0.143044 0.143044 0.143044 0.352439 0.352439 0.352439 0.352439 0.098292 0.098292 0.098292 0.098292 0.0517705 0.0517705 0.0517705 0.0517705 0.117331 0.117331 0.117331 0.117331 0.0320793 0.0320793 0.0320793 0.0320793 0.0220647 0.0220647 0.0220647 0.0220647 0.0252196 0.0252196 0.0252196 0.0252196 0.0268227 0.0268227 0.0268227 0.0268227 0.0641161 0.0641161 0.0641161 0.0641161 0.050194 0.050194 0.050194 0.050194 0.271643 0.271643 0.271643 0.271643 0.0210777 0.0210777 0.0210777 0.0210777 0.0191988 0.0191988 0.0191988 0.0191988 0.0290908 0.0290908 0.0290908 0.0290908 0.0425899 0.0425899 0.0425899 0.0425899 0.0298999 0.0298999 0.0298999 0.0298999 0.0884807 0.0884807 0.0884807 0.0884807 0.532232 0.532232 0.532232 0.532232 0.192895 0.192895 0.192895 0.192895 0.327248 0.327248 0.327248 0.327248 0.0324538 0.0324538 0.0324538 0.0324538 0.032941 0.032941 0.032941 0.032941 0.041588 0.041588 0.041588 0.041588 0.102297 0.102297 0.102297 0.102297 0.237794 0.237794 0.237794 0.237794 0.202611 0.202611 0.202611 0.202611 0.0173357 0.0173357 0.0173357 0.0173357 0.0430258 0.0430258 0.0430258 0.0430258 0.381027 0.381027 0.381027 0.381027 0.0583665 0.0583665 0.0583665 0.0583665 0.106867 0.106867 0.106867 0.106867 0.0720699 0.0720699 0.0720699 0.0720699 0.0597597 0.0597597 0.0597597 0.0597597 0.0617596 0.0617596 0.0617596 0.0617596 0.027176 0.027176 0.027176 0.027176 0.198927 0.198927 0.198927 0.198927 0.0181013 0.0181013 0.0181013 0.0181013 0.1006 0.1006 0.1006 0.1006 0.131719 0.131719 0.131719 0.131719 0.030606 0.030606 0.030606 0.030606 0.0207519 0.0207519 0.0207519 0.0207519 -0.00193635 -0.00193635 -0.00193635 -0.00193635 0.0669422 0.0669422 0.0669422 0.0669422 0.181393 0.181393 0.181393 0.181393 0.0538282 0.0538282 0.0538282 0.0538282 0.0412328 0.0412328 0.0412328 0.0412328 0.0328636 0.0328636 0.0328636 0.0328636 0.0313551 0.0313551 0.0313551 0.0313551 0.0203754 0.0203754 0.0203754 0.0203754 0.0792476 0.0792476 0.0792476 0.0792476 0.0471018 0.0471018 0.0471018 0.0471018 0.0269861 0.0269861 0.0269861 0.0269861 0.0462745 0.0462745 0.0462745 0.0462745 0.0297112 0.0297112 0.0297112 0.0297112 0.0268022 0.0268022 0.0268022 0.0268022 0.0749326 0.0749326 0.0749326 0.0749326 0.0656945 0.0656945 0.0656945 0.0656945 0.0717071 0.0717071 0.0717071 0.0717071 0.552459 0.552459 0.552459 0.552459 0.0309693 0.0309693 0.0309693 0.0309693 0.0652174 0.0652174 0.0652174 0.0652174 0.0320688 0.0320688 0.0320688 0.0320688 0.0531467 0.0531467 0.0531467 0.0531467 0.0274798 0.0274798 0.0274798 0.0274798 0.0982696 0.0982696 0.0982696 0.0982696 0.0803347 0.0803347 0.0803347 0.0803347 0.0883268 0.0883268 0.0883268 0.0883268 0.0646775 0.0646775 0.0646775 0.0646775 0.106497 0.106497 0.106497 0.106497 0.0911957 0.0911957 0.0911957 0.0911957 0.0813215 0.0813215 0.0813215 0.0813215 0.0810053 0.0810053 0.0810053 0.0810053 0.0746425 0.0746425 0.0746425 0.0746425 0.0967068 0.0967068 0.0967068 0.0967068 0.0483421 0.0483421 0.0483421 0.0483421 0.123468 0.123468 0.123468 0.123468 0.0662526 0.0662526 0.0662526 0.0662526 0.129776 0.129776 0.129776 0.129776 0.0954794 0.0954794 0.0954794 0.0954794 0.0936263 0.0936263 0.0936263 0.0936263 0.0299298 0.0299298 0.0299298 0.0299298 0.082668 0.082668 0.082668 0.082668 0.056503 0.056503 0.056503 0.056503 0.0617211 0.0617211 0.0617211 0.0617211 0.107089 0.107089 0.107089 0.107089 0.0277293 0.0277293 0.0277293 0.0277293 0.0301623 0.0301623 0.0301623 0.0301623 0.106868 0.106868 0.106868 0.106868 0.0742642 0.0742642 0.0742642 0.0742642 0.110514 0.110514 0.110514 0.110514 0.0462116 0.0462116 0.0462116 0.0462116 0.0886143 0.0886143 0.0886143 0.0886143 0.104001 0.104001 0.104001 0.104001 0.0928623 0.0928623 0.0928623 0.0928623 0.0661471 0.0661471 0.0661471 0.0661471 0.462281 0.462281 0.462281 0.462281 0.0917491 0.0917491 0.0917491 0.0917491 0.0582356 0.0582356 0.0582356 0.0582356 0.0806817 0.0806817 0.0806817 0.0806817 0.074043 0.074043 0.074043 0.074043 0.366359 0.366359 0.366359 0.366359 0.0295882 0.0295882 0.0295882 0.0295882 0.518154 0.518154 0.518154 0.518154 0.103967 0.103967 0.103967 0.103967 0.022028 0.022028 0.022028 0.022028 0.0614253 0.0614253 0.0614253 0.0614253 0.065302 0.065302 0.065302 0.065302 0.146261 0.146261 0.146261 0.146261 0.0162792 0.0162792 0.0162792 0.0162792 0.0290581 0.0290581 0.0290581 0.0290581 0.0884276 0.0884276 0.0884276 0.0884276 0.0613899 0.0613899 0.0613899 0.0613899 0.0480249 0.0480249 0.0480249 0.0480249 0.0601301 0.0601301 0.0601301 0.0601301 0.310306 0.310306 0.310306 0.310306 0.0609534 0.0609534 0.0609534 0.0609534 0.0410546 0.0410546 0.0410546 0.0410546 0.0602664 0.0602664 0.0602664 0.0602664 0.0298803 0.0298803 0.0298803 0.0298803 0.134009 0.134009 0.134009 0.134009 0.0359641 0.0359641 0.0359641 0.0359641 0.0377761 0.0377761 0.0377761 0.0377761 0.0728349 0.0728349 0.0728349 0.0728349 0.466926 0.466926 0.466926 0.466926 0.0297852 0.0297852 0.0297852 0.0297852 0.251637 0.251637 0.251637 0.251637 -0.00438984 -0.00438984 -0.00438984 -0.00438984 0.02863 0.02863 0.02863 0.02863 0.0302695 0.0302695 0.0302695 0.0302695 0.0745889 0.0745889 0.0745889 0.0745889 0.0325907 0.0325907 0.0325907 0.0325907 0.1793 0.1793 0.1793 0.1793 0.267425 0.267425 0.267425 0.267425 0.130995 0.130995 0.130995 0.130995 0.0204231 0.0204231 0.0204231 0.0204231 0.0136471 0.0136471 0.0136471 0.0136471 0.00484137 0.00484137 0.00484137 0.00484137 0.0605604 0.0605604 0.0605604 0.0605604 -0.0105481 -0.0105481 -0.0105481 -0.0105481 0.0154862 0.0154862 0.0154862 0.0154862 0.0177596 0.0177596 0.0177596 0.0177596 0.18748 0.18748 0.18748 0.18748 0.313894 0.313894 0.313894 0.313894 0.0345376 0.0345376 0.0345376 0.0345376 0.193541 0.193541 0.193541 0.193541 0.199147 0.199147 0.199147 0.199147 0.00556803 0.00556803 0.00556803 0.00556803 0.0293692 0.0293692 0.0293692 0.0293692 0.24185 0.24185 0.24185 0.24185 0.351383 0.351383 0.351383 0.351383 0.0603937 0.0603937 0.0603937 0.0603937 0.00784833 0.00784833 0.00784833 0.00784833 0.156457 0.156457 0.156457 0.156457 0.0281368 0.0281368 0.0281368 0.0281368 0.431967 0.431967 0.431967 0.431967 0.0423524 0.0423524 0.0423524 0.0423524 0.0859303 0.0859303 0.0859303 0.0859303 0.00627059 0.00627059 0.00627059 0.00627059 0.0319164 0.0319164 0.0319164 0.0319164 0.0132732 0.0132732 0.0132732 0.0132732 0.0251688 0.0251688 0.0251688 0.0251688 0.0276741 0.0276741 0.0276741 0.0276741 0.2623 0.2623 0.2623 0.2623 0.319285 0.319285 0.319285 0.319285 0.425968 0.425968 0.425968 0.425968 0.187682 0.187682 0.187682 0.187682 0.18793 0.18793 0.18793 0.18793 0.34184 0.34184 0.34184 0.34184 0.0648268 0.0648268 0.0648268 0.0648268 0.182391 0.182391 0.182391 0.182391 0.0206763 0.0206763 0.0206763 0.0206763 0.0237609 0.0237609 0.0237609 0.0237609 0.282324 0.282324 0.282324 0.282324 0.251887 0.251887 0.251887 0.251887 0.0547675 0.0547675 0.0547675 0.0547675 0.236759 0.236759 0.236759 0.236759 0.0490329 0.0490329 0.0490329 0.0490329 0.254831 0.254831 0.254831 0.254831 0.189063 0.189063 0.189063 0.189063 0.0214844 0.0214844 0.0214844 0.0214844 0.204179 0.204179 0.204179 0.204179 0.0341704 0.0341704 0.0341704 0.0341704 0.0950943 0.0950943 0.0950943 0.0950943 0.0189495 0.0189495 0.0189495 0.0189495 0.0709489 0.0709489 0.0709489 0.0709489 0.108917 0.108917 0.108917 0.108917 0.0309834 0.0309834 0.0309834 0.0309834 0.0261917 0.0261917 0.0261917 0.0261917 0.0250693 0.0250693 0.0250693 0.0250693 0.0567704 0.0567704 0.0567704 0.0567704 0.0260224 0.0260224 0.0260224 0.0260224 0.0192303 0.0192303 0.0192303 0.0192303 0.0329258 0.0329258 0.0329258 0.0329258 0.160709 0.160709 0.160709 0.160709 0.165597 0.165597 0.165597 0.165597 0.105455 0.105455 0.105455 0.105455 0.0190887 0.0190887 0.0190887 0.0190887 0.0646539 0.0646539 0.0646539 0.0646539 0.0934076 0.0934076 0.0934076 0.0934076 0.0321267 0.0321267 0.0321267 0.0321267 0.0378906 0.0378906 0.0378906 0.0378906 0.0346305 0.0346305 0.0346305 0.0346305 0.0563211 0.0563211 0.0563211 0.0563211 0.00927226 0.00927226 0.00927226 0.00927226 0.119381 0.119381 0.119381 0.119381 0.119424 0.119424 0.119424 0.119424 0.0943738 0.0943738 0.0943738 0.0943738 0.0621671 0.0621671 0.0621671 0.0621671 0.0332675 0.0332675 0.0332675 0.0332675 0.0510503 0.0510503 0.0510503 0.0510503 0.0607675 0.0607675 0.0607675 0.0607675 0.0398124 0.0398124 0.0398124 0.0398124 0.0812667 0.0812667 0.0812667 0.0812667 0.0230506 0.0230506 0.0230506 0.0230506 0.111508 0.111508 0.111508 0.111508 0.0176122 0.0176122 0.0176122 0.0176122 0.247117 0.247117 0.247117 0.247117 0.0736667 0.0736667 0.0736667 0.0736667 0.0361131 0.0361131 0.0361131 0.0361131 0.00595302 0.00595302 0.00595302 0.00595302 0.180044 0.180044 0.180044 0.180044 -0.00182119 -0.00182119 -0.00182119 -0.00182119 0.0347495 0.0347495 0.0347495 0.0347495 0.142526 0.142526 0.142526 0.142526 0.108391 0.108391 0.108391 0.108391 0.117821 0.117821 0.117821 0.117821 0.029832 0.029832 0.029832 0.029832 0.040506 0.040506 0.040506 0.040506 -0.0215376 -0.0215376 -0.0215376 -0.0215376 -0.00666774 -0.00666774 -0.00666774 -0.00666774 0.138706 0.138706 0.138706 0.138706 0.0431145 0.0431145 0.0431145 0.0431145 -0.0569047 -0.0569047 -0.0569047 -0.0569047 0.0281711 0.0281711 0.0281711 0.0281711 -0.0609211 -0.0609211 -0.0609211 -0.0609211 -0.0651317 -0.0651317 -0.0651317 -0.0651317 0.0548561 0.0548561 0.0548561 0.0548561 0.034433 0.034433 0.034433 0.034433 0.244152 0.244152 0.244152 0.244152 0.224895 0.224895 0.224895 0.224895 -0.117758 -0.117758 -0.117758 -0.117758 -0.0389772 -0.0389772 -0.0389772 -0.0389772 
SCALARS StressY float 
LOOKUP_TABLE default
0.0333362 0.0333362 0.0333362 0.0333362 0.0256357 0.0256357 0.0256357 0.0256357 0.0324466 0.0324466 0.0324466 0.0324466 0.0268679 0.0268679 0.0268679 0.0268679 0.0297817 0.0297817 0.0297817 0.0297817 0.0258586 0.0258586 0.0258586 0.0258586 0.0272887 0.0272887 0.0272887 0.0272887 0.0299681 0.0299681 0.0299681 0.0299681 0.0306482 0.0306482 0.0306482 0.0306482 0.0303283 0.0303283 0.0303283 0.0303283 0.0223886 0.0223886 0.0223886 0.0223886 0.0282144 0.0282144 0.0282144 0.0282144 0.0329245 0.0329245 0.0329245 0.0329245 0.021019 0.021019 0.021019 0.021019 0.0280643 0.0280643 0.0280643 0.0280643 0.0336 0.0336 0.0336 0.0336 0.0327626 0.0327626 0.0327626 0.0327626 0.0266646 0.0266646 0.0266646 0.0266646 0.0257072 0.0257072 0.0257072 0.0257072 0.0220591 0.0220591 0.0220591 0.0220591 0.0236789 0.0236789 0.0236789 0.0236789 0.0179773 0.0179773 0.0179773 0.0179773 0.0135191 0.0135191 0.0135191 0.0135191 0.0158907 0.0158907 0.0158907 0.0158907 0.0206712 0.0206712 0.0206712 0.0206712 0.0167331 0.0167331 0.0167331 0.0167331 0.0123074 0.0123074 0.0123074 0.0123074 0.0261109 0.0261109 0.0261109 0.0261109 0.0157463 0.0157463 0.0157463 0.0157463 0.0300404 0.0300404 0.0300404 0.0300404 0.0111311 0.0111311 0.0111311 0.0111311 0.0135935 0.0135935 0.0135935 0.0135935 0.0300185 0.0300185 0.0300185 0.0300185 0.0175609 0.0175609 0.0175609 0.0175609 0.0269778 0.0269778 0.0269778 0.0269778 0.00998367 0.00998367 0.00998367 0.00998367 0.0205248 0.0205248 0.0205248 0.0205248 0.0201766 0.0201766 0.0201766 0.0201766 0.032795 0.032795 0.032795 0.032795 0.0187917 0.0187917 0.0187917 0.0187917 0.0262499 0.0262499 0.0262499 0.0262499 -0.0133337 -0.0133337 -0.0133337 -0.0133337 0.0216972 0.0216972 0.0216972 0.0216972 0.0338938 0.0338938 0.0338938 0.0338938 0.011151 0.011151 0.011151 0.011151 0.0197299 0.0197299 0.0197299 0.0197299 0.00851743 0.00851743 0.00851743 0.00851743 0.0246677 0.0246677 0.0246677 0.0246677 0.0329144 0.0329144 0.0329144 0.0329144 0.0266466 0.0266466 0.0266466 0.0266466 0.0217532 0.0217532 0.0217532 0.0217532 0.00410742 0.00410742 0.00410742 0.00410742 0.0295243 0.0295243 0.0295243 0.0295243 0.0301598 0.0301598 0.0301598 0.0301598 0.0296401 0.0296401 0.0296401 0.0296401 0.0341393 0.0341393 0.0341393 0.0341393 0.0300825 0.0300825 0.0300825 0.0300825 0.0175922 0.0175922 0.0175922 0.0175922 0.0281859 0.0281859 0.0281859 0.0281859 0.00307275 0.00307275 0.00307275 0.00307275 0.0262395 0.0262395 0.0262395 0.0262395 0.0315696 0.0315696 0.0315696 0.0315696 0.00837296 0.00837296 0.00837296 0.00837296 0.0325608 0.0325608 0.0325608 0.0325608 0.00523503 0.00523503 0.00523503 0.00523503 0.0310503 0.0310503 0.0310503 0.0310503 0.0244284 0.0244284 0.0244284 0.0244284 0.0297515 0.0297515 0.0297515 0.0297515 0.0223459 0.0223459 0.0223459 0.0223459 0.0271192 0.0271192 0.0271192 0.0271192 0.0280877 0.0280877 0.0280877 0.0280877 0.0313572 0.0313572 0.0313572 0.0313572 0.0207619 0.0207619 0.0207619 0.0207619 0.0273695 0.0273695 0.0273695 0.0273695 -0.0250577 -0.0250577 -0.0250577 -0.0250577 0.00698884 0.00698884 0.00698884 0.00698884 0.0318935 0.0318935 0.0318935 0.0318935 0.02291 0.02291 0.02291 0.02291 0.0347262 0.0347262 0.0347262 0.0347262 0.0212248 0.0212248 0.0212248 0.0212248 0.0273671 0.0273671 0.0273671 0.0273671 0.0315823 0.0315823 0.0315823 0.0315823 0.0268285 0.0268285 0.0268285 0.0268285 0.0332567 0.0332567 0.0332567 0.0332567 0.0276225 0.0276225 0.0276225 0.0276225 0.016112 0.016112 0.016112 0.016112 0.00632513 0.00632513 0.00632513 0.00632513 0.0184265 0.0184265 0.0184265 0.0184265 0.0206852 0.0206852 0.0206852 0.0206852 0.0337501 0.0337501 0.0337501 0.0337501 0.0275503 0.0275503 0.0275503 0.0275503 0.00216522 0.00216522 0.00216522 0.00216522 -0.0322766 -0.0322766 -0.0322766 -0.0322766 0.0316052 0.0316052 0.0316052 0.0316052 0.0326396 0.0326396 0.0326396 0.0326396 0.0107885 0.0107885 0.0107885 0.0107885 0.00788014 0.00788014 0.00788014 0.00788014 0.0210782 0.0210782 0.0210782 0.0210782 0.0336206 0.0336206 0.0336206 0.0336206 0.0267789 0.0267789 0.0267789 0.0267789 0.0247695 0.0247695 0.0247695 0.0247695 0.0171673 0.0171673 0.0171673 0.0171673 0.0160187 0.0160187 0.0160187 0.0160187 0.0204336 0.0204336 0.0204336 0.0204336 0.0357128 0.0357128 0.0357128 0.0357128 -0.00264496 -0.00264496 -0.00264496 -0.00264496 0.0323014 0.0323014 0.0323014 0.0323014 0.016817 0.016817 0.016817 0.016817 -0.086698 -0.086698 -0.086698 -0.086698 -0.00283686 -0.00283686 -0.00283686 -0.00283686 0.0200057 0.0200057 0.0200057 0.0200057 0.0144635 0.0144635 0.0144635 0.0144635 0.0173885 0.0173885 0.0173885 0.0173885 0.00237704 0.00237704 0.00237704 0.00237704 0.00105002 0.00105002 0.00105002 0.00105002 0.0219531 0.0219531 0.0219531 0.0219531 0.0111476 0.0111476 0.0111476 0.0111476 0.0146441 0.0146441 0.0146441 0.0146441 0.0351029 0.0351029 0.0351029 0.0351029 0.0182916 0.0182916 0.0182916 0.0182916 0.0267181 0.0267181 0.0267181 0.0267181 0.0332441 0.0332441 0.0332441 0.0332441 0.0213251 0.0213251 0.0213251 0.0213251 0.023837 0.023837 0.023837 0.023837 0.0313618 0.0313618 0.0313618 0.0313618 0.0304657 0.0304657 0.0304657 0.0304657 -0.0870398 -0.0870398 -0.0870398 -0.0870398 0.0158681 0.0158681 0.0158681 0.0158681 0.0146733 0.0146733 0.0146733 0.0146733 0.0319564 0.0319564 0.0319564 0.0319564 0.0279969 0.0279969 0.0279969 0.0279969 0.0122658 0.0122658 0.0122658 0.0122658 0.0165229 0.0165229 0.0165229 0.0165229 0.0205236 0.0205236 0.0205236 0.0205236 0.00223048 0.00223048 0.00223048 0.00223048 0.0150832 0.0150832 0.0150832 0.0150832 0.0337445 0.0337445 0.0337445 0.0337445 -0.00087156 -0.00087156 -0.00087156 -0.00087156 0.000292947 0.000292947 0.000292947 0.000292947 0.0182235 0.0182235 0.0182235 0.0182235 0.0344796 0.0344796 0.0344796 0.0344796 0.0272612 0.0272612 0.0272612 0.0272612 0.00326308 0.00326308 0.00326308 0.00326308 0.0187966 0.0187966 0.0187966 0.0187966 0.0146287 0.0146287 0.0146287 0.0146287 -0.000770245 -0.000770245 -0.000770245 -0.000770245 0.0104537 0.0104537 0.0104537 0.0104537 0.0221218 0.0221218 0.0221218 0.0221218 0.000361062 0.000361062 0.000361062 0.000361062 0.00854768 0.00854768 0.00854768 0.00854768 0.0346248 0.0346248 0.0346248 0.0346248 0.0262032 0.0262032 0.0262032 0.0262032 0.0289759 0.0289759 0.0289759 0.0289759 0.0162102 0.0162102 0.0162102 0.0162102 0.0288062 0.0288062 0.0288062 0.0288062 -0.00696712 -0.00696712 -0.00696712 -0.00696712 -0.00137431 -0.00137431 -0.00137431 -0.00137431 0.0255116 0.0255116 0.0255116 0.0255116 -0.00926028 -0.00926028 -0.00926028 -0.00926028 0.0263108 0.0263108 0.0263108 0.0263108 0.023826 0.023826 0.023826 0.023826 0.0101473 0.0101473 0.0101473 0.0101473 0.0195586 0.0195586 0.0195586 0.0195586 0.00499298 0.00499298 0.00499298 0.00499298 0.0141451 0.0141451 0.0141451 0.0141451 0.0207587 0.0207587 0.0207587 0.0207587 0.00706722 0.00706722 0.00706722 0.00706722 0.0233781 0.0233781 0.0233781 0.0233781 -0.00766461 -0.00766461 -0.00766461 -0.00766461 0.0268752 0.0268752 0.0268752 0.0268752 0.0267294 0.0267294 0.0267294 0.0267294 0.0260696 0.0260696 0.0260696 0.0260696 0.013326 0.013326 0.013326 0.013326 0.0163807 0.0163807 0.0163807 0.0163807 0.0336543 0.0336543 0.0336543 0.0336543 0.0134628 0.0134628 0.0134628 0.0134628 0.00816637 0.00816637 0.00816637 0.00816637 -0.00104346 -0.00104346 -0.00104346 -0.00104346 0.0206416 0.0206416 0.0206416 0.0206416 -0.00235402 -0.00235402 -0.00235402 -0.00235402 0.00318207 0.00318207 0.00318207 0.00318207 0.0270064 0.0270064 0.0270064 0.0270064 0.0169418 0.0169418 0.0169418 0.0169418 0.01632 0.01632 0.01632 0.01632 0.0220808 0.0220808 0.0220808 0.0220808 -0.00454408 -0.00454408 -0.00454408 -0.00454408 0.0138165 0.0138165 0.0138165 0.0138165 0.00972238 0.00972238 0.00972238 0.00972238 0.0132877 0.0132877 0.0132877 0.0132877 0.0131039 0.0131039 0.0131039 0.0131039 0.00919955 0.00919955 0.00919955 0.00919955 0.0170938 0.0170938 0.0170938 0.0170938 0.00972486 0.00972486 0.00972486 0.00972486 0.0168381 0.0168381 0.0168381 0.0168381 0.00452732 0.00452732 0.00452732 0.00452732 0.0307732 0.0307732 0.0307732 0.0307732 0.0210761 0.0210761 0.0210761 0.0210761 0.0345403 0.0345403 0.0345403 0.0345403 -0.0763827 -0.0763827 -0.0763827 -0.0763827 -0.0129942 -0.0129942 -0.0129942 -0.0129942 -0.000393769 -0.000393769 -0.000393769 -0.000393769 -0.00490677 -0.00490677 -0.00490677 -0.00490677 0.00281371 0.00281371 0.00281371 0.00281371 0.0336344 0.0336344 0.0336344 0.0336344 0.0164773 0.0164773 0.0164773 0.0164773 0.0134808 0.0134808 0.0134808 0.0134808 0.025085 0.025085 0.025085 0.025085 0.0309469 0.0309469 0.0309469 0.0309469 0.0125549 0.0125549 0.0125549 0.0125549 2.68363e-11 2.68363e-11 2.68363e-11 2.68363e-11 0.0261634 0.0261634 0.0261634 0.0261634 0.0100953 0.0100953 0.0100953 0.0100953 0.00835825 0.00835825 0.00835825 0.00835825 -0.00189103 -0.00189103 -0.00189103 -0.00189103 0.0232416 0.0232416 0.0232416 0.0232416 0.02835 0.02835 0.02835 0.02835 0.0116408 0.0116408 0.0116408 0.0116408 0.00910357 0.00910357 0.00910357 0.00910357 0.0216526 0.0216526 0.0216526 0.0216526 0.0166101 0.0166101 0.0166101 0.0166101 0.021283 0.021283 0.021283 0.021283 0.00165015 0.00165015 0.00165015 0.00165015 0.00994457 0.00994457 0.00994457 0.00994457 0.0277773 0.0277773 0.0277773 0.0277773 0.0194067 0.0194067 0.0194067 0.0194067 -0.00812832 -0.00812832 -0.00812832 -0.00812832 0.0121613 0.0121613 0.0121613 0.0121613 0.007167 0.007167 0.007167 0.007167 -0.00212795 -0.00212795 -0.00212795 -0.00212795 0.0239596 0.0239596 0.0239596 0.0239596 -0.00085144 -0.00085144 -0.00085144 -0.00085144 0.0344982 0.0344982 0.0344982 0.0344982 0.0223766 0.0223766 0.0223766 0.0223766 0.00303167 0.00303167 0.00303167 0.00303167 0.0125636 0.0125636 0.0125636 0.0125636 0.0138809 0.0138809 0.0138809 0.0138809 -0.0284429 -0.0284429 -0.0284429 -0.0284429 0.0124803 0.0124803 0.0124803 0.0124803 0.0194212 0.0194212 0.0194212 0.0194212 0.0192728 0.0192728 0.0192728 0.0192728 0.0165275 0.0165275 0.0165275 0.0165275 0.0196415 0.0196415 0.0196415 0.0196415 0.0103546 0.0103546 0.0103546 0.0103546 0.00708628 0.00708628 0.00708628 0.00708628 0.0250404 0.0250404 0.0250404 0.0250404 -0.0192785 -0.0192785 -0.0192785 -0.0192785 0.0238312 0.0238312 0.0238312 0.0238312 0.0168148 0.0168148 0.0168148 0.0168148 -0.00846741 -0.00846741 -0.00846741 -0.00846741 0.0123769 0.0123769 0.0123769 0.0123769 -0.00697836 -0.00697836 -0.00697836 -0.00697836 0.0146257 0.0146257 0.0146257 0.0146257 -0.00633117 -0.00633117 -0.00633117 -0.00633117 -0.00193026 -0.00193026 -0.00193026 -0.00193026 -0.0318069 -0.0318069 -0.0318069 -0.0318069 -0.00160162 -0.00160162 -0.00160162 -0.00160162 0.0195054 0.0195054 0.0195054 0.0195054 0.0237268 0.0237268 0.0237268 0.0237268 -0.0194361 -0.0194361 -0.0194361 -0.0194361 0.0127799 0.0127799 0.0127799 0.0127799 -0.00306402 -0.00306402 -0.00306402 -0.00306402 -0.00391809 -0.00391809 -0.00391809 -0.00391809 0.0170972 0.0170972 0.0170972 0.0170972 -0.0181423 -0.0181423 -0.0181423 -0.0181423 0.000209576 0.000209576 0.000209576 0.000209576 -0.0743082 -0.0743082 -0.0743082 -0.0743082 0.0289392 0.0289392 0.0289392 0.0289392 0.0133579 0.0133579 0.0133579 0.0133579 0.00580952 0.00580952 0.00580952 0.00580952 0.0112175 0.0112175 0.0112175 0.0112175 0.0126208 0.0126208 0.0126208 0.0126208 -0.0249923 -0.0249923 -0.0249923 -0.0249923 0.0237525 0.0237525 0.0237525 0.0237525 -0.00413062 -0.00413062 -0.00413062 -0.00413062 0.0259907 0.0259907 0.0259907 0.0259907 -0.0286342 -0.0286342 -0.0286342 -0.0286342 0.0176694 0.0176694 0.0176694 0.0176694 -3.60373e-10 -3.60373e-10 -3.60373e-10 -3.60373e-10 0.0254374 0.0254374 0.0254374 0.0254374 0.000253775 0.000253775 0.000253775 0.000253775 -0.00373901 -0.00373901 -0.00373901 -0.00373901 0.0219713 0.0219713 0.0219713 0.0219713 -0.000243055 -0.000243055 -0.000243055 -0.000243055 0.024222 0.024222 0.024222 0.024222 -0.000255395 -0.000255395 -0.000255395 -0.000255395 0.00104212 0.00104212 0.00104212 0.00104212 1.29403e-05 1.29403e-05 1.29403e-05 1.29403e-05 0.0249848 0.0249848 0.0249848 0.0249848 0.00772638 0.00772638 0.00772638 0.00772638 -0.0742579 -0.0742579 -0.0742579 -0.0742579 0.0168542 0.0168542 0.0168542 0.0168542 2.40171e-11 2.40171e-11 2.40171e-11 2.40171e-11 -0.0777953 -0.0777953 -0.0777953 -0.0777953 0.0104637 0.0104637 0.0104637 0.0104637 1.25492e-11 1.25492e-11 1.25492e-11 1.25492e-11 0.00259297 0.00259297 0.00259297 0.00259297 -0.00143886 -0.00143886 -0.00143886 -0.00143886 0.0163302 0.0163302 0.0163302 0.0163302 0.00209905 0.00209905 0.00209905 0.00209905 0.0280223 0.0280223 0.0280223 0.0280223 0.0294463 0.0294463 0.0294463 0.0294463 -0.027244 -0.027244 -0.027244 -0.027244 0.0148359 0.0148359 0.0148359 0.0148359 0.0112046 0.0112046 0.0112046 0.0112046 -0.050474 -0.050474 -0.050474 -0.050474 0.0209415 0.0209415 0.0209415 0.0209415 0.0215758 0.0215758 0.0215758 0.0215758 0.00207723 0.00207723 0.00207723 0.00207723 -0.0159667 -0.0159667 -0.0159667 -0.0159667 -0.0761211 -0.0761211 -0.0761211 -0.0761211 0.0363709 0.0363709 0.0363709 0.0363709 0.0123161 0.0123161 0.0123161 0.0123161 -0.00457031 -0.00457031 -0.00457031 -0.00457031 0.0164388 0.0164388 0.0164388 0.0164388 -0.0457134 -0.0457134 -0.0457134 -0.0457134 -0.0343495 -0.0343495 -0.0343495 -0.0343495 -0.00242337 -0.00242337 -0.00242337 -0.00242337 0.0167317 0.0167317 0.0167317 0.0167317 -0.010997 -0.010997 -0.010997 -0.010997 0.00250219 0.00250219 0.00250219 0.00250219 -0.0176659 -0.0176659 -0.0176659 -0.0176659 0.000689778 0.000689778 0.000689778 0.000689778 0.0215882 0.0215882 0.0215882 0.0215882 -0.034781 -0.034781 -0.034781 -0.034781 -0.00799128 -0.00799128 -0.00799128 -0.00799128 0.0164457 0.0164457 0.0164457 0.0164457 -0.03067 -0.03067 -0.03067 -0.03067 -0.0781665 -0.0781665 -0.0781665 -0.0781665 -3.46646e-11 -3.46646e-11 -3.46646e-11 -3.46646e-11 -0.0655873 -0.0655873 -0.0655873 -0.0655873 -0.0122537 -0.0122537 -0.0122537 -0.0122537 -8.525e-11 -8.525e-11 -8.525e-11 -8.525e-11 -0.0202433 -0.0202433 -0.0202433 -0.0202433 0.0236374 0.0236374 0.0236374 0.0236374 0.0250167 0.0250167 0.0250167 0.0250167 0.0203978 0.0203978 0.0203978 0.0203978 0.00745951 0.00745951 0.00745951 0.00745951 -0.00607282 -0.00607282 -0.00607282 -0.00607282 0.0263889 0.0263889 0.0263889 0.0263889 -0.0529094 -0.0529094 -0.0529094 -0.0529094 -0.00582121 -0.00582121 -0.00582121 -0.00582121 0.00923724 0.00923724 0.00923724 0.00923724 -0.0105191 -0.0105191 -0.0105191 -0.0105191 -0.0285452 -0.0285452 -0.0285452 -0.0285452 0.0074903 0.0074903 0.0074903 0.0074903 -0.00753109 -0.00753109 -0.00753109 -0.00753109 0.0114472 0.0114472 0.0114472 0.0114472 -0.0626173 -0.0626173 -0.0626173 -0.0626173 -0.0222221 -0.0222221 -0.0222221 -0.0222221 -0.00159647 -0.00159647 -0.00159647 -0.00159647 0.0274374 0.0274374 0.0274374 0.0274374 0.0218831 0.0218831 0.0218831 0.0218831 0.0238388 0.0238388 0.0238388 0.0238388 0.028231 0.028231 0.028231 0.028231 0.00117391 0.00117391 0.00117391 0.00117391 -0.0366377 -0.0366377 -0.0366377 -0.0366377 -0.000139974 -0.000139974 -0.000139974 -0.000139974 -0.0207474 -0.0207474 -0.0207474 -0.0207474 -0.00380349 -0.00380349 -0.00380349 -0.00380349 0.0163418 0.0163418 0.0163418 0.0163418 -0.051023 -0.051023 -0.051023 -0.051023 -0.0194551 -0.0194551 -0.0194551 -0.0194551 -0.00803404 -0.00803404 -0.00803404 -0.00803404 2.76523e-11 2.76523e-11 2.76523e-11 2.76523e-11 -0.0858527 -0.0858527 -0.0858527 -0.0858527 -0.0847451 -0.0847451 -0.0847451 -0.0847451 -1.37247e-10 -1.37247e-10 -1.37247e-10 -1.37247e-10 0.00253139 0.00253139 0.00253139 0.00253139 0.0350819 0.0350819 0.0350819 0.0350819 0.0201484 0.0201484 0.0201484 0.0201484 -0.000154457 -0.000154457 -0.000154457 -0.000154457 -0.0815147 -0.0815147 -0.0815147 -0.0815147 -5.63377e-05 -5.63377e-05 -5.63377e-05 -5.63377e-05 0.0297662 0.0297662 0.0297662 0.0297662 -2.69228e-11 -2.69228e-11 -2.69228e-11 -2.69228e-11 -0.0461915 -0.0461915 -0.0461915 -0.0461915 0.0260213 0.0260213 0.0260213 0.0260213 -0.00143122 -0.00143122 -0.00143122 -0.00143122 -0.0008681 -0.0008681 -0.0008681 -0.0008681 0.0126627 0.0126627 0.0126627 0.0126627 0.00728162 0.00728162 0.00728162 0.00728162 -0.00324263 -0.00324263 -0.00324263 -0.00324263 0.00596646 0.00596646 0.00596646 0.00596646 0.00883464 0.00883464 0.00883464 0.00883464 -3.0838e-12 -3.0838e-12 -3.0838e-12 -3.0838e-12 0.0020851 0.0020851 0.0020851 0.0020851 -0.0117051 -0.0117051 -0.0117051 -0.0117051 -0.0483458 -0.0483458 -0.0483458 -0.0483458 -0.00789819 -0.00789819 -0.00789819 -0.00789819 -0.00212083 -0.00212083 -0.00212083 -0.00212083 0.00234551 0.00234551 0.00234551 0.00234551 -2.3434e-10 -2.3434e-10 -2.3434e-10 -2.3434e-10 0.00977782 0.00977782 0.00977782 0.00977782 2.31133e-12 2.31133e-12 2.31133e-12 2.31133e-12 1.56997e-11 1.56997e-11 1.56997e-11 1.56997e-11 -0.056053 -0.056053 -0.056053 -0.056053 0.00342509 0.00342509 0.00342509 0.00342509 0.00425531 0.00425531 0.00425531 0.00425531 0.0148239 0.0148239 0.0148239 0.0148239 0.00456036 0.00456036 0.00456036 0.00456036 -1.02877e-10 -1.02877e-10 -1.02877e-10 -1.02877e-10 0.00915494 0.00915494 0.00915494 0.00915494 -0.0814717 -0.0814717 -0.0814717 -0.0814717 -6.02002e-11 -6.02002e-11 -6.02002e-11 -6.02002e-11 0.0122711 0.0122711 0.0122711 0.0122711 -0.074482 -0.074482 -0.074482 -0.074482 -0.00409249 -0.00409249 -0.00409249 -0.00409249 -0.0176396 -0.0176396 -0.0176396 -0.0176396 1.87679e-11 1.87679e-11 1.87679e-11 1.87679e-11 -0.0401273 -0.0401273 -0.0401273 -0.0401273 0.0107144 0.0107144 0.0107144 0.0107144 0.0120881 0.0120881 0.0120881 0.0120881 -0.0170227 -0.0170227 -0.0170227 -0.0170227 0.00503195 0.00503195 0.00503195 0.00503195 -0.0171563 -0.0171563 -0.0171563 -0.0171563 0.0145231 0.0145231 0.0145231 0.0145231 0.0400567 0.0400567 0.0400567 0.0400567 0.00622223 0.00622223 0.00622223 0.00622223 0.000351192 0.000351192 0.000351192 0.000351192 0.00599049 0.00599049 0.00599049 0.00599049 -0.0296487 -0.0296487 -0.0296487 -0.0296487 -0.0168614 -0.0168614 -0.0168614 -0.0168614 0.0305389 0.0305389 0.0305389 0.0305389 -2.18092e-11 -2.18092e-11 -2.18092e-11 -2.18092e-11 0.0062732 0.0062732 0.0062732 0.0062732 0.0254428 0.0254428 0.0254428 0.0254428 -0.0197759 -0.0197759 -0.0197759 -0.0197759 -0.0536832 -0.0536832 -0.0536832 -0.0536832 -0.0720905 -0.0720905 -0.0720905 -0.0720905 -0.0535836 -0.0535836 -0.0535836 -0.0535836 -0.0800883 -0.0800883 -0.0800883 -0.0800883 -0.00137615 -0.00137615 -0.00137615 -0.00137615 -3.30577e-11 -3.30577e-11 -3.30577e-11 -3.30577e-11 0.00570383 0.00570383 0.00570383 0.00570383 5.30348e-11 5.30348e-11 5.30348e-11 5.30348e-11 -0.060392 -0.060392 -0.060392 -0.060392 -0.0322132 -0.0322132 -0.0322132 -0.0322132 5.8421e-12 5.8421e-12 5.8421e-12 5.8421e-12 -0.0102538 -0.0102538 -0.0102538 -0.0102538 -0.00181378 -0.00181378 -0.00181378 -0.00181378 -0.0248217 -0.0248217 -0.0248217 -0.0248217 -0.0196909 -0.0196909 -0.0196909 -0.0196909 0.0328473 0.0328473 0.0328473 0.0328473 0.0078203 0.0078203 0.0078203 0.0078203 0.00129959 0.00129959 0.00129959 0.00129959 -6.35534e-11 -6.35534e-11 -6.35534e-11 -6.35534e-11 -0.0110049 -0.0110049 -0.0110049 -0.0110049 -0.0248629 -0.0248629 -0.0248629 -0.0248629 0.00795794 0.00795794 0.00795794 0.00795794 -0.0226984 -0.0226984 -0.0226984 -0.0226984 0.0188203 0.0188203 0.0188203 0.0188203 -0.035664 -0.035664 -0.035664 -0.035664 -1.13087e-11 -1.13087e-11 -1.13087e-11 -1.13087e-11 -2.93952e-10 -2.93952e-10 -2.93952e-10 -2.93952e-10 -8.34516e-12 -8.34516e-12 -8.34516e-12 -8.34516e-12 -0.00731823 -0.00731823 -0.00731823 -0.00731823 0.00561227 0.00561227 0.00561227 0.00561227 0.00716543 0.00716543 0.00716543 0.00716543 -3.01128e-10 -3.01128e-10 -3.01128e-10 -3.01128e-10 1.51797e-11 1.51797e-11 1.51797e-11 1.51797e-11 0.0299666 0.0299666 0.0299666 0.0299666 0.0126117 0.0126117 0.0126117 0.0126117 -0.00117952 -0.00117952 -0.00117952 -0.00117952 0.0193599 0.0193599 0.0193599 0.0193599 0.00442739 0.00442739 0.00442739 0.00442739 0.00855605 0.00855605 0.00855605 0.00855605 -0.0680369 -0.0680369 -0.0680369 -0.0680369 -1.75586e-11 -1.75586e-11 -1.75586e-11 -1.75586e-11 -0.0203055 -0.0203055 -0.0203055 -0.0203055 0.0318559 0.0318559 0.0318559 0.0318559 -0.0140937 -0.0140937 -0.0140937 -0.0140937 4.55865e-11 4.55865e-11 4.55865e-11 4.55865e-11 2.02945e-12 2.02945e-12 2.02945e-12 2.02945e-12 -0.0382668 -0.0382668 -0.0382668 -0.0382668 0.0323758 0.0323758 0.0323758 0.0323758 -0.0132329 -0.0132329 -0.0132329 -0.0132329 -0.0788702 -0.0788702 -0.0788702 -0.0788702 -0.0637676 -0.0637676 -0.0637676 -0.0637676 -0.0389056 -0.0389056 -0.0389056 -0.0389056 -0.00344432 -0.00344432 -0.00344432 -0.00344432 -0.0353107 -0.0353107 -0.0353107 -0.0353107 -0.00471543 -0.00471543 -0.00471543 -0.00471543 -0.0268772 -0.0268772 -0.0268772 -0.0268772 -0.00369551 -0.00369551 -0.00369551 -0.00369551 -0.0243304 -0.0243304 -0.0243304 -0.0243304 0.00869829 0.00869829 0.00869829 0.00869829 0.00792019 0.00792019 0.00792019 0.00792019 0.0357184 0.0357184 0.0357184 0.0357184 -3.42493e-10 -3.42493e-10 -3.42493e-10 -3.42493e-10 0.0326069 0.0326069 0.0326069 0.0326069 0.00241201 0.00241201 0.00241201 0.00241201 -0.00623771 -0.00623771 -0.00623771 -0.00623771 0.0221743 0.0221743 0.0221743 0.0221743 -0.0552919 -0.0552919 -0.0552919 -0.0552919 -0.00581938 -0.00581938 -0.00581938 -0.00581938 0.00182673 0.00182673 0.00182673 0.00182673 2.09895e-11 2.09895e-11 2.09895e-11 2.09895e-11 -0.0219561 -0.0219561 -0.0219561 -0.0219561 -1.28878e-11 -1.28878e-11 -1.28878e-11 -1.28878e-11 -2.12669e-11 -2.12669e-11 -2.12669e-11 -2.12669e-11 0.0144988 0.0144988 0.0144988 0.0144988 -2.86421e-11 -2.86421e-11 -2.86421e-11 -2.86421e-11 6.60962e-11 6.60962e-11 6.60962e-11 6.60962e-11 -0.0131901 -0.0131901 -0.0131901 -0.0131901 0.0178496 0.0178496 0.0178496 0.0178496 -0.00851966 -0.00851966 -0.00851966 -0.00851966 0.0172388 0.0172388 0.0172388 0.0172388 0.000493557 0.000493557 0.000493557 0.000493557 -0.0156418 -0.0156418 -0.0156418 -0.0156418 0.026965 0.026965 0.026965 0.026965 -0.0381797 -0.0381797 -0.0381797 -0.0381797 0.0317419 0.0317419 0.0317419 0.0317419 0.0309578 0.0309578 0.0309578 0.0309578 -0.0196579 -0.0196579 -0.0196579 -0.0196579 0.00264526 0.00264526 0.00264526 0.00264526 0.0120713 0.0120713 0.0120713 0.0120713 0.00573947 0.00573947 0.00573947 0.00573947 1.34292e-11 1.34292e-11 1.34292e-11 1.34292e-11 -0.0537768 -0.0537768 -0.0537768 -0.0537768 0.0128656 0.0128656 0.0128656 0.0128656 -0.0471696 -0.0471696 -0.0471696 -0.0471696 -0.0311805 -0.0311805 -0.0311805 -0.0311805 -0.0075446 -0.0075446 -0.0075446 -0.0075446 2.47547e-11 2.47547e-11 2.47547e-11 2.47547e-11 -3.28825e-10 -3.28825e-10 -3.28825e-10 -3.28825e-10 -1.87662e-10 -1.87662e-10 -1.87662e-10 -1.87662e-10 -1.87187e-10 -1.87187e-10 -1.87187e-10 -1.87187e-10 -3.5277e-10 -3.5277e-10 -3.5277e-10 -3.5277e-10 -0.022577 -0.022577 -0.022577 -0.022577 0.022068 0.022068 0.022068 0.022068 1.495e-11 1.495e-11 1.495e-11 1.495e-11 0.00579106 0.00579106 0.00579106 0.00579106 3.06914e-11 3.06914e-11 3.06914e-11 3.06914e-11 -0.0130388 -0.0130388 -0.0130388 -0.0130388 -0.000662061 -0.000662061 -0.000662061 -0.000662061 0.0119903 0.0119903 0.0119903 0.0119903 -0.0443688 -0.0443688 -0.0443688 -0.0443688 -0.082144 -0.082144 -0.082144 -0.082144 -0.00226416 -0.00226416 -0.00226416 -0.00226416 0.00801521 0.00801521 0.00801521 0.00801521 -0.0179064 -0.0179064 -0.0179064 -0.0179064 2.57119e-11 2.57119e-11 2.57119e-11 2.57119e-11 -0.0762317 -0.0762317 -0.0762317 -0.0762317 0.0109478 0.0109478 0.0109478 0.0109478 7.30373e-11 7.30373e-11 7.30373e-11 7.30373e-11 0.00783115 0.00783115 0.00783115 0.00783115 -0.000295802 -0.000295802 -0.000295802 -0.000295802 -9.8781e-11 -9.8781e-11 -9.8781e-11 -9.8781e-11 0.0311464 0.0311464 0.0311464 0.0311464 2.04129e-11 2.04129e-11 2.04129e-11 2.04129e-11 6.52959e-12 6.52959e-12 6.52959e-12 6.52959e-12 -7.91036e-11 -7.91036e-11 -7.91036e-11 -7.91036e-11 -0.0652322 -0.0652322 -0.0652322 -0.0652322 0.00698114 0.00698114 0.00698114 0.00698114 0.0443559 0.0443559 0.0443559 0.0443559 -0.00523912 -0.00523912 -0.00523912 -0.00523912 -5.8695e-11 -5.8695e-11 -5.8695e-11 -5.8695e-11 0.0152076 0.0152076 0.0152076 0.0152076 0.0056267 0.0056267 0.0056267 0.0056267 -0.0522504 -0.0522504 -0.0522504 -0.0522504 -1.8314e-11 -1.8314e-11 -1.8314e-11 -1.8314e-11 8.9084e-13 8.9084e-13 8.9084e-13 8.9084e-13 -2.2528e-10 -2.2528e-10 -2.2528e-10 -2.2528e-10 -0.0132632 -0.0132632 -0.0132632 -0.0132632 -2.79609e-11 -2.79609e-11 -2.79609e-11 -2.79609e-11 0.0181305 0.0181305 0.0181305 0.0181305 -0.0203454 -0.0203454 -0.0203454 -0.0203454 0.013454 0.013454 0.013454 0.013454 0.0424299 0.0424299 0.0424299 0.0424299 -0.019186 -0.019186 -0.019186 -0.019186 -0.0326795 -0.0326795 -0.0326795 -0.0326795 3.6992e-11 3.6992e-11 3.6992e-11 3.6992e-11 -0.0101351 -0.0101351 -0.0101351 -0.0101351 -0.0265568 -0.0265568 -0.0265568 -0.0265568 -1.27835e-10 -1.27835e-10 -1.27835e-10 -1.27835e-10 0.0178488 0.0178488 0.0178488 0.0178488 -1.82389e-10 -1.82389e-10 -1.82389e-10 -1.82389e-10 1.66609e-11 1.66609e-11 1.66609e-11 1.66609e-11 0.0099192 0.0099192 0.0099192 0.0099192 3.24421e-12 3.24421e-12 3.24421e-12 3.24421e-12 0.0194652 0.0194652 0.0194652 0.0194652 0.0322721 0.0322721 0.0322721 0.0322721 -5.53442e-12 -5.53442e-12 -5.53442e-12 -5.53442e-12 -2.43385e-10 -2.43385e-10 -2.43385e-10 -2.43385e-10 -0.0543986 -0.0543986 -0.0543986 -0.0543986 -0.00196122 -0.00196122 -0.00196122 -0.00196122 -0.00986454 -0.00986454 -0.00986454 -0.00986454 -1.47476e-11 -1.47476e-11 -1.47476e-11 -1.47476e-11 0.00114594 0.00114594 0.00114594 0.00114594 -0.059271 -0.059271 -0.059271 -0.059271 -3.62965e-11 -3.62965e-11 -3.62965e-11 -3.62965e-11 0.0132539 0.0132539 0.0132539 0.0132539 -0.0775984 -0.0775984 -0.0775984 -0.0775984 -0.0180338 -0.0180338 -0.0180338 -0.0180338 -0.000767735 -0.000767735 -0.000767735 -0.000767735 -0.00143771 -0.00143771 -0.00143771 -0.00143771 0.0335823 0.0335823 0.0335823 0.0335823 0.00250898 0.00250898 0.00250898 0.00250898 -0.0249111 -0.0249111 -0.0249111 -0.0249111 1.51134e-11 1.51134e-11 1.51134e-11 1.51134e-11 0.0390233 0.0390233 0.0390233 0.0390233 1.52555e-11 1.52555e-11 1.52555e-11 1.52555e-11 0.0171409 0.0171409 0.0171409 0.0171409 9.25285e-12 9.25285e-12 9.25285e-12 9.25285e-12 2.27629e-11 2.27629e-11 2.27629e-11 2.27629e-11 -0.0141171 -0.0141171 -0.0141171 -0.0141171 0.0266161 0.0266161 0.0266161 0.0266161 8.70561e-11 8.70561e-11 8.70561e-11 8.70561e-11 1.33261e-11 1.33261e-11 1.33261e-11 1.33261e-11 0.0304543 0.0304543 0.0304543 0.0304543 -0.000292817 -0.000292817 -0.000292817 -0.000292817 0.00451561 0.00451561 0.00451561 0.00451561 -0.0202912 -0.0202912 -0.0202912 -0.0202912 -0.00556448 -0.00556448 -0.00556448 -0.00556448 0.00419161 0.00419161 0.00419161 0.00419161 -0.0144313 -0.0144313 -0.0144313 -0.0144313 -0.00166517 -0.00166517 -0.00166517 -0.00166517 -1.22205e-10 -1.22205e-10 -1.22205e-10 -1.22205e-10 -0.0385186 -0.0385186 -0.0385186 -0.0385186 -4.23357e-11 -4.23357e-11 -4.23357e-11 -4.23357e-11 0.00121308 0.00121308 0.00121308 0.00121308 0.00619376 0.00619376 0.00619376 0.00619376 -0.0699825 -0.0699825 -0.0699825 -0.0699825 0.0299957 0.0299957 0.0299957 0.0299957 -0.00614565 -0.00614565 -0.00614565 -0.00614565 -0.0526599 -0.0526599 -0.0526599 -0.0526599 0.00118475 0.00118475 0.00118475 0.00118475 -0.0367357 -0.0367357 -0.0367357 -0.0367357 -0.0215122 -0.0215122 -0.0215122 -0.0215122 -1.36765e-10 -1.36765e-10 -1.36765e-10 -1.36765e-10 -0.000512246 -0.000512246 -0.000512246 -0.000512246 0.0147213 0.0147213 0.0147213 0.0147213 0.00715073 0.00715073 0.00715073 0.00715073 -7.89984e-11 -7.89984e-11 -7.89984e-11 -7.89984e-11 0.014248 0.014248 0.014248 0.014248 0.0201595 0.0201595 0.0201595 0.0201595 -0.0176701 -0.0176701 -0.0176701 -0.0176701 -0.0216801 -0.0216801 -0.0216801 -0.0216801 0.0195907 0.0195907 0.0195907 0.0195907 -0.00569739 -0.00569739 -0.00569739 -0.00569739 -1.39946e-11 -1.39946e-11 -1.39946e-11 -1.39946e-11 -0.0112519 -0.0112519 -0.0112519 -0.0112519 -1.09184e-11 -1.09184e-11 -1.09184e-11 -1.09184e-11 -0.0211638 -0.0211638 -0.0211638 -0.0211638 -0.0248868 -0.0248868 -0.0248868 -0.0248868 0.0187584 0.0187584 0.0187584 0.0187584 7.68288e-11 7.68288e-11 7.68288e-11 7.68288e-11 -0.0251164 -0.0251164 -0.0251164 -0.0251164 5.99971e-13 5.99971e-13 5.99971e-13 5.99971e-13 -2.2853e-10 -2.2853e-10 -2.2853e-10 -2.2853e-10 -0.0100467 -0.0100467 -0.0100467 -0.0100467 -0.0295671 -0.0295671 -0.0295671 -0.0295671 0.0246062 0.0246062 0.0246062 0.0246062 -1.01421e-10 -1.01421e-10 -1.01421e-10 -1.01421e-10 0.0187494 0.0187494 0.0187494 0.0187494 0.0311253 0.0311253 0.0311253 0.0311253 0.0155521 0.0155521 0.0155521 0.0155521 -5.31251e-11 -5.31251e-11 -5.31251e-11 -5.31251e-11 0.00573752 0.00573752 0.00573752 0.00573752 0.0201933 0.0201933 0.0201933 0.0201933 0.0146171 0.0146171 0.0146171 0.0146171 0.00347044 0.00347044 0.00347044 0.00347044 0.0324782 0.0324782 0.0324782 0.0324782 -0.00200267 -0.00200267 -0.00200267 -0.00200267 -3.78445e-11 -3.78445e-11 -3.78445e-11 -3.78445e-11 -0.00552959 -0.00552959 -0.00552959 -0.00552959 -0.0323556 -0.0323556 -0.0323556 -0.0323556 0.0373058 0.0373058 0.0373058 0.0373058 1.78717e-10 1.78717e-10 1.78717e-10 1.78717e-10 -2.31387e-11 -2.31387e-11 -2.31387e-11 -2.31387e-11 -2.60014e-12 -2.60014e-12 -2.60014e-12 -2.60014e-12 -0.0122897 -0.0122897 -0.0122897 -0.0122897 0.0150007 0.0150007 0.0150007 0.0150007 -6.32825e-11 -6.32825e-11 -6.32825e-11 -6.32825e-11 -0.00124131 -0.00124131 -0.00124131 -0.00124131 0.0339177 0.0339177 0.0339177 0.0339177 -3.27532e-10 -3.27532e-10 -3.27532e-10 -3.27532e-10 -1.26558e-10 -1.26558e-10 -1.26558e-10 -1.26558e-10 0.0496761 0.0496761 0.0496761 0.0496761 3.77847e-11 3.77847e-11 3.77847e-11 3.77847e-11 -1.3393e-10 -1.3393e-10 -1.3393e-10 -1.3393e-10 -1.6836e-10 -1.6836e-10 -1.6836e-10 -1.6836e-10 0.015202 0.015202 0.015202 0.015202 -0.00765348 -0.00765348 -0.00765348 -0.00765348 0.0338672 0.0338672 0.0338672 0.0338672 1.858e-10 1.858e-10 1.858e-10 1.858e-10 0.0054671 0.0054671 0.0054671 0.0054671 0.00221883 0.00221883 0.00221883 0.00221883 0.0350463 0.0350463 0.0350463 0.0350463 -0.0344089 -0.0344089 -0.0344089 -0.0344089 -0.00194181 -0.00194181 -0.00194181 -0.00194181 0.0581955 0.0581955 0.0581955 0.0581955 0.00258807 0.00258807 0.00258807 0.00258807 0.0369766 0.0369766 0.0369766 0.0369766 -6.09689e-11 -6.09689e-11 -6.09689e-11 -6.09689e-11 0.00155558 0.00155558 0.00155558 0.00155558 -0.0203684 -0.0203684 -0.0203684 -0.0203684 -0.0703719 -0.0703719 -0.0703719 -0.0703719 -3.46291e-11 -3.46291e-11 -3.46291e-11 -3.46291e-11 5.86352e-11 5.86352e-11 5.86352e-11 5.86352e-11 0.014981 0.014981 0.014981 0.014981 -0.0235959 -0.0235959 -0.0235959 -0.0235959 0.0217679 0.0217679 0.0217679 0.0217679 0.0329522 0.0329522 0.0329522 0.0329522 -3.26165e-11 -3.26165e-11 -3.26165e-11 -3.26165e-11 -0.0052027 -0.0052027 -0.0052027 -0.0052027 0.0021708 0.0021708 0.0021708 0.0021708 -1.50062e-12 -1.50062e-12 -1.50062e-12 -1.50062e-12 -0.009382 -0.009382 -0.009382 -0.009382 -3.94213e-11 -3.94213e-11 -3.94213e-11 -3.94213e-11 -7.16664e-12 -7.16664e-12 -7.16664e-12 -7.16664e-12 0.0165971 0.0165971 0.0165971 0.0165971 -0.00669179 -0.00669179 -0.00669179 -0.00669179 0.00953417 0.00953417 0.00953417 0.00953417 -6.35459e-11 -6.35459e-11 -6.35459e-11 -6.35459e-11 -0.00749881 -0.00749881 -0.00749881 -0.00749881 0.0136448 0.0136448 0.0136448 0.0136448 -0.00744096 -0.00744096 -0.00744096 -0.00744096 3.25905e-11 3.25905e-11 3.25905e-11 3.25905e-11 0.00872725 0.00872725 0.00872725 0.00872725 -0.00271296 -0.00271296 -0.00271296 -0.00271296 -0.00293846 -0.00293846 -0.00293846 -0.00293846 -0.00420318 -0.00420318 -0.00420318 -0.00420318 -1.30997e-10 -1.30997e-10 -1.30997e-10 -1.30997e-10 0.0236846 0.0236846 0.0236846 0.0236846 -0.013608 -0.013608 -0.013608 -0.013608 0.0350291 0.0350291 0.0350291 0.0350291 0.0259375 0.0259375 0.0259375 0.0259375 0.0209918 0.0209918 0.0209918 0.0209918 -6.7326e-11 -6.7326e-11 -6.7326e-11 -6.7326e-11 -0.0154923 -0.0154923 -0.0154923 -0.0154923 0.0208085 0.0208085 0.0208085 0.0208085 1.48626e-11 1.48626e-11 1.48626e-11 1.48626e-11 0.00180432 0.00180432 0.00180432 0.00180432 0.0368185 0.0368185 0.0368185 0.0368185 0.0122462 0.0122462 0.0122462 0.0122462 0.00332248 0.00332248 0.00332248 0.00332248 -0.018436 -0.018436 -0.018436 -0.018436 2.24167e-11 2.24167e-11 2.24167e-11 2.24167e-11 0.00684917 0.00684917 0.00684917 0.00684917 1.57158e-10 1.57158e-10 1.57158e-10 1.57158e-10 2.50017e-10 2.50017e-10 2.50017e-10 2.50017e-10 0.0296111 0.0296111 0.0296111 0.0296111 4.09474e-11 4.09474e-11 4.09474e-11 4.09474e-11 -1.38448e-10 -1.38448e-10 -1.38448e-10 -1.38448e-10 0.0210755 0.0210755 0.0210755 0.0210755 -1.37695e-10 -1.37695e-10 -1.37695e-10 -1.37695e-10 0.0195896 0.0195896 0.0195896 0.0195896 0.00240813 0.00240813 0.00240813 0.00240813 0.0110101 0.0110101 0.0110101 0.0110101 -0.00248272 -0.00248272 -0.00248272 -0.00248272 -0.00825789 -0.00825789 -0.00825789 -0.00825789 0.000398145 0.000398145 0.000398145 0.000398145 0.00783578 0.00783578 0.00783578 0.00783578 -2.48874e-10 -2.48874e-10 -2.48874e-10 -2.48874e-10 0.0119933 0.0119933 0.0119933 0.0119933 -0.0123998 -0.0123998 -0.0123998 -0.0123998 0.0305595 0.0305595 0.0305595 0.0305595 1.93664e-11 1.93664e-11 1.93664e-11 1.93664e-11 -0.0174449 -0.0174449 -0.0174449 -0.0174449 0.00223859 0.00223859 0.00223859 0.00223859 -8.68985e-11 -8.68985e-11 -8.68985e-11 -8.68985e-11 8.43241e-11 8.43241e-11 8.43241e-11 8.43241e-11 -2.09927e-10 -2.09927e-10 -2.09927e-10 -2.09927e-10 -0.0100048 -0.0100048 -0.0100048 -0.0100048 -0.00256611 -0.00256611 -0.00256611 -0.00256611 0.0374078 0.0374078 0.0374078 0.0374078 -1.3729e-10 -1.3729e-10 -1.3729e-10 -1.3729e-10 7.7262e-11 7.7262e-11 7.7262e-11 7.7262e-11 0.0131791 0.0131791 0.0131791 0.0131791 3.16431e-11 3.16431e-11 3.16431e-11 3.16431e-11 0.00322856 0.00322856 0.00322856 0.00322856 -0.00674885 -0.00674885 -0.00674885 -0.00674885 -0.00316248 -0.00316248 -0.00316248 -0.00316248 0.0169736 0.0169736 0.0169736 0.0169736 -0.0066308 -0.0066308 -0.0066308 -0.0066308 0.00537988 0.00537988 0.00537988 0.00537988 -2.28884e-11 -2.28884e-11 -2.28884e-11 -2.28884e-11 0.045762 0.045762 0.045762 0.045762 -2.78218e-11 -2.78218e-11 -2.78218e-11 -2.78218e-11 0.0189837 0.0189837 0.0189837 0.0189837 0.0307245 0.0307245 0.0307245 0.0307245 0.0110738 0.0110738 0.0110738 0.0110738 -0.00228912 -0.00228912 -0.00228912 -0.00228912 -0.0261148 -0.0261148 -0.0261148 -0.0261148 2.20596e-10 2.20596e-10 2.20596e-10 2.20596e-10 -2.20403e-11 -2.20403e-11 -2.20403e-11 -2.20403e-11 1.32383e-10 1.32383e-10 1.32383e-10 1.32383e-10 0.0300987 0.0300987 0.0300987 0.0300987 8.40391e-11 8.40391e-11 8.40391e-11 8.40391e-11 0.0296687 0.0296687 0.0296687 0.0296687 0.00151504 0.00151504 0.00151504 0.00151504 1.277e-10 1.277e-10 1.277e-10 1.277e-10 1.27835e-11 1.27835e-11 1.27835e-11 1.27835e-11 -0.000602806 -0.000602806 -0.000602806 -0.000602806 0.0140415 0.0140415 0.0140415 0.0140415 0.0333309 0.0333309 0.0333309 0.0333309 -0.00091088 -0.00091088 -0.00091088 -0.00091088 -0.00378835 -0.00378835 -0.00378835 -0.00378835 0.0311787 0.0311787 0.0311787 0.0311787 -0.00144794 -0.00144794 -0.00144794 -0.00144794 -1.1175e-10 -1.1175e-10 -1.1175e-10 -1.1175e-10 -5.35373e-11 -5.35373e-11 -5.35373e-11 -5.35373e-11 0.00510909 0.00510909 0.00510909 0.00510909 -4.34723e-11 -4.34723e-11 -4.34723e-11 -4.34723e-11 -9.5381e-12 -9.5381e-12 -9.5381e-12 -9.5381e-12 0.0239441 0.0239441 0.0239441 0.0239441 -0.00418965 -0.00418965 -0.00418965 -0.00418965 -1.33561e-10 -1.33561e-10 -1.33561e-10 -1.33561e-10 -1.60652e-05 -1.60652e-05 -1.60652e-05 -1.60652e-05 2.13998e-10 2.13998e-10 2.13998e-10 2.13998e-10 0.0262577 0.0262577 0.0262577 0.0262577 -0.00487888 -0.00487888 -0.00487888 -0.00487888 0.0319591 0.0319591 0.0319591 0.0319591 0.0316221 0.0316221 0.0316221 0.0316221 1.4603e-11 1.4603e-11 1.4603e-11 1.4603e-11 0.0296863 0.0296863 0.0296863 0.0296863 0.00334758 0.00334758 0.00334758 0.00334758 0.0170048 0.0170048 0.0170048 0.0170048 0.0164898 0.0164898 0.0164898 0.0164898 4.75114e-11 4.75114e-11 4.75114e-11 4.75114e-11 0.0139229 0.0139229 0.0139229 0.0139229 0.00631299 0.00631299 0.00631299 0.00631299 -2.38396e-11 -2.38396e-11 -2.38396e-11 -2.38396e-11 0.0531679 0.0531679 0.0531679 0.0531679 -4.8459e-11 -4.8459e-11 -4.8459e-11 -4.8459e-11 -0.00108753 -0.00108753 -0.00108753 -0.00108753 0.000516053 0.000516053 0.000516053 0.000516053 0.010979 0.010979 0.010979 0.010979 4.92401e-12 4.92401e-12 4.92401e-12 4.92401e-12 1.91649e-10 1.91649e-10 1.91649e-10 1.91649e-10 2.73676e-13 2.73676e-13 2.73676e-13 2.73676e-13 0.0254871 0.0254871 0.0254871 0.0254871 3.44328e-10 3.44328e-10 3.44328e-10 3.44328e-10 0.0324923 0.0324923 0.0324923 0.0324923 0.0095272 0.0095272 0.0095272 0.0095272 0.00828649 0.00828649 0.00828649 0.00828649 0.0337416 0.0337416 0.0337416 0.0337416 0.012563 0.012563 0.012563 0.012563 0.0401917 0.0401917 0.0401917 0.0401917 -7.61664e-11 -7.61664e-11 -7.61664e-11 -7.61664e-11 0.0337332 0.0337332 0.0337332 0.0337332 0.0197119 0.0197119 0.0197119 0.0197119 0.02782 0.02782 0.02782 0.02782 0.0211514 0.0211514 0.0211514 0.0211514 0.0472968 0.0472968 0.0472968 0.0472968 4.00024e-10 4.00024e-10 4.00024e-10 4.00024e-10 2.76624e-11 2.76624e-11 2.76624e-11 2.76624e-11 1.86248e-10 1.86248e-10 1.86248e-10 1.86248e-10 -1.37336e-10 -1.37336e-10 -1.37336e-10 -1.37336e-10 0.0329049 0.0329049 0.0329049 0.0329049 0.0109932 0.0109932 0.0109932 0.0109932 0.00233405 0.00233405 0.00233405 0.00233405 0.0098492 0.0098492 0.0098492 0.0098492 7.79291e-11 7.79291e-11 7.79291e-11 7.79291e-11 -1.07907e-10 -1.07907e-10 -1.07907e-10 -1.07907e-10 0.00308789 0.00308789 0.00308789 0.00308789 0.00381947 0.00381947 0.00381947 0.00381947 -0.0116285 -0.0116285 -0.0116285 -0.0116285 0.00185619 0.00185619 0.00185619 0.00185619 3.15031e-10 3.15031e-10 3.15031e-10 3.15031e-10 0.0157917 0.0157917 0.0157917 0.0157917 0.0207174 0.0207174 0.0207174 0.0207174 0.0504066 0.0504066 0.0504066 0.0504066 0.0331524 0.0331524 0.0331524 0.0331524 7.43415e-11 7.43415e-11 7.43415e-11 7.43415e-11 0.0165718 0.0165718 0.0165718 0.0165718 -4.13626e-11 -4.13626e-11 -4.13626e-11 -4.13626e-11 2.7289e-10 2.7289e-10 2.7289e-10 2.7289e-10 0.0336729 0.0336729 0.0336729 0.0336729 0.0445636 0.0445636 0.0445636 0.0445636 0.0270521 0.0270521 0.0270521 0.0270521 0.00101292 0.00101292 0.00101292 0.00101292 4.24447e-12 4.24447e-12 4.24447e-12 4.24447e-12 0.0218839 0.0218839 0.0218839 0.0218839 0.0124086 0.0124086 0.0124086 0.0124086 0.0298445 0.0298445 0.0298445 0.0298445 0.028403 0.028403 0.028403 0.028403 0.00257569 0.00257569 0.00257569 0.00257569 0.0119617 0.0119617 0.0119617 0.0119617 0.010717 0.010717 0.010717 0.010717 0.0292131 0.0292131 0.0292131 0.0292131 0.00614658 0.00614658 0.00614658 0.00614658 0.029908 0.029908 0.029908 0.029908 0.0303612 0.0303612 0.0303612 0.0303612 0.00922047 0.00922047 0.00922047 0.00922047 8.10135e-05 8.10135e-05 8.10135e-05 8.10135e-05 0.000558511 0.000558511 0.000558511 0.000558511 0.0127053 0.0127053 0.0127053 0.0127053 0.034148 0.034148 0.034148 0.034148 0.0123918 0.0123918 0.0123918 0.0123918 0.0320573 0.0320573 0.0320573 0.0320573 0.0259922 0.0259922 0.0259922 0.0259922 0.026175 0.026175 0.026175 0.026175 1.26373e-11 1.26373e-11 1.26373e-11 1.26373e-11 1.11608e-11 1.11608e-11 1.11608e-11 1.11608e-11 1.55498e-11 1.55498e-11 1.55498e-11 1.55498e-11 0.0123471 0.0123471 0.0123471 0.0123471 1.7738e-11 1.7738e-11 1.7738e-11 1.7738e-11 2.55456e-12 2.55456e-12 2.55456e-12 2.55456e-12 3.55909e-12 3.55909e-12 3.55909e-12 3.55909e-12 2.03954e-11 2.03954e-11 2.03954e-11 2.03954e-11 -0.000762074 -0.000762074 -0.000762074 -0.000762074 -1.58806e-11 -1.58806e-11 -1.58806e-11 -1.58806e-11 0.0804296 0.0804296 0.0804296 0.0804296 -1.40501e-11 -1.40501e-11 -1.40501e-11 -1.40501e-11 0.0546431 0.0546431 0.0546431 0.0546431 7.26181e-12 7.26181e-12 7.26181e-12 7.26181e-12 1.74952e-11 1.74952e-11 1.74952e-11 1.74952e-11 1.06494e-11 1.06494e-11 1.06494e-11 1.06494e-11 0.0239439 0.0239439 0.0239439 0.0239439 -1.27196e-11 -1.27196e-11 -1.27196e-11 -1.27196e-11 -0.000904521 -0.000904521 -0.000904521 -0.000904521 0.0127217 0.0127217 0.0127217 0.0127217 1.75476e-11 1.75476e-11 1.75476e-11 1.75476e-11 -0.000367517 -0.000367517 -0.000367517 -0.000367517 0.0291037 0.0291037 0.0291037 0.0291037 1.87818e-11 1.87818e-11 1.87818e-11 1.87818e-11 0.0320821 0.0320821 0.0320821 0.0320821 1.77352e-12 1.77352e-12 1.77352e-12 1.77352e-12 0.000844626 0.000844626 0.000844626 0.000844626 0.0142241 0.0142241 0.0142241 0.0142241 -1.20284e-11 -1.20284e-11 -1.20284e-11 -1.20284e-11 0.00851999 0.00851999 0.00851999 0.00851999 0.000731759 0.000731759 0.000731759 0.000731759 0.00284056 0.00284056 0.00284056 0.00284056 0.0108405 0.0108405 0.0108405 0.0108405 -0.000521502 -0.000521502 -0.000521502 -0.000521502 0.00621652 0.00621652 0.00621652 0.00621652 0.00884334 0.00884334 0.00884334 0.00884334 -5.78038e-11 -5.78038e-11 -5.78038e-11 -5.78038e-11 0.0292385 0.0292385 0.0292385 0.0292385 0.00599203 0.00599203 0.00599203 0.00599203 2.25169e-10 2.25169e-10 2.25169e-10 2.25169e-10 0.050336 0.050336 0.050336 0.050336 0.0173021 0.0173021 0.0173021 0.0173021 0.0149611 0.0149611 0.0149611 0.0149611 -4.66353e-12 -4.66353e-12 -4.66353e-12 -4.66353e-12 0.0295311 0.0295311 0.0295311 0.0295311 0.0305449 0.0305449 0.0305449 0.0305449 0.0103712 0.0103712 0.0103712 0.0103712 0.0138661 0.0138661 0.0138661 0.0138661 0.00833445 0.00833445 0.00833445 0.00833445 0.0155241 0.0155241 0.0155241 0.0155241 7.2112e-11 7.2112e-11 7.2112e-11 7.2112e-11 0.0136417 0.0136417 0.0136417 0.0136417 0.0502007 0.0502007 0.0502007 0.0502007 3.68908e-10 3.68908e-10 3.68908e-10 3.68908e-10 0.00156322 0.00156322 0.00156322 0.00156322 0.0273349 0.0273349 0.0273349 0.0273349 1.06896e-11 1.06896e-11 1.06896e-11 1.06896e-11 0.046229 0.046229 0.046229 0.046229 0.0156368 0.0156368 0.0156368 0.0156368 -3.48274e-11 -3.48274e-11 -3.48274e-11 -3.48274e-11 0.00756172 0.00756172 0.00756172 0.00756172 2.95362e-12 2.95362e-12 2.95362e-12 2.95362e-12 0.0369006 0.0369006 0.0369006 0.0369006 0.0325819 0.0325819 0.0325819 0.0325819 0.0256176 0.0256176 0.0256176 0.0256176 2.50757e-10 2.50757e-10 2.50757e-10 2.50757e-10 0.00910574 0.00910574 0.00910574 0.00910574 1.49273e-10 1.49273e-10 1.49273e-10 1.49273e-10 4.24856e-11 4.24856e-11 4.24856e-11 4.24856e-11 2.78914e-10 2.78914e-10 2.78914e-10 2.78914e-10 0.0269956 0.0269956 0.0269956 0.0269956 -0.00396228 -0.00396228 -0.00396228 -0.00396228 0.0200019 0.0200019 0.0200019 0.0200019 0.0113063 0.0113063 0.0113063 0.0113063 0.0193372 0.0193372 0.0193372 0.0193372 0.00381437 0.00381437 0.00381437 0.00381437 0.0241717 0.0241717 0.0241717 0.0241717 1.8805e-10 1.8805e-10 1.8805e-10 1.8805e-10 2.7865e-11 2.7865e-11 2.7865e-11 2.7865e-11 0.0518067 0.0518067 0.0518067 0.0518067 6.95429e-11 6.95429e-11 6.95429e-11 6.95429e-11 1.3121e-10 1.3121e-10 1.3121e-10 1.3121e-10 -0.00210624 -0.00210624 -0.00210624 -0.00210624 1.60397e-10 1.60397e-10 1.60397e-10 1.60397e-10 -0.00577754 -0.00577754 -0.00577754 -0.00577754 4.99146e-12 4.99146e-12 4.99146e-12 4.99146e-12 -0.000307108 -0.000307108 -0.000307108 -0.000307108 0.0345751 0.0345751 0.0345751 0.0345751 4.69577e-10 4.69577e-10 4.69577e-10 4.69577e-10 0.0501383 0.0501383 0.0501383 0.0501383 5.49274e-11 5.49274e-11 5.49274e-11 5.49274e-11 0.0495872 0.0495872 0.0495872 0.0495872 0.0377885 0.0377885 0.0377885 0.0377885 0.0443715 0.0443715 0.0443715 0.0443715 0.02992 0.02992 0.02992 0.02992 0.00927642 0.00927642 0.00927642 0.00927642 0.0370114 0.0370114 0.0370114 0.0370114 -0.00356641 -0.00356641 -0.00356641 -0.00356641 1.18185e-10 1.18185e-10 1.18185e-10 1.18185e-10 9.05593e-12 9.05593e-12 9.05593e-12 9.05593e-12 2.99622e-11 2.99622e-11 2.99622e-11 2.99622e-11 2.4473e-10 2.4473e-10 2.4473e-10 2.4473e-10 4.14122e-10 4.14122e-10 4.14122e-10 4.14122e-10 6.36442e-11 6.36442e-11 6.36442e-11 6.36442e-11 0.0147326 0.0147326 0.0147326 0.0147326 3.14499e-10 3.14499e-10 3.14499e-10 3.14499e-10 0.0181542 0.0181542 0.0181542 0.0181542 0.0449508 0.0449508 0.0449508 0.0449508 8.13672e-11 8.13672e-11 8.13672e-11 8.13672e-11 1.59455e-10 1.59455e-10 1.59455e-10 1.59455e-10 0.03571 0.03571 0.03571 0.03571 2.19437e-10 2.19437e-10 2.19437e-10 2.19437e-10 0.0261667 0.0261667 0.0261667 0.0261667 1.96915e-10 1.96915e-10 1.96915e-10 1.96915e-10 1.72595e-10 1.72595e-10 1.72595e-10 1.72595e-10 0.0301219 0.0301219 0.0301219 0.0301219 1.77015e-10 1.77015e-10 1.77015e-10 1.77015e-10 -0.000850431 -0.000850431 -0.000850431 -0.000850431 1.42708e-11 1.42708e-11 1.42708e-11 1.42708e-11 9.9497e-12 9.9497e-12 9.9497e-12 9.9497e-12 0.0033167 0.0033167 0.0033167 0.0033167 0.00205044 0.00205044 0.00205044 0.00205044 -3.46306e-11 -3.46306e-11 -3.46306e-11 -3.46306e-11 0.00333093 0.00333093 0.00333093 0.00333093 0.018473 0.018473 0.018473 0.018473 0.0299321 0.0299321 0.0299321 0.0299321 0.0249895 0.0249895 0.0249895 0.0249895 0.0196328 0.0196328 0.0196328 0.0196328 0.0299715 0.0299715 0.0299715 0.0299715 0.0184885 0.0184885 0.0184885 0.0184885 -8.56788e-11 -8.56788e-11 -8.56788e-11 -8.56788e-11 0.00138648 0.00138648 0.00138648 0.00138648 2.10914e-11 2.10914e-11 2.10914e-11 2.10914e-11 -1.91337e-11 -1.91337e-11 -1.91337e-11 -1.91337e-11 0.0135599 0.0135599 0.0135599 0.0135599 0.0166045 0.0166045 0.0166045 0.0166045 0.0324078 0.0324078 0.0324078 0.0324078 0.0323276 0.0323276 0.0323276 0.0323276 0.0312932 0.0312932 0.0312932 0.0312932 -0.030238 -0.030238 -0.030238 -0.030238 -0.0333326 -0.0333326 -0.0333326 -0.0333326 6.21398e-11 6.21398e-11 6.21398e-11 6.21398e-11 0.00616049 0.00616049 0.00616049 0.00616049 0.0114259 0.0114259 0.0114259 0.0114259 0.032976 0.032976 0.032976 0.032976 0.0264999 0.0264999 0.0264999 0.0264999 0.019592 0.019592 0.019592 0.019592 0.0138042 0.0138042 0.0138042 0.0138042 -0.00605976 -0.00605976 -0.00605976 -0.00605976 -0.002528 -0.002528 -0.002528 -0.002528 -0.0799197 -0.0799197 -0.0799197 -0.0799197 -0.0782671 -0.0782671 -0.0782671 -0.0782671 0.00477801 0.00477801 0.00477801 0.00477801 0.0107448 0.0107448 0.0107448 0.0107448 0.0174457 0.0174457 0.0174457 0.0174457 0.0196196 0.0196196 0.0196196 0.0196196 0.0120345 0.0120345 0.0120345 0.0120345 0.0152219 0.0152219 0.0152219 0.0152219 3.14624e-10 3.14624e-10 3.14624e-10 3.14624e-10 0.00243235 0.00243235 0.00243235 0.00243235 -0.00634168 -0.00634168 -0.00634168 -0.00634168 -0.0496567 -0.0496567 -0.0496567 -0.0496567 -1.32799e-10 -1.32799e-10 -1.32799e-10 -1.32799e-10 -0.072948 -0.072948 -0.072948 -0.072948 -0.0130212 -0.0130212 -0.0130212 -0.0130212 -0.0625932 -0.0625932 -0.0625932 -0.0625932 9.06975e-05 9.06975e-05 9.06975e-05 9.06975e-05 -2.48083e-10 -2.48083e-10 -2.48083e-10 -2.48083e-10 -0.0070733 -0.0070733 -0.0070733 -0.0070733 -0.00116236 -0.00116236 -0.00116236 -0.00116236 -0.0015933 -0.0015933 -0.0015933 -0.0015933 0.00473987 0.00473987 0.00473987 0.00473987 0.0347673 0.0347673 0.0347673 0.0347673 0.0268922 0.0268922 0.0268922 0.0268922 0.0124658 0.0124658 0.0124658 0.0124658 -3.29654e-12 -3.29654e-12 -3.29654e-12 -3.29654e-12 0.0140977 0.0140977 0.0140977 0.0140977 -0.00764098 -0.00764098 -0.00764098 -0.00764098 0.0333362 0.0333362 0.0333362 0.0333362 0.0256357 0.0256357 0.0256357 0.0256357 0.0324466 0.0324466 0.0324466 0.0324466 0.0268679 0.0268679 0.0268679 0.0268679 0.0297817 0.0297817 0.0297817 0.0297817 0.0466766 0.0466766 0.0466766 0.0466766 0.0299681 0.0299681 0.0299681 0.0299681 0.0306482 0.0306482 0.0306482 0.0306482 0.0303283 0.0303283 0.0303283 0.0303283 0.0223886 0.0223886 0.0223886 0.0223886 0.0282144 0.0282144 0.0282144 0.0282144 0.0329245 0.0329245 0.0329245 0.0329245 0.0486953 0.0486953 0.0486953 0.0486953 0.0280643 0.0280643 0.0280643 0.0280643 0.0336 0.0336 0.0336 0.0336 0.0327626 0.0327626 0.0327626 0.0327626 0.0266646 0.0266646 0.0266646 0.0266646 0.0257072 0.0257072 0.0257072 0.0257072 0.0220591 0.0220591 0.0220591 0.0220591 0.0236789 0.0236789 0.0236789 0.0236789 0.0621879 0.0621879 0.0621879 0.0621879 0.0744616 0.0744616 0.0744616 0.0744616 0.059898 0.059898 0.059898 0.059898 0.0206712 0.0206712 0.0206712 0.0206712 0.0167331 0.0167331 0.0167331 0.0167331 0.0123074 0.0123074 0.0123074 0.0123074 0.0261109 0.0261109 0.0261109 0.0261109 0.0157463 0.0157463 0.0157463 0.0157463 0.0300404 0.0300404 0.0300404 0.0300404 0.0603095 0.0603095 0.0603095 0.0603095 0.0135935 0.0135935 0.0135935 0.0135935 0.0300185 0.0300185 0.0300185 0.0300185 0.0175609 0.0175609 0.0175609 0.0175609 0.0269778 0.0269778 0.0269778 0.0269778 0.0674025 0.0674025 0.0674025 0.0674025 0.0205248 0.0205248 0.0205248 0.0205248 0.0201766 0.0201766 0.0201766 0.0201766 0.032795 0.032795 0.032795 0.032795 0.0516301 0.0516301 0.0516301 0.0516301 0.0262499 0.0262499 0.0262499 0.0262499 -0.0133337 -0.0133337 -0.0133337 -0.0133337 0.0216972 0.0216972 0.0216972 0.0216972 0.0338938 0.0338938 0.0338938 0.0338938 0.0582328 0.0582328 0.0582328 0.0582328 0.0197299 0.0197299 0.0197299 0.0197299 0.00851743 0.00851743 0.00851743 0.00851743 0.0246677 0.0246677 0.0246677 0.0246677 0.0329144 0.0329144 0.0329144 0.0329144 0.0266466 0.0266466 0.0266466 0.0266466 0.0217532 0.0217532 0.0217532 0.0217532 0.00410742 0.00410742 0.00410742 0.00410742 0.0317147 0.0317147 0.0317147 0.0317147 0.0301598 0.0301598 0.0301598 0.0301598 0.0296401 0.0296401 0.0296401 0.0296401 0.0342923 0.0342923 0.0342923 0.0342923 0.0300825 0.0300825 0.0300825 0.0300825 0.0175922 0.0175922 0.0175922 0.0175922 0.0281859 0.0281859 0.0281859 0.0281859 0.106842 0.106842 0.106842 0.106842 0.0262395 0.0262395 0.0262395 0.0262395 0.0315696 0.0315696 0.0315696 0.0315696 0.0709333 0.0709333 0.0709333 0.0709333 0.0325608 0.0325608 0.0325608 0.0325608 0.0930637 0.0930637 0.0930637 0.0930637 0.0310503 0.0310503 0.0310503 0.0310503 0.0244284 0.0244284 0.0244284 0.0244284 0.0297515 0.0297515 0.0297515 0.0297515 0.0269652 0.0269652 0.0269652 0.0269652 0.0271192 0.0271192 0.0271192 0.0271192 0.0280877 0.0280877 0.0280877 0.0280877 0.0269192 0.0269192 0.0269192 0.0269192 0.0207619 0.0207619 0.0207619 0.0207619 0.0273695 0.0273695 0.0273695 0.0273695 -0.0250577 -0.0250577 -0.0250577 -0.0250577 0.00698884 0.00698884 0.00698884 0.00698884 0.0318935 0.0318935 0.0318935 0.0318935 0.0347262 0.0347262 0.0347262 0.0347262 0.0212248 0.0212248 0.0212248 0.0212248 0.0273671 0.0273671 0.0273671 0.0273671 0.0315823 0.0315823 0.0315823 0.0315823 0.0268285 0.0268285 0.0268285 0.0268285 0.0332567 0.0332567 0.0332567 0.0332567 0.0420604 0.0420604 0.0420604 0.0420604 0.016112 0.016112 0.016112 0.016112 0.0740409 0.0740409 0.0740409 0.0740409 0.0184265 0.0184265 0.0184265 0.0184265 0.0206852 0.0206852 0.0206852 0.0206852 0.0337501 0.0337501 0.0337501 0.0337501 0.0275503 0.0275503 0.0275503 0.0275503 0.107606 0.107606 0.107606 0.107606 0.0747348 0.0747348 0.0747348 0.0747348 -0.0322766 -0.0322766 -0.0322766 -0.0322766 0.0326396 0.0326396 0.0326396 0.0326396 0.0107885 0.0107885 0.0107885 0.0107885 0.073922 0.073922 0.073922 0.073922 0.0203866 0.0203866 0.0203866 0.0203866 0.0336206 0.0336206 0.0336206 0.0336206 0.0267789 0.0267789 0.0267789 0.0267789 0.0247695 0.0247695 0.0247695 0.0247695 0.0160187 0.0160187 0.0160187 0.0160187 0.0163494 0.0163494 0.0163494 0.0163494 0.0357128 0.0357128 0.0357128 0.0357128 -0.00264496 -0.00264496 -0.00264496 -0.00264496 0.0244453 0.0244453 0.0244453 0.0244453 0.047533 0.047533 0.047533 0.047533 0.117586 0.117586 0.117586 0.117586 0.0272884 0.0272884 0.0272884 0.0272884 0.05413 0.05413 0.05413 0.05413 0.0179687 0.0179687 0.0179687 0.0179687 0.0801807 0.0801807 0.0801807 0.0801807 0.00105002 0.00105002 0.00105002 0.00105002 0.0219531 0.0219531 0.0219531 0.0219531 0.0732041 0.0732041 0.0732041 0.0732041 0.0146441 0.0146441 0.0146441 0.0146441 0.0351029 0.0351029 0.0351029 0.0351029 0.0378561 0.0378561 0.0378561 0.0378561 0.0371595 0.0371595 0.0371595 0.0371595 0.0332441 0.0332441 0.0332441 0.0332441 0.0406706 0.0406706 0.0406706 0.0406706 0.0240024 0.0240024 0.0240024 0.0240024 0.0313618 0.0313618 0.0313618 0.0313618 0.0304657 0.0304657 0.0304657 0.0304657 0.0611881 0.0611881 0.0611881 0.0611881 0.0146733 0.0146733 0.0146733 0.0146733 0.0319564 0.0319564 0.0319564 0.0319564 0.0344677 0.0344677 0.0344677 0.0344677 0.0661069 0.0661069 0.0661069 0.0661069 0.0165229 0.0165229 0.0165229 0.0165229 0.0110261 0.0110261 0.0110261 0.0110261 0.0895664 0.0895664 0.0895664 0.0895664 0.0574422 0.0574422 0.0574422 0.0574422 0.0337445 0.0337445 0.0337445 0.0337445 0.0941285 0.0941285 0.0941285 0.0941285 0.13543 0.13543 0.13543 0.13543 0.0793859 0.0793859 0.0793859 0.0793859 0.0344796 0.0344796 0.0344796 0.0344796 0.0272612 0.0272612 0.0272612 0.0272612 0.0803811 0.0803811 0.0803811 0.0803811 0.0187966 0.0187966 0.0187966 0.0187966 0.0146287 0.0146287 0.0146287 0.0146287 0.094836 0.094836 0.094836 0.094836 0.0681824 0.0681824 0.0681824 0.0681824 0.0221218 0.0221218 0.0221218 0.0221218 0.08242 0.08242 0.08242 0.08242 0.00854768 0.00854768 0.00854768 0.00854768 0.0346248 0.0346248 0.0346248 0.0346248 0.0262032 0.0262032 0.0262032 0.0262032 0.0289759 0.0289759 0.0289759 0.0289759 0.0622226 0.0622226 0.0622226 0.0622226 0.0277304 0.0277304 0.0277304 0.0277304 -0.00696712 -0.00696712 -0.00696712 -0.00696712 0.0952374 0.0952374 0.0952374 0.0952374 0.0255116 0.0255116 0.0255116 0.0255116 -0.00926028 -0.00926028 -0.00926028 -0.00926028 0.0446644 0.0446644 0.0446644 0.0446644 0.023826 0.023826 0.023826 0.023826 0.0908778 0.0908778 0.0908778 0.0908778 0.0552757 0.0552757 0.0552757 0.0552757 0.0940534 0.0940534 0.0940534 0.0940534 0.0141451 0.0141451 0.0141451 0.0141451 0.0180307 0.0180307 0.0180307 0.0180307 0.0405189 0.0405189 0.0405189 0.0405189 0.0233781 0.0233781 0.0233781 0.0233781 -0.00766461 -0.00766461 -0.00766461 -0.00766461 0.0232711 0.0232711 0.0232711 0.0232711 0.0267294 0.0267294 0.0267294 0.0267294 0.0260696 0.0260696 0.0260696 0.0260696 0.0627388 0.0627388 0.0627388 0.0627388 0.0163807 0.0163807 0.0163807 0.0163807 0.0336543 0.0336543 0.0336543 0.0336543 0.0285381 0.0285381 0.0285381 0.0285381 0.134167 0.134167 0.134167 0.134167 0.24549 0.24549 0.24549 0.24549 0.0206416 0.0206416 0.0206416 0.0206416 0.0563756 0.0563756 0.0563756 0.0563756 0.119242 0.119242 0.119242 0.119242 0.0943146 0.0943146 0.0943146 0.0943146 0.0270064 0.0270064 0.0270064 0.0270064 0.0169418 0.0169418 0.0169418 0.0169418 0.01632 0.01632 0.01632 0.01632 0.0220808 0.0220808 0.0220808 0.0220808 0.0978494 0.0978494 0.0978494 0.0978494 0.0138165 0.0138165 0.0138165 0.0138165 0.0727761 0.0727761 0.0727761 0.0727761 0.0653762 0.0653762 0.0653762 0.0653762 0.0131039 0.0131039 0.0131039 0.0131039 0.0927577 0.0927577 0.0927577 0.0927577 0.0170938 0.0170938 0.0170938 0.0170938 0.0699776 0.0699776 0.0699776 0.0699776 0.0168381 0.0168381 0.0168381 0.0168381 0.0796563 0.0796563 0.0796563 0.0796563 0.0307732 0.0307732 0.0307732 0.0307732 0.0210761 0.0210761 0.0210761 0.0210761 0.0345403 0.0345403 0.0345403 0.0345403 -0.101814 -0.101814 -0.101814 -0.101814 -0.019602 -0.019602 -0.019602 -0.019602 -0.000393769 -0.000393769 -0.000393769 -0.000393769 -0.00490677 -0.00490677 -0.00490677 -0.00490677 0.14469 0.14469 0.14469 0.14469 0.0336344 0.0336344 0.0336344 0.0336344 0.00987835 0.00987835 0.00987835 0.00987835 0.0526296 0.0526296 0.0526296 0.0526296 0.025085 0.025085 0.025085 0.025085 0.0309469 0.0309469 0.0309469 0.0309469 0.0311909 0.0311909 0.0311909 0.0311909 0.114283 0.114283 0.114283 0.114283 0.0261634 0.0261634 0.0261634 0.0261634 0.0674934 0.0674934 0.0674934 0.0674934 0.094284 0.094284 0.094284 0.094284 -0.00189103 -0.00189103 -0.00189103 -0.00189103 0.0232416 0.0232416 0.0232416 0.0232416 0.040537 0.040537 0.040537 0.040537 0.216338 0.216338 0.216338 0.216338 0.00910357 0.00910357 0.00910357 0.00910357 -0.0661999 -0.0661999 -0.0661999 -0.0661999 0.0216526 0.0216526 0.0216526 0.0216526 0.0166101 0.0166101 0.0166101 0.0166101 0.106448 0.106448 0.106448 0.106448 0.00994457 0.00994457 0.00994457 0.00994457 0.0277773 0.0277773 0.0277773 0.0277773 0.0281765 0.0281765 0.0281765 0.0281765 0.0563854 0.0563854 0.0563854 0.0563854 0.0121613 0.0121613 0.0121613 0.0121613 0.0797366 0.0797366 0.0797366 0.0797366 0.177504 0.177504 0.177504 0.177504 0.0239596 0.0239596 0.0239596 0.0239596 0.102798 0.102798 0.102798 0.102798 0.0308274 0.0308274 0.0308274 0.0308274 0.0223766 0.0223766 0.0223766 0.0223766 0.0941296 0.0941296 0.0941296 0.0941296 0.0125636 0.0125636 0.0125636 0.0125636 0.0567162 0.0567162 0.0567162 0.0567162 -0.0284429 -0.0284429 -0.0284429 -0.0284429 0.0648749 0.0648749 0.0648749 0.0648749 0.0119052 0.0119052 0.0119052 0.0119052 0.071582 0.071582 0.071582 0.071582 0.054637 0.054637 0.054637 0.054637 0.0470091 0.0470091 0.0470091 0.0470091 0.0103546 0.0103546 0.0103546 0.0103546 0.00708628 0.00708628 0.00708628 0.00708628 0.0250404 0.0250404 0.0250404 0.0250404 -0.0819958 -0.0819958 -0.0819958 -0.0819958 0.0448282 0.0448282 0.0448282 0.0448282 0.0168148 0.0168148 0.0168148 0.0168148 0.103742 0.103742 0.103742 0.103742 0.0643346 0.0643346 0.0643346 0.0643346 -0.00697836 -0.00697836 -0.00697836 -0.00697836 0.0614152 0.0614152 0.0614152 0.0614152 -0.00633117 -0.00633117 -0.00633117 -0.00633117 0.13015 0.13015 0.13015 0.13015 -0.0318069 -0.0318069 -0.0318069 -0.0318069 0.123616 0.123616 0.123616 0.123616 0.0546287 0.0546287 0.0546287 0.0546287 0.0237268 0.0237268 0.0237268 0.0237268 0.144315 0.144315 0.144315 0.144315 0.0621778 0.0621778 0.0621778 0.0621778 0.0197289 0.0197289 0.0197289 0.0197289 -0.002528 -0.002528 -0.002528 -0.002528 0.038418 0.038418 0.038418 0.038418 0.0170972 0.0170972 0.0170972 0.0170972 -0.0181423 -0.0181423 -0.0181423 -0.0181423 0.116087 0.116087 0.116087 0.116087 -0.145467 -0.145467 -0.145467 -0.145467 0.0238762 0.0238762 0.0238762 0.0238762 0.0340185 0.0340185 0.0340185 0.0340185 0.0873891 0.0873891 0.0873891 0.0873891 0.00580952 0.00580952 0.00580952 0.00580952 0.045803 0.045803 0.045803 0.045803 0.0631642 0.0631642 0.0631642 0.0631642 0.155182 0.155182 0.155182 0.155182 0.0237525 0.0237525 0.0237525 0.0237525 0.128145 0.128145 0.128145 0.128145 0.0706538 0.0706538 0.0706538 0.0706538 0.036306 0.036306 0.036306 0.036306 -0.0286342 -0.0286342 -0.0286342 -0.0286342 0.0176694 0.0176694 0.0176694 0.0176694 0.107508 0.107508 0.107508 0.107508 0.249923 0.249923 0.249923 0.249923 0.0255046 0.0255046 0.0255046 0.0255046 0.103848 0.103848 0.103848 0.103848 -0.020028 -0.020028 -0.020028 -0.020028 0.0219713 0.0219713 0.0219713 0.0219713 0.130951 0.130951 0.130951 0.130951 0.0367367 0.0367367 0.0367367 0.0367367 0.100724 0.100724 0.100724 0.100724 0.00104212 0.00104212 0.00104212 0.00104212 0.170954 0.170954 0.170954 0.170954 0.0287813 0.0287813 0.0287813 0.0287813 0.070433 0.070433 0.070433 0.070433 -0.16409 -0.16409 -0.16409 -0.16409 0.11274 0.11274 0.11274 0.11274 -0.104994 -0.104994 -0.104994 -0.104994 0.0128759 0.0128759 0.0128759 0.0128759 0.138265 0.138265 0.138265 0.138265 -0.00143886 -0.00143886 -0.00143886 -0.00143886 0.0590512 0.0590512 0.0590512 0.0590512 0.110944 0.110944 0.110944 0.110944 0.0408414 0.0408414 0.0408414 0.0408414 0.0294463 0.0294463 0.0294463 0.0294463 -0.027244 -0.027244 -0.027244 -0.027244 0.0547976 0.0547976 0.0547976 0.0547976 0.0159885 0.0159885 0.0159885 0.0159885 -0.0547852 -0.0547852 -0.0547852 -0.0547852 0.0209415 0.0209415 0.0209415 0.0209415 0.0170704 0.0170704 0.0170704 0.0170704 0.00207723 0.00207723 0.00207723 0.00207723 -0.00225197 -0.00225197 -0.00225197 -0.00225197 -0.129867 -0.129867 -0.129867 -0.129867 0.0348049 0.0348049 0.0348049 0.0348049 0.0642002 0.0642002 0.0642002 0.0642002 -0.00457031 -0.00457031 -0.00457031 -0.00457031 0.0569609 0.0569609 0.0569609 0.0569609 0.0276561 0.0276561 0.0276561 0.0276561 -0.0740484 -0.0740484 -0.0740484 -0.0740484 -0.00242337 -0.00242337 -0.00242337 -0.00242337 -0.00366858 -0.00366858 -0.00366858 -0.00366858 0.0474199 0.0474199 0.0474199 0.0474199 0.12021 0.12021 0.12021 0.12021 0.112653 0.112653 0.112653 0.112653 -0.0377392 -0.0377392 -0.0377392 -0.0377392 0.0479604 0.0479604 0.0479604 0.0479604 -0.0741801 -0.0741801 -0.0741801 -0.0741801 0.162093 0.162093 0.162093 0.162093 -0.0566607 -0.0566607 -0.0566607 -0.0566607 0.065853 0.065853 0.065853 0.065853 -0.141158 -0.141158 -0.141158 -0.141158 0.132301 0.132301 0.132301 0.132301 -0.0918398 -0.0918398 -0.0918398 -0.0918398 -0.0122537 -0.0122537 -0.0122537 -0.0122537 0.142857 0.142857 0.142857 0.142857 0.10758 0.10758 0.10758 0.10758 0.0236374 0.0236374 0.0236374 0.0236374 0.0450527 0.0450527 0.0450527 0.0450527 0.0203978 0.0203978 0.0203978 0.0203978 -0.0386302 -0.0386302 -0.0386302 -0.0386302 0.0455631 0.0455631 0.0455631 0.0455631 -0.0281861 -0.0281861 -0.0281861 -0.0281861 0.118678 0.118678 0.118678 0.118678 0.00923724 0.00923724 0.00923724 0.00923724 0.0341514 0.0341514 0.0341514 0.0341514 0.00114157 0.00114157 0.00114157 0.00114157 0.0056609 0.0056609 0.0056609 0.0056609 0.135991 0.135991 0.135991 0.135991 0.0511742 0.0511742 0.0511742 0.0511742 -0.112473 -0.112473 -0.112473 -0.112473 -0.0222221 -0.0222221 -0.0222221 -0.0222221 -0.0238286 -0.0238286 -0.0238286 -0.0238286 0.0274374 0.0274374 0.0274374 0.0274374 0.045402 0.045402 0.045402 0.045402 0.0193358 0.0193358 0.0193358 0.0193358 0.0256594 0.0256594 0.0256594 0.0256594 0.0264842 0.0264842 0.0264842 0.0264842 0.125042 0.125042 0.125042 0.125042 0.259443 0.259443 0.259443 0.259443 -0.0220228 -0.0220228 -0.0220228 -0.0220228 0.224051 0.224051 0.224051 0.224051 0.0163418 0.0163418 0.0163418 0.0163418 -0.115714 -0.115714 -0.115714 -0.115714 0.00053546 0.00053546 0.00053546 0.00053546 0.179042 0.179042 0.179042 0.179042 0.114105 0.114105 0.114105 0.114105 -0.191631 -0.191631 -0.191631 -0.191631 -0.173391 -0.173391 -0.173391 -0.173391 0.170949 0.170949 0.170949 0.170949 0.00253139 0.00253139 0.00253139 0.00253139 0.0350819 0.0350819 0.0350819 0.0350819 0.0201484 0.0201484 0.0201484 0.0201484 0.147327 0.147327 0.147327 0.147327 -0.157297 -0.157297 -0.157297 -0.157297 -5.63377e-05 -5.63377e-05 -5.63377e-05 -5.63377e-05 0.0415005 0.0415005 0.0415005 0.0415005 0.126125 0.126125 0.126125 0.126125 -0.0663886 -0.0663886 -0.0663886 -0.0663886 0.0260213 0.0260213 0.0260213 0.0260213 -0.00143122 -0.00143122 -0.00143122 -0.00143122 -0.0008681 -0.0008681 -0.0008681 -0.0008681 0.0510362 0.0510362 0.0510362 0.0510362 0.13935 0.13935 0.13935 0.13935 -0.00324263 -0.00324263 -0.00324263 -0.00324263 0.0785436 0.0785436 0.0785436 0.0785436 -0.0536823 -0.0536823 -0.0536823 -0.0536823 0.104448 0.104448 0.104448 0.104448 0.129183 0.129183 0.129183 0.129183 0.0813334 0.0813334 0.0813334 0.0813334 0.0926085 0.0926085 0.0926085 0.0926085 0.123425 0.123425 0.123425 0.123425 0.0107448 0.0107448 0.0107448 0.0107448 -0.00212083 -0.00212083 -0.00212083 -0.00212083 0.00625142 0.00625142 0.00625142 0.00625142 0.223597 0.223597 0.223597 0.223597 0.0381708 0.0381708 0.0381708 0.0381708 0.0915518 0.0915518 0.0915518 0.0915518 0.108734 0.108734 0.108734 0.108734 -0.0827122 -0.0827122 -0.0827122 -0.0827122 0.0839379 0.0839379 0.0839379 0.0839379 0.0888945 0.0888945 0.0888945 0.0888945 0.0825991 0.0825991 0.0825991 0.0825991 0.00456036 0.00456036 0.00456036 0.00456036 0.22875 0.22875 0.22875 0.22875 0.0965214 0.0965214 0.0965214 0.0965214 -0.14992 -0.14992 -0.14992 -0.14992 0.169068 0.169068 0.169068 0.169068 0.0614114 0.0614114 0.0614114 0.0614114 -0.0951866 -0.0951866 -0.0951866 -0.0951866 0.226761 0.226761 0.226761 0.226761 -0.0176396 -0.0176396 -0.0176396 -0.0176396 0.0982943 0.0982943 0.0982943 0.0982943 0.0732432 0.0732432 0.0732432 0.0732432 0.0562647 0.0562647 0.0562647 0.0562647 0.0467686 0.0467686 0.0467686 0.0467686 -0.0170227 -0.0170227 -0.0170227 -0.0170227 0.00503195 0.00503195 0.00503195 0.00503195 -0.00510487 -0.00510487 -0.00510487 -0.00510487 0.0145231 0.0145231 0.0145231 0.0145231 0.0245923 0.0245923 0.0245923 0.0245923 0.162343 0.162343 0.162343 0.162343 0.0663232 0.0663232 0.0663232 0.0663232 0.0143159 0.0143159 0.0143159 0.0143159 -0.0296487 -0.0296487 -0.0296487 -0.0296487 -0.0245583 -0.0245583 -0.0245583 -0.0245583 0.0305389 0.0305389 0.0305389 0.0305389 0.16323 0.16323 0.16323 0.16323 0.0062732 0.0062732 0.0062732 0.0062732 0.0254428 0.0254428 0.0254428 0.0254428 0.0897121 0.0897121 0.0897121 0.0897121 -0.0536832 -0.0536832 -0.0536832 -0.0536832 -0.103103 -0.103103 -0.103103 -0.103103 0.108474 0.108474 0.108474 0.108474 -0.156133 -0.156133 -0.156133 -0.156133 0.315826 0.315826 0.315826 0.315826 0.103803 0.103803 0.103803 0.103803 0.0864786 0.0864786 0.0864786 0.0864786 0.169638 0.169638 0.169638 0.169638 -0.126978 -0.126978 -0.126978 -0.126978 -0.0322132 -0.0322132 -0.0322132 -0.0322132 0.0919547 0.0919547 0.0919547 0.0919547 -0.0102538 -0.0102538 -0.0102538 -0.0102538 -0.00385548 -0.00385548 -0.00385548 -0.00385548 -0.0251358 -0.0251358 -0.0251358 -0.0251358 -0.0113521 -0.0113521 -0.0113521 -0.0113521 0.0328473 0.0328473 0.0328473 0.0328473 0.0078203 0.0078203 0.0078203 0.0078203 0.0994209 0.0994209 0.0994209 0.0994209 0.158327 0.158327 0.158327 0.158327 0.0498814 0.0498814 0.0498814 0.0498814 -0.0248629 -0.0248629 -0.0248629 -0.0248629 0.0740056 0.0740056 0.0740056 0.0740056 0.0125347 0.0125347 0.0125347 0.0125347 0.135389 0.135389 0.135389 0.135389 -0.113457 -0.113457 -0.113457 -0.113457 0.112379 0.112379 0.112379 0.112379 0.193013 0.193013 0.193013 0.193013 0.117242 0.117242 0.117242 0.117242 -0.00731823 -0.00731823 -0.00731823 -0.00731823 0.00561227 0.00561227 0.00561227 0.00561227 0.00281211 0.00281211 0.00281211 0.00281211 0.169419 0.169419 0.169419 0.169419 0.0926332 0.0926332 0.0926332 0.0926332 0.035712 0.035712 0.035712 0.035712 0.0646653 0.0646653 0.0646653 0.0646653 0.0306784 0.0306784 0.0306784 0.0306784 0.0561626 0.0561626 0.0561626 0.0561626 0.145187 0.145187 0.145187 0.145187 0.0926602 0.0926602 0.0926602 0.0926602 -0.0923351 -0.0923351 -0.0923351 -0.0923351 0.108686 0.108686 0.108686 0.108686 0.0683294 0.0683294 0.0683294 0.0683294 0.0318559 0.0318559 0.0318559 0.0318559 0.0939289 0.0939289 0.0939289 0.0939289 0.144579 0.144579 0.144579 0.144579 0.0970252 0.0970252 0.0970252 0.0970252 -0.107627 -0.107627 -0.107627 -0.107627 0.0323758 0.0323758 0.0323758 0.0323758 0.159878 0.159878 0.159878 0.159878 -0.1471 -0.1471 -0.1471 -0.1471 -0.101437 -0.101437 -0.101437 -0.101437 -0.053591 -0.053591 -0.053591 -0.053591 0.0295922 0.0295922 0.0295922 0.0295922 0.238594 0.238594 0.238594 0.238594 0.241355 0.241355 0.241355 0.241355 0.268113 0.268113 0.268113 0.268113 0.285543 0.285543 0.285543 0.285543 -0.0247214 -0.0247214 -0.0247214 -0.0247214 0.00340111 0.00340111 0.00340111 0.00340111 0.064597 0.064597 0.064597 0.064597 0.0357184 0.0357184 0.0357184 0.0357184 0.229055 0.229055 0.229055 0.229055 0.0326069 0.0326069 0.0326069 0.0326069 0.0564271 0.0564271 0.0564271 0.0564271 0.0124124 0.0124124 0.0124124 0.0124124 0.018187 0.018187 0.018187 0.018187 -0.0465082 -0.0465082 -0.0465082 -0.0465082 0.0827388 0.0827388 0.0827388 0.0827388 -0.0357464 -0.0357464 -0.0357464 -0.0357464 0.140179 0.140179 0.140179 0.140179 0.0419423 0.0419423 0.0419423 0.0419423 0.0943095 0.0943095 0.0943095 0.0943095 0.123071 0.123071 0.123071 0.123071 0.0629571 0.0629571 0.0629571 0.0629571 0.0937108 0.0937108 0.0937108 0.0937108 0.214022 0.214022 0.214022 0.214022 -0.0131901 -0.0131901 -0.0131901 -0.0131901 0.0272315 0.0272315 0.0272315 0.0272315 -0.00950498 -0.00950498 -0.00950498 -0.00950498 0.0480209 0.0480209 0.0480209 0.0480209 0.000493557 0.000493557 0.000493557 0.000493557 0.0363179 0.0363179 0.0363179 0.0363179 0.026965 0.026965 0.026965 0.026965 -0.0381797 -0.0381797 -0.0381797 -0.0381797 0.0300917 0.0300917 0.0300917 0.0300917 0.0309578 0.0309578 0.0309578 0.0309578 0.0498249 0.0498249 0.0498249 0.0498249 0.00165136 0.00165136 0.00165136 0.00165136 0.0489628 0.0489628 0.0489628 0.0489628 0.0734393 0.0734393 0.0734393 0.0734393 0.0880384 0.0880384 0.0880384 0.0880384 -0.0537768 -0.0537768 -0.0537768 -0.0537768 0.0128656 0.0128656 0.0128656 0.0128656 -0.0471696 -0.0471696 -0.0471696 -0.0471696 -0.0311805 -0.0311805 -0.0311805 -0.0311805 0.0647849 0.0647849 0.0647849 0.0647849 0.0847764 0.0847764 0.0847764 0.0847764 0.198104 0.198104 0.198104 0.198104 0.286862 0.286862 0.286862 0.286862 0.284243 0.284243 0.284243 0.284243 0.171073 0.171073 0.171073 0.171073 0.0699586 0.0699586 0.0699586 0.0699586 0.022068 0.022068 0.022068 0.022068 0.124562 0.124562 0.124562 0.124562 0.0690366 0.0690366 0.0690366 0.0690366 0.142956 0.142956 0.142956 0.142956 0.0952966 0.0952966 0.0952966 0.0952966 -0.00393496 -0.00393496 -0.00393496 -0.00393496 0.0471734 0.0471734 0.0471734 0.0471734 -0.0642118 -0.0642118 -0.0642118 -0.0642118 -0.155176 -0.155176 -0.155176 -0.155176 -0.0102431 -0.0102431 -0.0102431 -0.0102431 -0.0377181 -0.0377181 -0.0377181 -0.0377181 0.0687176 0.0687176 0.0687176 0.0687176 0.113397 0.113397 0.113397 0.113397 -0.121801 -0.121801 -0.121801 -0.121801 0.0109478 0.0109478 0.0109478 0.0109478 0.215164 0.215164 0.215164 0.215164 0.00783115 0.00783115 0.00783115 0.00783115 0.107339 0.107339 0.107339 0.107339 0.135735 0.135735 0.135735 0.135735 0.0311464 0.0311464 0.0311464 0.0311464 0.15335 0.15335 0.15335 0.15335 0.098714 0.098714 0.098714 0.098714 0.251374 0.251374 0.251374 0.251374 -0.0819888 -0.0819888 -0.0819888 -0.0819888 0.0207337 0.0207337 0.0207337 0.0207337 0.0443559 0.0443559 0.0443559 0.0443559 -0.0188657 -0.0188657 -0.0188657 -0.0188657 0.153305 0.153305 0.153305 0.153305 0.0727766 0.0727766 0.0727766 0.0727766 0.0056267 0.0056267 0.0056267 0.0056267 -0.0591436 -0.0591436 -0.0591436 -0.0591436 0.120151 0.120151 0.120151 0.120151 0.0968893 0.0968893 0.0968893 0.0968893 0.172729 0.172729 0.172729 0.172729 0.027449 0.027449 0.027449 0.027449 0.160275 0.160275 0.160275 0.160275 0.0216424 0.0216424 0.0216424 0.0216424 -0.00928936 -0.00928936 -0.00928936 -0.00928936 0.013454 0.013454 0.013454 0.013454 0.0439991 0.0439991 0.0439991 0.0439991 0.107754 0.107754 0.107754 0.107754 0.151135 0.151135 0.151135 0.151135 0.0942892 0.0942892 0.0942892 0.0942892 0.0674753 0.0674753 0.0674753 0.0674753 -0.0244184 -0.0244184 -0.0244184 -0.0244184 0.137614 0.137614 0.137614 0.137614 0.0570096 0.0570096 0.0570096 0.0570096 0.145775 0.145775 0.145775 0.145775 0.092233 0.092233 0.092233 0.092233 0.0099192 0.0099192 0.0099192 0.0099192 0.0996279 0.0996279 0.0996279 0.0996279 0.0548834 0.0548834 0.0548834 0.0548834 0.0322721 0.0322721 0.0322721 0.0322721 0.118152 0.118152 0.118152 0.118152 0.184878 0.184878 0.184878 0.184878 -0.0453176 -0.0453176 -0.0453176 -0.0453176 0.0673229 0.0673229 0.0673229 0.0673229 0.0859621 0.0859621 0.0859621 0.0859621 0.188625 0.188625 0.188625 0.188625 0.00114594 0.00114594 0.00114594 0.00114594 -0.059271 -0.059271 -0.059271 -0.059271 0.178819 0.178819 0.178819 0.178819 0.0657179 0.0657179 0.0657179 0.0657179 -0.130222 -0.130222 -0.130222 -0.130222 0.106301 0.106301 0.106301 0.106301 -0.000767735 -0.000767735 -0.000767735 -0.000767735 0.0494824 0.0494824 0.0494824 0.0494824 0.0335823 0.0335823 0.0335823 0.0335823 0.0994201 0.0994201 0.0994201 0.0994201 -0.0249111 -0.0249111 -0.0249111 -0.0249111 0.129593 0.129593 0.129593 0.129593 0.0390233 0.0390233 0.0390233 0.0390233 0.126929 0.126929 0.126929 0.126929 0.0577299 0.0577299 0.0577299 0.0577299 0.236184 0.236184 0.236184 0.236184 0.112785 0.112785 0.112785 0.112785 -0.0141171 -0.0141171 -0.0141171 -0.0141171 0.0256526 0.0256526 0.0256526 0.0256526 0.147155 0.147155 0.147155 0.147155 0.237226 0.237226 0.237226 0.237226 0.0411861 0.0411861 0.0411861 0.0411861 0.0849927 0.0849927 0.0849927 0.0849927 0.113452 0.113452 0.113452 0.113452 0.218454 0.218454 0.218454 0.218454 0.100954 0.100954 0.100954 0.100954 -0.0115506 -0.0115506 -0.0115506 -0.0115506 0.0288184 0.0288184 0.0288184 0.0288184 0.151617 0.151617 0.151617 0.151617 0.0328606 0.0328606 0.0328606 0.0328606 -0.0752733 -0.0752733 -0.0752733 -0.0752733 0.178202 0.178202 0.178202 0.178202 0.00121308 0.00121308 0.00121308 0.00121308 -0.0699825 -0.0699825 -0.0699825 -0.0699825 0.0315912 0.0315912 0.0315912 0.0315912 0.0299957 0.0299957 0.0299957 0.0299957 0.129446 0.129446 0.129446 0.129446 -0.0305211 -0.0305211 -0.0305211 -0.0305211 0.259385 0.259385 0.259385 0.259385 0.027834 0.027834 0.027834 0.027834 -0.0215122 -0.0215122 -0.0215122 -0.0215122 0.181711 0.181711 0.181711 0.181711 0.113828 0.113828 0.113828 0.113828 0.00715073 0.00715073 0.00715073 0.00715073 0.0147213 0.0147213 0.0147213 0.0147213 0.171597 0.171597 0.171597 0.171597 0.0651538 0.0651538 0.0651538 0.0651538 0.0143534 0.0143534 0.0143534 0.0143534 -0.0176701 -0.0176701 -0.0176701 -0.0176701 -0.0216801 -0.0216801 -0.0216801 -0.0216801 0.0290156 0.0290156 0.0290156 0.0290156 0.0730217 0.0730217 0.0730217 0.0730217 0.0945729 0.0945729 0.0945729 0.0945729 0.118565 0.118565 0.118565 0.118565 0.0933358 0.0933358 0.0933358 0.0933358 -0.0211638 -0.0211638 -0.0211638 -0.0211638 -0.0248868 -0.0248868 -0.0248868 -0.0248868 0.0187584 0.0187584 0.0187584 0.0187584 0.229615 0.229615 0.229615 0.229615 -0.0251164 -0.0251164 -0.0251164 -0.0251164 0.0876821 0.0876821 0.0876821 0.0876821 0.154711 0.154711 0.154711 0.154711 -0.0209432 -0.0209432 -0.0209432 -0.0209432 0.179129 0.179129 0.179129 0.179129 0.0246062 0.0246062 0.0246062 0.0246062 0.203708 0.203708 0.203708 0.203708 0.0187494 0.0187494 0.0187494 0.0187494 0.0311253 0.0311253 0.0311253 0.0311253 0.0155521 0.0155521 0.0155521 0.0155521 0.239637 0.239637 0.239637 0.239637 0.00573752 0.00573752 0.00573752 0.00573752 0.0201933 0.0201933 0.0201933 0.0201933 0.0365831 0.0365831 0.0365831 0.0365831 0.00347044 0.00347044 0.00347044 0.00347044 0.0324782 0.0324782 0.0324782 0.0324782 0.0957721 0.0957721 0.0957721 0.0957721 0.110013 0.110013 0.110013 0.110013 0.200031 0.200031 0.200031 0.200031 -0.0323556 -0.0323556 -0.0323556 -0.0323556 0.0364581 0.0364581 0.0364581 0.0364581 0.243928 0.243928 0.243928 0.243928 0.103165 0.103165 0.103165 0.103165 0.157431 0.157431 0.157431 0.157431 -0.0122897 -0.0122897 -0.0122897 -0.0122897 0.045666 0.045666 0.045666 0.045666 0.0610347 0.0610347 0.0610347 0.0610347 0.153815 0.153815 0.153815 0.153815 0.0355054 0.0355054 0.0355054 0.0355054 0.263945 0.263945 0.263945 0.263945 0.175522 0.175522 0.175522 0.175522 0.0496761 0.0496761 0.0496761 0.0496761 0.114169 0.114169 0.114169 0.114169 0.182719 0.182719 0.182719 0.182719 0.232984 0.232984 0.232984 0.232984 0.0307994 0.0307994 0.0307994 0.0307994 0.015202 0.015202 0.015202 0.015202 0.0792638 0.0792638 0.0792638 0.0792638 0.0338672 0.0338672 0.0338672 0.0338672 0.327666 0.327666 0.327666 0.327666 0.359354 0.359354 0.359354 0.359354 0.172886 0.172886 0.172886 0.172886 0.0350463 0.0350463 0.0350463 0.0350463 0.037312 0.037312 0.037312 0.037312 -0.00194181 -0.00194181 -0.00194181 -0.00194181 0.0579691 0.0579691 0.0579691 0.0579691 0.257029 0.257029 0.257029 0.257029 0.0369766 0.0369766 0.0369766 0.0369766 0.208984 0.208984 0.208984 0.208984 0.198874 0.198874 0.198874 0.198874 0.266381 0.266381 0.266381 0.266381 -0.0703719 -0.0703719 -0.0703719 -0.0703719 0.172443 0.172443 0.172443 0.172443 0.231834 0.231834 0.231834 0.231834 0.0609762 0.0609762 0.0609762 0.0609762 -0.154992 -0.154992 -0.154992 -0.154992 0.0217679 0.0217679 0.0217679 0.0217679 0.0329522 0.0329522 0.0329522 0.0329522 0.151167 0.151167 0.151167 0.151167 0.084387 0.084387 0.084387 0.084387 0.10704 0.10704 0.10704 0.10704 0.100406 0.100406 0.100406 0.100406 0.12032 0.12032 0.12032 0.12032 0.0327744 0.0327744 0.0327744 0.0327744 0.137647 0.137647 0.137647 0.137647 0.183268 0.183268 0.183268 0.183268 0.0850666 0.0850666 0.0850666 0.0850666 -0.00669179 -0.00669179 -0.00669179 -0.00669179 0.0804963 0.0804963 0.0804963 0.0804963 0.0725451 0.0725451 0.0725451 0.0725451 0.207481 0.207481 0.207481 0.207481 0.0136448 0.0136448 0.0136448 0.0136448 0.0316922 0.0316922 0.0316922 0.0316922 0.144999 0.144999 0.144999 0.144999 0.0103851 0.0103851 0.0103851 0.0103851 0.13687 0.13687 0.13687 0.13687 0.201205 0.201205 0.201205 0.201205 0.0350528 0.0350528 0.0350528 0.0350528 0.202428 0.202428 0.202428 0.202428 0.0236846 0.0236846 0.0236846 0.0236846 -0.0125034 -0.0125034 -0.0125034 -0.0125034 0.0350291 0.0350291 0.0350291 0.0350291 0.035025 0.035025 0.035025 0.035025 0.0209918 0.0209918 0.0209918 0.0209918 0.149663 0.149663 0.149663 0.149663 -0.0154923 -0.0154923 -0.0154923 -0.0154923 0.0208085 0.0208085 0.0208085 0.0208085 0.122999 0.122999 0.122999 0.122999 0.00180432 0.00180432 0.00180432 0.00180432 0.0368185 0.0368185 0.0368185 0.0368185 0.0122462 0.0122462 0.0122462 0.0122462 0.00332248 0.00332248 0.00332248 0.00332248 -0.018436 -0.018436 -0.018436 -0.018436 0.14013 0.14013 0.14013 0.14013 0.00684917 0.00684917 0.00684917 0.00684917 0.257898 0.257898 0.257898 0.257898 0.0296111 0.0296111 0.0296111 0.0296111 0.220374 0.220374 0.220374 0.220374 0.123542 0.123542 0.123542 0.123542 0.178548 0.178548 0.178548 0.178548 0.0210755 0.0210755 0.0210755 0.0210755 0.194449 0.194449 0.194449 0.194449 0.0337125 0.0337125 0.0337125 0.0337125 0.00240813 0.00240813 0.00240813 0.00240813 0.0110101 0.0110101 0.0110101 0.0110101 0.029442 0.029442 0.029442 0.029442 0.263266 0.263266 0.263266 0.263266 0.0785972 0.0785972 0.0785972 0.0785972 0.0733007 0.0733007 0.0733007 0.0733007 0.223559 0.223559 0.223559 0.223559 0.0675452 0.0675452 0.0675452 0.0675452 -0.0123998 -0.0123998 -0.0123998 -0.0123998 0.0305595 0.0305595 0.0305595 0.0305595 0.113901 0.113901 0.113901 0.113901 -0.0174449 -0.0174449 -0.0174449 -0.0174449 0.0785093 0.0785093 0.0785093 0.0785093 0.178745 0.178745 0.178745 0.178745 0.178966 0.178966 0.178966 0.178966 0.228524 0.228524 0.228524 0.228524 0.0791935 0.0791935 0.0791935 0.0791935 0.129827 0.129827 0.129827 0.129827 0.0278663 0.0278663 0.0278663 0.0278663 0.170909 0.170909 0.170909 0.170909 0.102812 0.102812 0.102812 0.102812 0.317189 0.317189 0.317189 0.317189 0.0674862 0.0674862 0.0674862 0.0674862 0.13511 0.13511 0.13511 0.13511 0.142192 0.142192 0.142192 0.142192 0.0599718 0.0599718 0.0599718 0.0599718 0.0557574 0.0557574 0.0557574 0.0557574 -0.0066308 -0.0066308 -0.0066308 -0.0066308 0.00537988 0.00537988 0.00537988 0.00537988 0.176054 0.176054 0.176054 0.176054 0.045762 0.045762 0.045762 0.045762 0.108341 0.108341 0.108341 0.108341 0.0189837 0.0189837 0.0189837 0.0189837 0.0442451 0.0442451 0.0442451 0.0442451 0.0290042 0.0290042 0.0290042 0.0290042 0.0620107 0.0620107 0.0620107 0.0620107 -0.0434649 -0.0434649 -0.0434649 -0.0434649 0.479664 0.479664 0.479664 0.479664 0.151334 0.151334 0.151334 0.151334 0.262998 0.262998 0.262998 0.262998 0.221555 0.221555 0.221555 0.221555 0.0300987 0.0300987 0.0300987 0.0300987 0.0296687 0.0296687 0.0296687 0.0296687 0.142775 0.142775 0.142775 0.142775 0.094377 0.094377 0.094377 0.094377 0.140469 0.140469 0.140469 0.140469 -0.000602806 -0.000602806 -0.000602806 -0.000602806 0.268737 0.268737 0.268737 0.268737 0.0333309 0.0333309 0.0333309 0.0333309 0.023097 0.023097 0.023097 0.023097 0.00464868 0.00464868 0.00464868 0.00464868 0.0311787 0.0311787 0.0311787 0.0311787 0.202175 0.202175 0.202175 0.202175 0.0591247 0.0591247 0.0591247 0.0591247 0.147942 0.147942 0.147942 0.147942 0.0567534 0.0567534 0.0567534 0.0567534 0.175327 0.175327 0.175327 0.175327 0.106153 0.106153 0.106153 0.106153 0.0239441 0.0239441 0.0239441 0.0239441 -0.00418965 -0.00418965 -0.00418965 -0.00418965 0.203815 0.203815 0.203815 0.203815 0.259919 0.259919 0.259919 0.259919 -1.60652e-05 -1.60652e-05 -1.60652e-05 -1.60652e-05 0.0262577 0.0262577 0.0262577 0.0262577 0.20879 0.20879 0.20879 0.20879 0.0319591 0.0319591 0.0319591 0.0319591 0.0316221 0.0316221 0.0316221 0.0316221 0.112109 0.112109 0.112109 0.112109 0.0296863 0.0296863 0.0296863 0.0296863 0.127111 0.127111 0.127111 0.127111 0.057116 0.057116 0.057116 0.057116 0.0164898 0.0164898 0.0164898 0.0164898 0.11799 0.11799 0.11799 0.11799 0.0605206 0.0605206 0.0605206 0.0605206 0.440877 0.440877 0.440877 0.440877 0.12469 0.12469 0.12469 0.12469 0.167954 0.167954 0.167954 0.167954 0.0531679 0.0531679 0.0531679 0.0531679 0.0482764 0.0482764 0.0482764 0.0482764 0.0664657 0.0664657 0.0664657 0.0664657 0.0659402 0.0659402 0.0659402 0.0659402 0.295147 0.295147 0.295147 0.295147 0.126274 0.126274 0.126274 0.126274 0.0996882 0.0996882 0.0996882 0.0996882 0.0254871 0.0254871 0.0254871 0.0254871 0.399916 0.399916 0.399916 0.399916 0.0324923 0.0324923 0.0324923 0.0324923 0.0641484 0.0641484 0.0641484 0.0641484 0.00828649 0.00828649 0.00828649 0.00828649 0.0337416 0.0337416 0.0337416 0.0337416 0.0646658 0.0646658 0.0646658 0.0646658 0.0239072 0.0239072 0.0239072 0.0239072 0.138017 0.138017 0.138017 0.138017 0.0337332 0.0337332 0.0337332 0.0337332 0.0197119 0.0197119 0.0197119 0.0197119 0.02782 0.02782 0.02782 0.02782 0.0489868 0.0489868 0.0489868 0.0489868 0.0403719 0.0403719 0.0403719 0.0403719 0.507649 0.507649 0.507649 0.507649 0.0897093 0.0897093 0.0897093 0.0897093 0.228532 0.228532 0.228532 0.228532 0.118272 0.118272 0.118272 0.118272 0.0329049 0.0329049 0.0329049 0.0329049 0.0471977 0.0471977 0.0471977 0.0471977 0.0376655 0.0376655 0.0376655 0.0376655 0.0691973 0.0691973 0.0691973 0.0691973 0.102024 0.102024 0.102024 0.102024 0.192407 0.192407 0.192407 0.192407 0.392912 0.392912 0.392912 0.392912 0.00381947 0.00381947 0.00381947 0.00381947 0.0314858 0.0314858 0.0314858 0.0314858 0.45918 0.45918 0.45918 0.45918 0.363001 0.363001 0.363001 0.363001 0.058113 0.058113 0.058113 0.058113 0.0207174 0.0207174 0.0207174 0.0207174 0.0409821 0.0409821 0.0409821 0.0409821 0.0331524 0.0331524 0.0331524 0.0331524 0.203815 0.203815 0.203815 0.203815 0.0165718 0.0165718 0.0165718 0.0165718 0.131461 0.131461 0.131461 0.131461 0.239147 0.239147 0.239147 0.239147 0.0336729 0.0336729 0.0336729 0.0336729 0.0445636 0.0445636 0.0445636 0.0445636 0.0270521 0.0270521 0.0270521 0.0270521 0.0776052 0.0776052 0.0776052 0.0776052 0.190381 0.190381 0.190381 0.190381 0.0413583 0.0413583 0.0413583 0.0413583 0.051193 0.051193 0.051193 0.051193 0.0298445 0.0298445 0.0298445 0.0298445 0.028403 0.028403 0.028403 0.028403 0.0576171 0.0576171 0.0576171 0.0576171 0.0763103 0.0763103 0.0763103 0.0763103 0.499871 0.499871 0.499871 0.499871 0.0292131 0.0292131 0.0292131 0.0292131 0.0702279 0.0702279 0.0702279 0.0702279 0.029908 0.029908 0.029908 0.029908 0.0303612 0.0303612 0.0303612 0.0303612 0.0676607 0.0676607 0.0676607 0.0676607 0.496676 0.496676 0.496676 0.496676 0.089666 0.089666 0.089666 0.089666 0.0479504 0.0479504 0.0479504 0.0479504 0.034148 0.034148 0.034148 0.034148 0.064328 0.064328 0.064328 0.064328 0.0320573 0.0320573 0.0320573 0.0320573 0.0421435 0.0421435 0.0421435 0.0421435 0.026175 0.026175 0.026175 0.026175 0.0840646 0.0840646 0.0840646 0.0840646 0.0842084 0.0842084 0.0842084 0.0842084 0.0904045 0.0904045 0.0904045 0.0904045 0.0641839 0.0641839 0.0641839 0.0641839 0.101452 0.101452 0.101452 0.101452 0.0989282 0.0989282 0.0989282 0.0989282 0.0976078 0.0976078 0.0976078 0.0976078 0.0786412 0.0786412 0.0786412 0.0786412 0.0977636 0.0977636 0.0977636 0.0977636 0.106065 0.106065 0.106065 0.106065 0.037885 0.037885 0.037885 0.037885 0.10435 0.10435 0.10435 0.10435 0.0434639 0.0434639 0.0434639 0.0434639 0.0961883 0.0961883 0.0961883 0.0961883 0.112228 0.112228 0.112228 0.112228 0.0942432 0.0942432 0.0942432 0.0942432 0.0239439 0.0239439 0.0239439 0.0239439 0.128051 0.128051 0.128051 0.128051 0.102001 0.102001 0.102001 0.102001 0.0668981 0.0668981 0.0668981 0.0668981 0.0910365 0.0910365 0.0910365 0.0910365 0.0291037 0.0291037 0.0291037 0.0291037 -0.000367517 -0.000367517 -0.000367517 -0.000367517 0.0795614 0.0795614 0.0795614 0.0795614 0.0272181 0.0272181 0.0272181 0.0272181 0.087385 0.087385 0.087385 0.087385 0.530328 0.530328 0.530328 0.530328 0.0668222 0.0668222 0.0668222 0.0668222 0.127639 0.127639 0.127639 0.127639 0.0710306 0.0710306 0.0710306 0.0710306 0.0829216 0.0829216 0.0829216 0.0829216 0.0538438 0.0538438 0.0538438 0.0538438 0.0699218 0.0699218 0.0699218 0.0699218 0.067372 0.067372 0.067372 0.067372 0.0747537 0.0747537 0.0747537 0.0747537 0.0709615 0.0709615 0.0709615 0.0709615 0.0629108 0.0629108 0.0629108 0.0629108 0.0292385 0.0292385 0.0292385 0.0292385 0.0655728 0.0655728 0.0655728 0.0655728 0.39226 0.39226 0.39226 0.39226 0.050336 0.050336 0.050336 0.050336 0.0566008 0.0566008 0.0566008 0.0566008 0.0610805 0.0610805 0.0610805 0.0610805 0.104309 0.104309 0.104309 0.104309 0.0295311 0.0295311 0.0295311 0.0295311 0.0305449 0.0305449 0.0305449 0.0305449 0.0687611 0.0687611 0.0687611 0.0687611 0.0684506 0.0684506 0.0684506 0.0684506 0.00833445 0.00833445 0.00833445 0.00833445 0.0155241 0.0155241 0.0155241 0.0155241 0.201455 0.201455 0.201455 0.201455 0.0657428 0.0657428 0.0657428 0.0657428 0.0502007 0.0502007 0.0502007 0.0502007 0.432304 0.432304 0.432304 0.432304 0.00156322 0.00156322 0.00156322 0.00156322 0.191542 0.191542 0.191542 0.191542 0.0273349 0.0273349 0.0273349 0.0273349 0.046229 0.046229 0.046229 0.046229 0.059604 0.059604 0.059604 0.059604 0.0564502 0.0564502 0.0564502 0.0564502 0.00756172 0.00756172 0.00756172 0.00756172 0.181897 0.181897 0.181897 0.181897 0.0369006 0.0369006 0.0369006 0.0369006 0.0325819 0.0325819 0.0325819 0.0325819 0.0256176 0.0256176 0.0256176 0.0256176 0.439726 0.439726 0.439726 0.439726 0.00910574 0.00910574 0.00910574 0.00910574 0.256144 0.256144 0.256144 0.256144 0.187065 0.187065 0.187065 0.187065 0.346523 0.346523 0.346523 0.346523 0.0269956 0.0269956 0.0269956 0.0269956 0.0200019 0.0200019 0.0200019 0.0200019 -0.00396228 -0.00396228 -0.00396228 -0.00396228 0.0688841 0.0688841 0.0688841 0.0688841 0.0193372 0.0193372 0.0193372 0.0193372 0.00381437 0.00381437 0.00381437 0.00381437 0.0241717 0.0241717 0.0241717 0.0241717 0.315475 0.315475 0.315475 0.315475 0.168482 0.168482 0.168482 0.168482 0.0518067 0.0518067 0.0518067 0.0518067 0.215736 0.215736 0.215736 0.215736 0.262645 0.262645 0.262645 0.262645 -0.00210624 -0.00210624 -0.00210624 -0.00210624 -0.00577754 -0.00577754 -0.00577754 -0.00577754 0.199088 0.199088 0.199088 0.199088 0.183049 0.183049 0.183049 0.183049 0.127045 0.127045 0.127045 0.127045 0.0345751 0.0345751 0.0345751 0.0345751 0.459619 0.459619 0.459619 0.459619 0.0501383 0.0501383 0.0501383 0.0501383 0.153119 0.153119 0.153119 0.153119 0.0495872 0.0495872 0.0495872 0.0495872 0.0377885 0.0377885 0.0377885 0.0377885 0.0443715 0.0443715 0.0443715 0.0443715 0.02992 0.02992 0.02992 0.02992 0.00927642 0.00927642 0.00927642 0.00927642 0.0370114 0.0370114 0.0370114 0.0370114 -0.00356641 -0.00356641 -0.00356641 -0.00356641 0.232769 0.232769 0.232769 0.232769 0.179663 0.179663 0.179663 0.179663 0.113632 0.113632 0.113632 0.113632 0.219125 0.219125 0.219125 0.219125 0.404563 0.404563 0.404563 0.404563 0.172959 0.172959 0.172959 0.172959 0.0613509 0.0613509 0.0613509 0.0613509 0.361075 0.361075 0.361075 0.361075 0.0181542 0.0181542 0.0181542 0.0181542 0.0449508 0.0449508 0.0449508 0.0449508 0.187839 0.187839 0.187839 0.187839 0.216738 0.216738 0.216738 0.216738 0.03571 0.03571 0.03571 0.03571 0.262183 0.262183 0.262183 0.262183 0.0261667 0.0261667 0.0261667 0.0261667 0.227985 0.227985 0.227985 0.227985 0.247029 0.247029 0.247029 0.247029 0.0301219 0.0301219 0.0301219 0.0301219 0.304884 0.304884 0.304884 0.304884 0.0272887 0.0272887 0.0272887 0.0272887 0.0452361 0.0452361 0.0452361 0.0452361 0.02291 0.02291 0.02291 0.02291 0.0738557 0.0738557 0.0738557 0.0738557 0.174787 0.174787 0.174787 0.174787 0.165968 0.165968 0.165968 0.165968 0.018473 0.018473 0.018473 0.018473 0.139976 0.139976 0.139976 0.139976 0.0391152 0.0391152 0.0391152 0.0391152 0.0299321 0.0299321 0.0299321 0.0299321 0.0299715 0.0299715 0.0299715 0.0299715 0.0486332 0.0486332 0.0486332 0.0486332 0.0178589 0.0178589 0.0178589 0.0178589 0.141314 0.141314 0.141314 0.141314 0.0736473 0.0736473 0.0736473 0.0736473 0.0171673 0.0171673 0.0171673 0.0171673 0.0745116 0.0745116 0.0745116 0.0745116 0.155016 0.155016 0.155016 0.155016 0.0324078 0.0324078 0.0324078 0.0324078 0.0576357 0.0576357 0.0576357 0.0576357 0.0323276 0.0323276 0.0323276 0.0323276 0.0338223 0.0338223 0.0338223 0.0338223 -0.030238 -0.030238 -0.030238 -0.030238 -0.0420159 -0.0420159 -0.0420159 -0.0420159 0.170967 0.170967 0.170967 0.170967 0.0495616 0.0495616 0.0495616 0.0495616 0.0655309 0.0655309 0.0655309 0.0655309 0.032976 0.032976 0.032976 0.032976 0.0433447 0.0433447 0.0433447 0.0433447 0.0677388 0.0677388 0.0677388 0.0677388 0.0596487 0.0596487 0.0596487 0.0596487 -0.128282 -0.128282 -0.128282 -0.128282 -0.134263 -0.134263 -0.134263 -0.134263 -0.16701 -0.16701 -0.16701 -0.16701 -0.154918 -0.154918 -0.154918 -0.154918 0.109691 0.109691 0.109691 0.109691 0.0708354 0.0708354 0.0708354 0.0708354 0.0480333 0.0480333 0.0480333 0.0480333 0.0196196 0.0196196 0.0196196 0.0196196 0.0266101 0.0266101 0.0266101 0.0266101 0.0152219 0.0152219 0.0152219 0.0152219 0.383271 0.383271 0.383271 0.383271 0.36112 0.36112 0.36112 0.36112 0.000988302 0.000988302 0.000988302 0.000988302 0.227861 0.227861 0.227861 0.227861 -0.0496567 -0.0496567 -0.0496567 -0.0496567 0.150779 0.150779 0.150779 0.150779 0.117214 0.117214 0.117214 0.117214 -0.0130212 -0.0130212 -0.0130212 -0.0130212 0.160226 0.160226 0.160226 0.160226 0.0811607 0.0811607 0.0811607 0.0811607 -0.00116236 -0.00116236 -0.00116236 -0.00116236 0.0909512 0.0909512 0.0909512 0.0909512 0.00541431 0.00541431 0.00541431 0.00541431 0.135105 0.135105 0.135105 0.135105 0.0453148 0.0453148 0.0453148 0.0453148 0.0347673 0.0347673 0.0347673 0.0347673 0.112438 0.112438 0.112438 0.112438 0.0128576 0.0128576 0.0128576 0.0128576 0.141746 0.141746 0.141746 0.141746 0.0140977 0.0140977 0.0140977 0.0140977 
SCALARS StressZ float 
LOOKUP_TABLE default
100.05 100.05 100.05 100.05 100.048 100.048 100.048 100.048 100.044 100.044 100.044 100.044 100.04 100.04 100.04 100.04 100.04 100.04 100.04 100.04 100.049 100.049 100.049 100.049 100.022 100.022 100.022 100.022 100.044 100.044 100.044 100.044 100.047 100.047 100.047 100.047 100.044 100.044 100.044 100.044 100.036 100.036 100.036 100.036 100.05 100.05 100.05 100.05 100.017 100.017 100.017 100.017 100.059 100.059 100.059 100.059 100.013 100.013 100.013 100.013 100.017 100.017 100.017 100.017 100.046 100.046 100.046 100.046 100.028 100.028 100.028 100.028 100.037 100.037 100.037 100.037 100.015 100.015 100.015 100.015 100.045 100.045 100.045 100.045 100.043 100.043 100.043 100.043 100.038 100.038 100.038 100.038 100.053 100.053 100.053 100.053 99.8866 99.8866 99.8866 99.8866 100.03 100.03 100.03 100.03 100.019 100.019 100.019 100.019 100.04 100.04 100.04 100.04 100.044 100.044 100.044 100.044 100.013 100.013 100.013 100.013 100.038 100.038 100.038 100.038 99.9545 99.9545 99.9545 99.9545 100.04 100.04 100.04 100.04 100.028 100.028 100.028 100.028 100.017 100.017 100.017 100.017 100.037 100.037 100.037 100.037 99.9739 99.9739 99.9739 99.9739 100.023 100.023 100.023 100.023 100.052 100.052 100.052 100.052 100.059 100.059 100.059 100.059 100.04 100.04 100.04 100.04 99.8787 99.8787 99.8787 99.8787 100.028 100.028 100.028 100.028 100.05 100.05 100.05 100.05 100.049 100.049 100.049 100.049 100.036 100.036 100.036 100.036 100.006 100.006 100.006 100.006 100.044 100.044 100.044 100.044 100.05 100.05 100.05 100.05 100.017 100.017 100.017 100.017 100.044 100.044 100.044 100.044 100.019 100.019 100.019 100.019 100.044 100.044 100.044 100.044 100.017 100.017 100.017 100.017 100.046 100.046 100.046 100.046 100.05 100.05 100.05 100.05 100.044 100.044 100.044 100.044 100.017 100.017 100.017 100.017 100.006 100.006 100.006 100.006 100.022 100.022 100.022 100.022 100.046 100.046 100.046 100.046 100.018 100.018 100.018 100.018 100.033 100.033 100.033 100.033 100.05 100.05 100.05 100.05 100.053 100.053 100.053 100.053 100.047 100.047 100.047 100.047 100.017 100.017 100.017 100.017 100.022 100.022 100.022 100.022 100.03 100.03 100.03 100.03 100.011 100.011 100.011 100.011 100.041 100.041 100.041 100.041 100.038 100.038 100.038 100.038 100.041 100.041 100.041 100.041 100.046 100.046 100.046 100.046 99.9829 99.9829 99.9829 99.9829 100.019 100.019 100.019 100.019 99.9739 99.9739 99.9739 99.9739 99.9634 99.9634 99.9634 99.9634 100.052 100.052 100.052 100.052 100.043 100.043 100.043 100.043 100.027 100.027 100.027 100.027 100.046 100.046 100.046 100.046 99.975 99.975 99.975 99.975 100.045 100.045 100.045 100.045 100.051 100.051 100.051 100.051 100.011 100.011 100.011 100.011 100.027 100.027 100.027 100.027 100.038 100.038 100.038 100.038 99.8867 99.8867 99.8867 99.8867 100.051 100.051 100.051 100.051 100.02 100.02 100.02 100.02 100.045 100.045 100.045 100.045 99.9458 99.9458 99.9458 99.9458 100.042 100.042 100.042 100.042 100.048 100.048 100.048 100.048 99.9182 99.9182 99.9182 99.9182 100.052 100.052 100.052 100.052 100.055 100.055 100.055 100.055 100.051 100.051 100.051 100.051 100.028 100.028 100.028 100.028 100.047 100.047 100.047 100.047 99.9566 99.9566 99.9566 99.9566 99.9934 99.9934 99.9934 99.9934 99.6208 99.6208 99.6208 99.6208 100.051 100.051 100.051 100.051 99.8544 99.8544 99.8544 99.8544 99.991 99.991 99.991 99.991 100.033 100.033 100.033 100.033 99.6274 99.6274 99.6274 99.6274 100.023 100.023 100.023 100.023 100.036 100.036 100.036 100.036 100.005 100.005 100.005 100.005 100.028 100.028 100.028 100.028 100.019 100.019 100.019 100.019 99.8862 99.8862 99.8862 99.8862 100.028 100.028 100.028 100.028 100.052 100.052 100.052 100.052 100.04 100.04 100.04 100.04 100.053 100.053 100.053 100.053 100.048 100.048 100.048 100.048 100.024 100.024 100.024 100.024 100.046 100.046 100.046 100.046 100.045 100.045 100.045 100.045 100.04 100.04 100.04 100.04 100.045 100.045 100.045 100.045 100.041 100.041 100.041 100.041 99.6188 99.6188 99.6188 99.6188 100.055 100.055 100.055 100.055 99.9038 99.9038 99.9038 99.9038 100.045 100.045 100.045 100.045 100.042 100.042 100.042 100.042 100.046 100.046 100.046 100.046 100.017 100.017 100.017 100.017 99.9876 99.9876 99.9876 99.9876 100.029 100.029 100.029 100.029 100.054 100.054 100.054 100.054 100.053 100.053 100.053 100.053 99.6192 99.6192 99.6192 99.6192 99.8645 99.8645 99.8645 99.8645 100.016 100.016 100.016 100.016 100.048 100.048 100.048 100.048 100.012 100.012 100.012 100.012 100.038 100.038 100.038 100.038 99.8843 99.8843 99.8843 99.8843 100.046 100.046 100.046 100.046 100.018 100.018 100.018 100.018 100.055 100.055 100.055 100.055 99.9649 99.9649 99.9649 99.9649 99.602 99.602 99.602 99.602 99.9676 99.9676 99.9676 99.9676 100.048 100.048 100.048 100.048 100.05 100.05 100.05 100.05 99.9992 99.9992 99.9992 99.9992 100.048 100.048 100.048 100.048 100.05 100.05 100.05 100.05 99.9937 99.9937 99.9937 99.9937 100.032 100.032 100.032 100.032 99.9992 99.9992 99.9992 99.9992 99.9898 99.9898 99.9898 99.9898 100.041 100.041 100.041 100.041 99.9744 99.9744 99.9744 99.9744 100.04 100.04 100.04 100.04 100.047 100.047 100.047 100.047 99.847 99.847 99.847 99.847 100.001 100.001 100.001 100.001 99.9774 99.9774 99.9774 99.9774 100.021 100.021 100.021 100.021 100.045 100.045 100.045 100.045 100.008 100.008 100.008 100.008 100.041 100.041 100.041 100.041 100.019 100.019 100.019 100.019 99.8557 99.8557 99.8557 99.8557 100.058 100.058 100.058 100.058 100.011 100.011 100.011 100.011 100.049 100.049 100.049 100.049 100.003 100.003 100.003 100.003 99.9645 99.9645 99.9645 99.9645 99.8403 99.8403 99.8403 99.8403 100.045 100.045 100.045 100.045 100.038 100.038 100.038 100.038 100.041 100.041 100.041 100.041 100.044 100.044 100.044 100.044 100.027 100.027 100.027 100.027 99.902 99.902 99.902 99.902 99.8354 99.8354 99.8354 99.8354 100.039 100.039 100.039 100.039 99.9045 99.9045 99.9045 99.9045 100.013 100.013 100.013 100.013 100.038 100.038 100.038 100.038 99.707 99.707 99.707 99.707 100.031 100.031 100.031 100.031 99.7037 99.7037 99.7037 99.7037 100.051 100.051 100.051 100.051 99.902 99.902 99.902 99.902 99.6718 99.6718 99.6718 99.6718 100.047 100.047 100.047 100.047 100.039 100.039 100.039 100.039 100.05 100.05 100.05 100.05 99.6241 99.6241 99.6241 99.6241 99.8571 99.8571 99.8571 99.8571 99.9464 99.9464 99.9464 99.9464 99.6316 99.6316 99.6316 99.6316 100.026 100.026 100.026 100.026 100.049 100.049 100.049 100.049 100 100 100 100 99.7292 99.7292 99.7292 99.7292 100.044 100.044 100.044 100.044 100.045 100.045 100.045 100.045 99.9949 99.9949 99.9949 99.9949 100.042 100.042 100.042 100.042 99.9998 99.9998 99.9998 99.9998 100.027 100.027 100.027 100.027 99.9849 99.9849 99.9849 99.9849 99.6293 99.6293 99.6293 99.6293 99.9989 99.9989 99.9989 99.9989 100.051 100.051 100.051 100.051 99.724 99.724 99.724 99.724 100.014 100.014 100.014 100.014 99.9735 99.9735 99.9735 99.9735 100.001 100.001 100.001 100.001 100.007 100.007 100.007 100.007 100.021 100.021 100.021 100.021 99.9061 99.9061 99.9061 99.9061 100.048 100.048 100.048 100.048 99.9739 99.9739 99.9739 99.9739 100.005 100.005 100.005 100.005 99.9891 99.9891 99.9891 99.9891 100.008 100.008 100.008 100.008 99.9666 99.9666 99.9666 99.9666 100.027 100.027 100.027 100.027 100.047 100.047 100.047 100.047 100.051 100.051 100.051 100.051 100.001 100.001 100.001 100.001 100.049 100.049 100.049 100.049 99.7484 99.7484 99.7484 99.7484 100.041 100.041 100.041 100.041 99.8734 99.8734 99.8734 99.8734 100.057 100.057 100.057 100.057 100.009 100.009 100.009 100.009 100.04 100.04 100.04 100.04 100.049 100.049 100.049 100.049 100.031 100.031 100.031 100.031 100.014 100.014 100.014 100.014 100.001 100.001 100.001 100.001 100.044 100.044 100.044 100.044 99.6718 99.6718 99.6718 99.6718 100.049 100.049 100.049 100.049 99.9861 99.9861 99.9861 99.9861 99.9824 99.9824 99.9824 99.9824 100.056 100.056 100.056 100.056 99.9434 99.9434 99.9434 99.9434 100.049 100.049 100.049 100.049 100.008 100.008 100.008 100.008 100.047 100.047 100.047 100.047 99.9454 99.9454 99.9454 99.9454 99.931 99.931 99.931 99.931 100.053 100.053 100.053 100.053 100.043 100.043 100.043 100.043 99.9535 99.9535 99.9535 99.9535 100.059 100.059 100.059 100.059 99.9724 99.9724 99.9724 99.9724 99.6151 99.6151 99.6151 99.6151 99.9808 99.9808 99.9808 99.9808 99.8513 99.8513 99.8513 99.8513 99.6101 99.6101 99.6101 99.6101 99.6795 99.6795 99.6795 99.6795 100.017 100.017 100.017 100.017 99.8954 99.8954 99.8954 99.8954 99.9675 99.9675 99.9675 99.9675 99.97 99.97 99.97 99.97 100.05 100.05 100.05 100.05 99.901 99.901 99.901 99.901 100.011 100.011 100.011 100.011 100.005 100.005 100.005 100.005 100.017 100.017 100.017 100.017 99.9864 99.9864 99.9864 99.9864 99.9993 99.9993 99.9993 99.9993 99.8219 99.8219 99.8219 99.8219 99.6428 99.6428 99.6428 99.6428 100.024 100.024 100.024 100.024 99.9712 99.9712 99.9712 99.9712 99.9648 99.9648 99.9648 99.9648 99.9918 99.9918 99.9918 99.9918 99.984 99.984 99.984 99.984 100.042 100.042 100.042 100.042 99.8843 99.8843 99.8843 99.8843 99.927 99.927 99.927 99.927 100.027 100.027 100.027 100.027 99.9186 99.9186 99.9186 99.9186 99.6684 99.6684 99.6684 99.6684 100.005 100.005 100.005 100.005 100.047 100.047 100.047 100.047 99.6593 99.6593 99.6593 99.6593 99.9527 99.9527 99.9527 99.9527 99.8385 99.8385 99.8385 99.8385 99.9956 99.9956 99.9956 99.9956 99.7445 99.7445 99.7445 99.7445 100.059 100.059 100.059 100.059 99.973 99.973 99.973 99.973 100.052 100.052 100.052 100.052 100.045 100.045 100.045 100.045 99.9814 99.9814 99.9814 99.9814 100.05 100.05 100.05 100.05 99.6146 99.6146 99.6146 99.6146 99.6752 99.6752 99.6752 99.6752 100.023 100.023 100.023 100.023 100.007 100.007 100.007 100.007 99.6932 99.6932 99.6932 99.6932 99.7127 99.7127 99.7127 99.7127 99.5879 99.5879 99.5879 99.5879 100.051 100.051 100.051 100.051 100.056 100.056 100.056 100.056 99.961 99.961 99.961 99.961 100.051 100.051 100.051 100.051 99.6796 99.6796 99.6796 99.6796 99.6898 99.6898 99.6898 99.6898 99.7436 99.7436 99.7436 99.7436 99.6851 99.6851 99.6851 99.6851 99.5937 99.5937 99.5937 99.5937 99.7019 99.7019 99.7019 99.7019 99.7079 99.7079 99.7079 99.7079 99.6021 99.6021 99.6021 99.6021 100.05 100.05 100.05 100.05 99.6547 99.6547 99.6547 99.6547 99.9767 99.9767 99.9767 99.9767 100.033 100.033 100.033 100.033 99.7075 99.7075 99.7075 99.7075 99.6113 99.6113 99.6113 99.6113 100.032 100.032 100.032 100.032 99.6417 99.6417 99.6417 99.6417 99.9155 99.9155 99.9155 99.9155 99.8836 99.8836 99.8836 99.8836 99.9156 99.9156 99.9156 99.9156 99.9745 99.9745 99.9745 99.9745 100.053 100.053 100.053 100.053 99.8574 99.8574 99.8574 99.8574 99.7198 99.7198 99.7198 99.7198 99.6845 99.6845 99.6845 99.6845 100.051 100.051 100.051 100.051 99.6839 99.6839 99.6839 99.6839 100.024 100.024 100.024 100.024 99.8553 99.8553 99.8553 99.8553 99.9439 99.9439 99.9439 99.9439 99.6103 99.6103 99.6103 99.6103 99.9281 99.9281 99.9281 99.9281 99.899 99.899 99.899 99.899 99.9031 99.9031 99.9031 99.9031 99.6933 99.6933 99.6933 99.6933 99.7043 99.7043 99.7043 99.7043 99.6717 99.6717 99.6717 99.6717 100.038 100.038 100.038 100.038 100.052 100.052 100.052 100.052 100.007 100.007 100.007 100.007 100.047 100.047 100.047 100.047 100.033 100.033 100.033 100.033 99.6684 99.6684 99.6684 99.6684 99.5931 99.5931 99.5931 99.5931 99.6933 99.6933 99.6933 99.6933 99.8709 99.8709 99.8709 99.8709 100.024 100.024 100.024 100.024 99.6687 99.6687 99.6687 99.6687 99.7118 99.7118 99.7118 99.7118 99.8644 99.8644 99.8644 99.8644 100.021 100.021 100.021 100.021 99.6197 99.6197 99.6197 99.6197 99.6675 99.6675 99.6675 99.6675 99.9638 99.9638 99.9638 99.9638 99.8828 99.8828 99.8828 99.8828 100.052 100.052 100.052 100.052 99.8456 99.8456 99.8456 99.8456 100.011 100.011 100.011 100.011 99.6842 99.6842 99.6842 99.6842 99.6947 99.6947 99.6947 99.6947 100.052 100.052 100.052 100.052 100.047 100.047 100.047 100.047 99.7093 99.7093 99.7093 99.7093 100.048 100.048 100.048 100.048 99.8835 99.8835 99.8835 99.8835 99.8856 99.8856 99.8856 99.8856 99.9271 99.9271 99.9271 99.9271 99.9094 99.9094 99.9094 99.9094 99.7522 99.7522 99.7522 99.7522 100.059 100.059 100.059 100.059 99.6515 99.6515 99.6515 99.6515 100.018 100.018 100.018 100.018 99.9019 99.9019 99.9019 99.9019 99.6556 99.6556 99.6556 99.6556 99.9885 99.9885 99.9885 99.9885 99.7447 99.7447 99.7447 99.7447 99.7484 99.7484 99.7484 99.7484 99.8673 99.8673 99.8673 99.8673 99.9067 99.9067 99.9067 99.9067 99.7133 99.7133 99.7133 99.7133 100.019 100.019 100.019 100.019 99.958 99.958 99.958 99.958 99.6904 99.6904 99.6904 99.6904 99.6845 99.6845 99.6845 99.6845 100.05 100.05 100.05 100.05 100.016 100.016 100.016 100.016 99.887 99.887 99.887 99.887 99.6962 99.6962 99.6962 99.6962 99.8887 99.8887 99.8887 99.8887 99.6092 99.6092 99.6092 99.6092 99.9822 99.9822 99.9822 99.9822 100.052 100.052 100.052 100.052 99.6708 99.6708 99.6708 99.6708 99.887 99.887 99.887 99.887 99.8474 99.8474 99.8474 99.8474 100.041 100.041 100.041 100.041 99.6866 99.6866 99.6866 99.6866 99.7673 99.7673 99.7673 99.7673 99.6367 99.6367 99.6367 99.6367 99.9826 99.9826 99.9826 99.9826 99.9404 99.9404 99.9404 99.9404 99.7112 99.7112 99.7112 99.7112 99.9044 99.9044 99.9044 99.9044 100.052 100.052 100.052 100.052 99.9078 99.9078 99.9078 99.9078 99.611 99.611 99.611 99.611 99.974 99.974 99.974 99.974 99.9833 99.9833 99.9833 99.9833 99.7439 99.7439 99.7439 99.7439 100.047 100.047 100.047 100.047 100.019 100.019 100.019 100.019 99.9491 99.9491 99.9491 99.9491 99.637 99.637 99.637 99.637 99.6902 99.6902 99.6902 99.6902 99.8293 99.8293 99.8293 99.8293 99.6872 99.6872 99.6872 99.6872 99.8825 99.8825 99.8825 99.8825 99.6359 99.6359 99.6359 99.6359 99.7179 99.7179 99.7179 99.7179 99.9154 99.9154 99.9154 99.9154 100.04 100.04 100.04 100.04 99.9932 99.9932 99.9932 99.9932 99.668 99.668 99.668 99.668 99.8499 99.8499 99.8499 99.8499 99.9743 99.9743 99.9743 99.9743 99.9948 99.9948 99.9948 99.9948 99.6975 99.6975 99.6975 99.6975 99.8023 99.8023 99.8023 99.8023 99.6387 99.6387 99.6387 99.6387 100.053 100.053 100.053 100.053 99.695 99.695 99.695 99.695 99.7973 99.7973 99.7973 99.7973 100.036 100.036 100.036 100.036 99.9006 99.9006 99.9006 99.9006 99.7105 99.7105 99.7105 99.7105 100.052 100.052 100.052 100.052 99.8917 99.8917 99.8917 99.8917 99.914 99.914 99.914 99.914 99.6686 99.6686 99.6686 99.6686 99.644 99.644 99.644 99.644 99.8382 99.8382 99.8382 99.8382 100.039 100.039 100.039 100.039 99.6592 99.6592 99.6592 99.6592 99.9041 99.9041 99.9041 99.9041 99.7366 99.7366 99.7366 99.7366 99.9037 99.9037 99.9037 99.9037 100.048 100.048 100.048 100.048 100.053 100.053 100.053 100.053 100.05 100.05 100.05 100.05 99.6765 99.6765 99.6765 99.6765 100.052 100.052 100.052 100.052 99.9538 99.9538 99.9538 99.9538 99.9597 99.9597 99.9597 99.9597 99.6113 99.6113 99.6113 99.6113 99.8868 99.8868 99.8868 99.8868 99.6841 99.6841 99.6841 99.6841 100.049 100.049 100.049 100.049 99.902 99.902 99.902 99.902 99.8614 99.8614 99.8614 99.8614 99.978 99.978 99.978 99.978 99.6707 99.6707 99.6707 99.6707 100.049 100.049 100.049 100.049 99.7429 99.7429 99.7429 99.7429 99.6776 99.6776 99.6776 99.6776 99.6837 99.6837 99.6837 99.6837 99.6717 99.6717 99.6717 99.6717 99.6973 99.6973 99.6973 99.6973 99.6935 99.6935 99.6935 99.6935 99.9266 99.9266 99.9266 99.9266 99.7057 99.7057 99.7057 99.7057 99.7153 99.7153 99.7153 99.7153 99.8148 99.8148 99.8148 99.8148 99.7028 99.7028 99.7028 99.7028 100.048 100.048 100.048 100.048 100.051 100.051 100.051 100.051 99.8219 99.8219 99.8219 99.8219 100.048 100.048 100.048 100.048 99.6134 99.6134 99.6134 99.6134 99.664 99.664 99.664 99.664 99.9567 99.9567 99.9567 99.9567 99.668 99.668 99.668 99.668 100.052 100.052 100.052 100.052 99.9249 99.9249 99.9249 99.9249 100.026 100.026 100.026 100.026 99.736 99.736 99.736 99.736 99.8697 99.8697 99.8697 99.8697 99.973 99.973 99.973 99.973 100.055 100.055 100.055 100.055 99.9804 99.9804 99.9804 99.9804 99.9604 99.9604 99.9604 99.9604 99.8679 99.8679 99.8679 99.8679 99.8773 99.8773 99.8773 99.8773 99.7439 99.7439 99.7439 99.7439 99.9295 99.9295 99.9295 99.9295 99.9673 99.9673 99.9673 99.9673 99.6545 99.6545 99.6545 99.6545 99.9408 99.9408 99.9408 99.9408 99.8952 99.8952 99.8952 99.8952 100.049 100.049 100.049 100.049 100.047 100.047 100.047 100.047 99.9488 99.9488 99.9488 99.9488 99.6634 99.6634 99.6634 99.6634 99.9123 99.9123 99.9123 99.9123 99.9018 99.9018 99.9018 99.9018 99.9877 99.9877 99.9877 99.9877 99.8496 99.8496 99.8496 99.8496 99.7378 99.7378 99.7378 99.7378 99.8986 99.8986 99.8986 99.8986 99.8763 99.8763 99.8763 99.8763 99.926 99.926 99.926 99.926 99.644 99.644 99.644 99.644 99.8458 99.8458 99.8458 99.8458 99.8338 99.8338 99.8338 99.8338 99.8338 99.8338 99.8338 99.8338 99.8688 99.8688 99.8688 99.8688 99.7479 99.7479 99.7479 99.7479 99.8284 99.8284 99.8284 99.8284 99.9793 99.9793 99.9793 99.9793 99.6009 99.6009 99.6009 99.6009 99.9965 99.9965 99.9965 99.9965 99.6579 99.6579 99.6579 99.6579 99.6562 99.6562 99.6562 99.6562 99.6203 99.6203 99.6203 99.6203 99.7033 99.7033 99.7033 99.7033 99.6234 99.6234 99.6234 99.6234 99.9416 99.9416 99.9416 99.9416 99.7456 99.7456 99.7456 99.7456 99.7408 99.7408 99.7408 99.7408 99.9712 99.9712 99.9712 99.9712 99.6635 99.6635 99.6635 99.6635 99.9701 99.9701 99.9701 99.9701 99.9604 99.9604 99.9604 99.9604 99.9693 99.9693 99.9693 99.9693 99.6535 99.6535 99.6535 99.6535 99.9022 99.9022 99.9022 99.9022 100.046 100.046 100.046 100.046 99.934 99.934 99.934 99.934 100.047 100.047 100.047 100.047 99.9051 99.9051 99.9051 99.9051 99.6477 99.6477 99.6477 99.6477 99.8885 99.8885 99.8885 99.8885 99.4257 99.4257 99.4257 99.4257 99.7211 99.7211 99.7211 99.7211 100.018 100.018 100.018 100.018 99.6931 99.6931 99.6931 99.6931 99.9603 99.9603 99.9603 99.9603 99.7415 99.7415 99.7415 99.7415 100.026 100.026 100.026 100.026 99.978 99.978 99.978 99.978 99.8453 99.8453 99.8453 99.8453 99.7034 99.7034 99.7034 99.7034 99.9841 99.9841 99.9841 99.9841 100.036 100.036 100.036 100.036 99.7607 99.7607 99.7607 99.7607 99.7148 99.7148 99.7148 99.7148 99.3767 99.3767 99.3767 99.3767 99.6892 99.6892 99.6892 99.6892 99.8043 99.8043 99.8043 99.8043 99.6381 99.6381 99.6381 99.6381 99.7041 99.7041 99.7041 99.7041 99.8304 99.8304 99.8304 99.8304 99.7118 99.7118 99.7118 99.7118 100.05 100.05 100.05 100.05 99.8533 99.8533 99.8533 99.8533 100.023 100.023 100.023 100.023 99.7357 99.7357 99.7357 99.7357 100.035 100.035 100.035 100.035 100.055 100.055 100.055 100.055 100.052 100.052 100.052 100.052 100.003 100.003 100.003 100.003 99.8812 99.8812 99.8812 99.8812 99.7087 99.7087 99.7087 99.7087 99.8466 99.8466 99.8466 99.8466 99.9156 99.9156 99.9156 99.9156 99.6962 99.6962 99.6962 99.6962 99.7285 99.7285 99.7285 99.7285 99.8399 99.8399 99.8399 99.8399 99.9789 99.9789 99.9789 99.9789 100.053 100.053 100.053 100.053 99.6615 99.6615 99.6615 99.6615 99.6808 99.6808 99.6808 99.6808 99.7487 99.7487 99.7487 99.7487 99.6386 99.6386 99.6386 99.6386 100.047 100.047 100.047 100.047 99.6519 99.6519 99.6519 99.6519 99.8453 99.8453 99.8453 99.8453 99.9793 99.9793 99.9793 99.9793 99.3572 99.3572 99.3572 99.3572 100.013 100.013 100.013 100.013 100.052 100.052 100.052 100.052 99.9726 99.9726 99.9726 99.9726 99.9712 99.9712 99.9712 99.9712 99.7498 99.7498 99.7498 99.7498 100.05 100.05 100.05 100.05 99.973 99.973 99.973 99.973 99.9726 99.9726 99.9726 99.9726 100.053 100.053 100.053 100.053 99.4931 99.4931 99.4931 99.4931 99.8119 99.8119 99.8119 99.8119 99.7606 99.7606 99.7606 99.7606 99.726 99.726 99.726 99.726 99.6727 99.6727 99.6727 99.6727 99.6904 99.6904 99.6904 99.6904 99.3387 99.3387 99.3387 99.3387 99.8478 99.8478 99.8478 99.8478 99.6742 99.6742 99.6742 99.6742 99.9822 99.9822 99.9822 99.9822 99.4861 99.4861 99.4861 99.4861 99.4341 99.4341 99.4341 99.4341 99.7046 99.7046 99.7046 99.7046 100.042 100.042 100.042 100.042 99.713 99.713 99.713 99.713 99.7437 99.7437 99.7437 99.7437 99.6885 99.6885 99.6885 99.6885 99.7597 99.7597 99.7597 99.7597 99.7963 99.7963 99.7963 99.7963 99.905 99.905 99.905 99.905 100.059 100.059 100.059 100.059 99.3129 99.3129 99.3129 99.3129 99.9805 99.9805 99.9805 99.9805 99.7157 99.7157 99.7157 99.7157 100.049 100.049 100.049 100.049 99.3846 99.3846 99.3846 99.3846 99.7677 99.7677 99.7677 99.7677 99.7674 99.7674 99.7674 99.7674 99.3908 99.3908 99.3908 99.3908 99.4272 99.4272 99.4272 99.4272 99.8697 99.8697 99.8697 99.8697 99.7047 99.7047 99.7047 99.7047 99.9804 99.9804 99.9804 99.9804 99.8345 99.8345 99.8345 99.8345 99.8456 99.8456 99.8456 99.8456 99.5038 99.5038 99.5038 99.5038 99.9452 99.9452 99.9452 99.9452 99.7968 99.7968 99.7968 99.7968 100.058 100.058 100.058 100.058 99.8453 99.8453 99.8453 99.8453 99.4441 99.4441 99.4441 99.4441 99.7026 99.7026 99.7026 99.7026 100.044 100.044 100.044 100.044 99.7157 99.7157 99.7157 99.7157 99.9286 99.9286 99.9286 99.9286 100.045 100.045 100.045 100.045 99.7115 99.7115 99.7115 99.7115 99.8458 99.8458 99.8458 99.8458 99.9457 99.9457 99.9457 99.9457 99.9284 99.9284 99.9284 99.9284 99.4859 99.4859 99.4859 99.4859 99.7147 99.7147 99.7147 99.7147 100.048 100.048 100.048 100.048 99.428 99.428 99.428 99.428 99.6616 99.6616 99.6616 99.6616 99.4423 99.4423 99.4423 99.4423 99.6532 99.6532 99.6532 99.6532 99.399 99.399 99.399 99.399 99.4011 99.4011 99.4011 99.4011 99.9154 99.9154 99.9154 99.9154 99.967 99.967 99.967 99.967 99.9131 99.9131 99.9131 99.9131 100.053 100.053 100.053 100.053 99.934 99.934 99.934 99.934 99.3543 99.3543 99.3543 99.3543 99.3874 99.3874 99.3874 99.3874 99.6727 99.6727 99.6727 99.6727 99.6838 99.6838 99.6838 99.6838 99.3665 99.3665 99.3665 99.3665 99.6986 99.6986 99.6986 99.6986 99.9026 99.9026 99.9026 99.9026 99.6728 99.6728 99.6728 99.6728 99.4298 99.4298 99.4298 99.4298 99.4675 99.4675 99.4675 99.4675 100.052 100.052 100.052 100.052 99.3305 99.3305 99.3305 99.3305 99.3623 99.3623 99.3623 99.3623 99.865 99.865 99.865 99.865 100.052 100.052 100.052 100.052 99.7423 99.7423 99.7423 99.7423 99.7325 99.7325 99.7325 99.7325 99.2248 99.2248 99.2248 99.2248 99.4076 99.4076 99.4076 99.4076 99.3745 99.3745 99.3745 99.3745 99.8812 99.8812 99.8812 99.8812 99.9092 99.9092 99.9092 99.9092 99.7238 99.7238 99.7238 99.7238 99.6964 99.6964 99.6964 99.6964 99.9213 99.9213 99.9213 99.9213 99.9067 99.9067 99.9067 99.9067 100.053 100.053 100.053 100.053 99.7322 99.7322 99.7322 99.7322 99.3835 99.3835 99.3835 99.3835 100.05 100.05 100.05 100.05 99.7196 99.7196 99.7196 99.7196 99.5009 99.5009 99.5009 99.5009 99.8031 99.8031 99.8031 99.8031 100.05 100.05 100.05 100.05 99.2639 99.2639 99.2639 99.2639 99.6986 99.6986 99.6986 99.6986 99.4987 99.4987 99.4987 99.4987 100.033 100.033 100.033 100.033 99.9387 99.9387 99.9387 99.9387 99.7782 99.7782 99.7782 99.7782 99.8688 99.8688 99.8688 99.8688 99.4718 99.4718 99.4718 99.4718 99.6678 99.6678 99.6678 99.6678 99.4489 99.4489 99.4489 99.4489 99.9941 99.9941 99.9941 99.9941 99.6884 99.6884 99.6884 99.6884 99.476 99.476 99.476 99.476 99.3011 99.3011 99.3011 99.3011 99.4866 99.4866 99.4866 99.4866 99.9002 99.9002 99.9002 99.9002 99.2396 99.2396 99.2396 99.2396 99.7422 99.7422 99.7422 99.7422 99.2311 99.2311 99.2311 99.2311 100.05 100.05 100.05 100.05 99.6655 99.6655 99.6655 99.6655 99.4938 99.4938 99.4938 99.4938 99.7926 99.7926 99.7926 99.7926 99.8344 99.8344 99.8344 99.8344 99.9022 99.9022 99.9022 99.9022 99.9298 99.9298 99.9298 99.9298 99.2402 99.2402 99.2402 99.2402 99.3042 99.3042 99.3042 99.3042 99.8774 99.8774 99.8774 99.8774 99.8686 99.8686 99.8686 99.8686 99.9912 99.9912 99.9912 99.9912 99.8745 99.8745 99.8745 99.8745 99.4897 99.4897 99.4897 99.4897 99.4668 99.4668 99.4668 99.4668 99.4363 99.4363 99.4363 99.4363 99.9722 99.9722 99.9722 99.9722 99.9026 99.9026 99.9026 99.9026 99.8173 99.8173 99.8173 99.8173 99.858 99.858 99.858 99.858 99.3906 99.3906 99.3906 99.3906 99.931 99.931 99.931 99.931 99.2502 99.2502 99.2502 99.2502 99.3994 99.3994 99.3994 99.3994 99.4321 99.4321 99.4321 99.4321 99.4843 99.4843 99.4843 99.4843 100.05 100.05 100.05 100.05 99.8557 99.8557 99.8557 99.8557 100.05 100.05 100.05 100.05 99.8562 99.8562 99.8562 99.8562 100.044 100.044 100.044 100.044 100.056 100.056 100.056 100.056 99.8638 99.8638 99.8638 99.8638 99.4341 99.4341 99.4341 99.4341 99.9037 99.9037 99.9037 99.9037 99.4877 99.4877 99.4877 99.4877 99.8458 99.8458 99.8458 99.8458 99.4743 99.4743 99.4743 99.4743 99.4969 99.4969 99.4969 99.4969 99.2671 99.2671 99.2671 99.2671 99.9162 99.9162 99.9162 99.9162 99.8817 99.8817 99.8817 99.8817 100.052 100.052 100.052 100.052 99.8533 99.8533 99.8533 99.8533 99.462 99.462 99.462 99.462 99.4833 99.4833 99.4833 99.4833 99.3622 99.3622 99.3622 99.3622 99.2943 99.2943 99.2943 99.2943 99.7292 99.7292 99.7292 99.7292 99.3718 99.3718 99.3718 99.3718 99.528 99.528 99.528 99.528 99.1557 99.1557 99.1557 99.1557 99.8868 99.8868 99.8868 99.8868 99.4454 99.4454 99.4454 99.4454 99.407 99.407 99.407 99.407 99.4291 99.4291 99.4291 99.4291 99.3096 99.3096 99.3096 99.3096 99.733 99.733 99.733 99.733 99.2964 99.2964 99.2964 99.2964 99.4987 99.4987 99.4987 99.4987 99.4668 99.4668 99.4668 99.4668 100.047 100.047 100.047 100.047 99.4877 99.4877 99.4877 99.4877 100.042 100.042 100.042 100.042 99.4822 99.4822 99.4822 99.4822 99.2926 99.2926 99.2926 99.2926 99.8478 99.8478 99.8478 99.8478 99.3278 99.3278 99.3278 99.3278 99.7402 99.7402 99.7402 99.7402 100.046 100.046 100.046 100.046 99.2736 99.2736 99.2736 99.2736 99.3469 99.3469 99.3469 99.3469 100.049 100.049 100.049 100.049 99.4503 99.4503 99.4503 99.4503 99.858 99.858 99.858 99.858 99.9405 99.9405 99.9405 99.9405 99.2665 99.2665 99.2665 99.2665 99.395 99.395 99.395 99.395 99.4135 99.4135 99.4135 99.4135 100.042 100.042 100.042 100.042 99.4522 99.4522 99.4522 99.4522 99.9213 99.9213 99.9213 99.9213 99.367 99.367 99.367 99.367 99.4897 99.4897 99.4897 99.4897 100.035 100.035 100.035 100.035 99.4926 99.4926 99.4926 99.4926 100.045 100.045 100.045 100.045 100.046 100.046 100.046 100.046 100.06 100.06 100.06 100.06 99.4127 99.4127 99.4127 99.4127 99.4801 99.4801 99.4801 99.4801 100.051 100.051 100.051 100.051 99.4641 99.4641 99.4641 99.4641 99.3313 99.3313 99.3313 99.3313 99.3807 99.3807 99.3807 99.3807 99.4103 99.4103 99.4103 99.4103 100.059 100.059 100.059 100.059 99.1135 99.1135 99.1135 99.1135 99.4938 99.4938 99.4938 99.4938 99.3832 99.3832 99.3832 99.3832 99.2926 99.2926 99.2926 99.2926 100.06 100.06 100.06 100.06 99.3059 99.3059 99.3059 99.3059 99.4772 99.4772 99.4772 99.4772 100.06 100.06 100.06 100.06 99.1299 99.1299 99.1299 99.1299 99.4207 99.4207 99.4207 99.4207 100.046 100.046 100.046 100.046 100.048 100.048 100.048 100.048 99.4291 99.4291 99.4291 99.4291 100.05 100.05 100.05 100.05 100.062 100.062 100.062 100.062 99.1557 99.1557 99.1557 99.1557 99.4319 99.4319 99.4319 99.4319 99.3536 99.3536 99.3536 99.3536 100.038 100.038 100.038 100.038 100.04 100.04 100.04 100.04 100.049 100.049 100.049 100.049 99.258 99.258 99.258 99.258 99.2638 99.2638 99.2638 99.2638 99.2567 99.2567 99.2567 99.2567 99.5192 99.5192 99.5192 99.5192 99.4319 99.4319 99.4319 99.4319 100.051 100.051 100.051 100.051 99.1299 99.1299 99.1299 99.1299 99.4103 99.4103 99.4103 99.4103 100.059 100.059 100.059 100.059 99.4749 99.4749 99.4749 99.4749 99.8683 99.8683 99.8683 99.8683 99.3766 99.3766 99.3766 99.3766 99.3874 99.3874 99.3874 99.3874 99.354 99.354 99.354 99.354 99.2964 99.2964 99.2964 99.2964 99.3387 99.3387 99.3387 99.3387 100.051 100.051 100.051 100.051 99.1495 99.1495 99.1495 99.1495 99.1135 99.1135 99.1135 99.1135 100.05 100.05 100.05 100.05 99.5192 99.5192 99.5192 99.5192 99.3328 99.3328 99.3328 99.3328 100.052 100.052 100.052 100.052 99.5503 99.5503 99.5503 99.5503 100.05 100.05 100.05 100.05 99.2349 99.2349 99.2349 99.2349 100.036 100.036 100.036 100.036 100.064 100.064 100.064 100.064 99.5503 99.5503 99.5503 99.5503 100.045 100.045 100.045 100.045 99.4655 99.4655 99.4655 99.4655 100.044 100.044 100.044 100.044 100.043 100.043 100.043 100.043 99.1495 99.1495 99.1495 99.1495 100.058 100.058 100.058 100.058 99.2964 99.2964 99.2964 99.2964 100.046 100.046 100.046 100.046 99.1299 99.1299 99.1299 99.1299 100.045 100.045 100.045 100.045 100.04 100.04 100.04 100.04 100.066 100.066 100.066 100.066 99.2638 99.2638 99.2638 99.2638 100.062 100.062 100.062 100.062 99.2567 99.2567 99.2567 99.2567 100.049 100.049 100.049 100.049 100.063 100.063 100.063 100.063 100.051 100.051 100.051 100.051 100.049 100.049 100.049 100.049 100.045 100.045 100.045 100.045 100.066 100.066 100.066 100.066 100.07 100.07 100.07 100.07 100.064 100.064 100.064 100.064 100.063 100.063 100.063 100.063 100.052 100.052 100.052 100.052 100.06 100.06 100.06 100.06 100.064 100.064 100.064 100.064 100.07 100.07 100.07 100.07 100.058 100.058 100.058 100.058 100.06 100.06 100.06 100.06 99.1135 99.1135 99.1135 99.1135 100.06 100.06 100.06 100.06 99.1557 99.1557 99.1557 99.1557 100.05 100.05 100.05 100.05 100.059 100.059 100.059 100.059 100.062 100.062 100.062 100.062 100.042 100.042 100.042 100.042 100.056 100.056 100.056 100.056 100.063 100.063 100.063 100.063 100.058 100.058 100.058 100.058 100.058 100.058 100.058 100.058 99.4567 99.4567 99.4567 99.4567 100.039 100.039 100.039 100.039 100.063 100.063 100.063 100.063 100.049 100.049 100.049 100.049 100.058 100.058 100.058 100.058 99.2638 99.2638 99.2638 99.2638 100.061 100.061 100.061 100.061 100.052 100.052 100.052 100.052 100.06 100.06 100.06 100.06 100.067 100.067 100.067 100.067 99.2926 99.2926 99.2926 99.2926 100.063 100.063 100.063 100.063 99.1495 99.1495 99.1495 99.1495 100.064 100.064 100.064 100.064 100.066 100.066 100.066 100.066 99.3313 99.3313 99.3313 99.3313 100.044 100.044 100.044 100.044 99.2567 99.2567 99.2567 99.2567 99.3305 99.3305 99.3305 99.3305 99.1746 99.1746 99.1746 99.1746 100.066 100.066 100.066 100.066 100.065 100.065 100.065 100.065 100.05 100.05 100.05 100.05 99.1753 99.1753 99.1753 99.1753 100.048 100.048 100.048 100.048 100.06 100.06 100.06 100.06 100.059 100.059 100.059 100.059 99.2455 99.2455 99.2455 99.2455 99.1882 99.1882 99.1882 99.1882 99.4987 99.4987 99.4987 99.4987 100.054 100.054 100.054 100.054 99.1202 99.1202 99.1202 99.1202 99.3387 99.3387 99.3387 99.3387 99.2462 99.2462 99.2462 99.2462 99.2522 99.2522 99.2522 99.2522 99.5503 99.5503 99.5503 99.5503 99.3073 99.3073 99.3073 99.3073 100.054 100.054 100.054 100.054 99.395 99.395 99.395 99.395 99.409 99.409 99.409 99.409 99.528 99.528 99.528 99.528 99.3838 99.3838 99.3838 99.3838 100.049 100.049 100.049 100.049 100.044 100.044 100.044 100.044 99.4207 99.4207 99.4207 99.4207 99.3469 99.3469 99.3469 99.3469 99.4897 99.4897 99.4897 99.4897 99.4938 99.4938 99.4938 99.4938 99.4772 99.4772 99.4772 99.4772 100.035 100.035 100.035 100.035 99.469 99.469 99.469 99.469 99.3663 99.3663 99.3663 99.3663 100.059 100.059 100.059 100.059 99.4015 99.4015 99.4015 99.4015 99.3354 99.3354 99.3354 99.3354 99.3603 99.3603 99.3603 99.3603 99.4011 99.4011 99.4011 99.4011 99.4319 99.4319 99.4319 99.4319 99.1844 99.1844 99.1844 99.1844 99.5192 99.5192 99.5192 99.5192 99.4668 99.4668 99.4668 99.4668 99.333 99.333 99.333 99.333 99.4749 99.4749 99.4749 99.4749 99.3034 99.3034 99.3034 99.3034 99.4135 99.4135 99.4135 99.4135 100.054 100.054 100.054 100.054 99.2783 99.2783 99.2783 99.2783 99.3366 99.3366 99.3366 99.3366 99.3425 99.3425 99.3425 99.3425 99.3059 99.3059 99.3059 99.3059 99.1383 99.1383 99.1383 99.1383 99.1875 99.1875 99.1875 99.1875 99.2739 99.2739 99.2739 99.2739 100.045 100.045 100.045 100.045 99.3745 99.3745 99.3745 99.3745 99.358 99.358 99.358 99.358 99.4133 99.4133 99.4133 99.4133 99.4877 99.4877 99.4877 99.4877 99.3658 99.3658 99.3658 99.3658 99.2967 99.2967 99.2967 99.2967 99.5178 99.5178 99.5178 99.5178 99.3977 99.3977 99.3977 99.3977 99.3689 99.3689 99.3689 99.3689 100.065 100.065 100.065 100.065 99.4229 99.4229 99.4229 99.4229 99.4307 99.4307 99.4307 99.4307 99.2198 99.2198 99.2198 99.2198 99.4649 99.4649 99.4649 99.4649 99.4558 99.4558 99.4558 99.4558 99.3089 99.3089 99.3089 99.3089 99.4793 99.4793 99.4793 99.4793 99.2717 99.2717 99.2717 99.2717 99.4381 99.4381 99.4381 99.4381 99.4138 99.4138 99.4138 99.4138 99.3608 99.3608 99.3608 99.3608 99.4477 99.4477 99.4477 99.4477 100.021 100.021 100.021 100.021 100.043 100.043 100.043 100.043 100.003 100.003 100.003 100.003 99.9556 99.9556 99.9556 99.9556 99.9818 99.9818 99.9818 99.9818 99.9965 99.9965 99.9965 99.9965 99.9944 99.9944 99.9944 99.9944 100.037 100.037 100.037 100.037 100.034 100.034 100.034 100.034 100.05 100.05 100.05 100.05 100.026 100.026 100.026 100.026 100.04 100.04 100.04 100.04 99.7343 99.7343 99.7343 99.7343 99.8836 99.8836 99.8836 99.8836 99.9746 99.9746 99.9746 99.9746 100.015 100.015 100.015 100.015 99.9911 99.9911 99.9911 99.9911 100.016 100.016 100.016 100.016 100.049 100.049 100.049 100.049 100.044 100.044 100.044 100.044 100.045 100.045 100.045 100.045 100.051 100.051 100.051 100.051 99.6566 99.6566 99.6566 99.6566 99.6354 99.6354 99.6354 99.6354 99.9638 99.9638 99.9638 99.9638 99.9918 99.9918 99.9918 99.9918 100.053 100.053 100.053 100.053 100.046 100.046 100.046 100.046 100.051 100.051 100.051 100.051 100.049 100.049 100.049 100.049 100.052 100.052 100.052 100.052 99.6315 99.6315 99.6315 99.6315 99.5976 99.5976 99.5976 99.5976 99.6234 99.6234 99.6234 99.6234 99.6762 99.6762 99.6762 99.6762 99.7994 99.7994 99.7994 99.7994 99.6849 99.6849 99.6849 99.6849 100.011 100.011 100.011 100.011 100.041 100.041 100.041 100.041 99.8869 99.8869 99.8869 99.8869 99.705 99.705 99.705 99.705 99.3366 99.3366 99.3366 99.3366 99.3996 99.3996 99.3996 99.3996 99.6647 99.6647 99.6647 99.6647 99.8526 99.8526 99.8526 99.8526 99.8338 99.8338 99.8338 99.8338 99.8889 99.8889 99.8889 99.8889 99.8466 99.8466 99.8466 99.8466 99.7736 99.7736 99.7736 99.7736 99.7297 99.7297 99.7297 99.7297 99.7364 99.7364 99.7364 99.7364 99.7348 99.7348 99.7348 99.7348 99.75 99.75 99.75 99.75 99.7167 99.7167 99.7167 99.7167 99.7254 99.7254 99.7254 99.7254 100.046 100.046 100.046 100.046 100.052 100.052 100.052 100.052 99.6411 99.6411 99.6411 99.6411 99.7097 99.7097 99.7097 99.7097 99.805 99.805 99.805 99.805 99.7433 99.7433 99.7433 99.7433 100.025 100.025 100.025 100.025 100.019 100.019 100.019 100.019 100.043 100.043 100.043 100.043 100.031 100.031 100.031 100.031 100.031 100.031 100.031 100.031 100.024 100.024 100.024 100.024 100.042 100.042 100.042 100.042 100.042 100.042 100.042 100.042 100.042 100.042 100.042 100.042 100.026 100.026 100.026 100.026 100.024 100.024 100.024 100.024 100.024 100.024 100.024 100.024 100.024 100.024 100.024 100.024 100.022 100.022 100.022 100.022 100.024 100.024 100.024 100.024 100.026 100.026 100.026 100.026 100.027 100.027 100.027 100.027 100.018 100.018 100.018 100.018 100.016 100.016 100.016 100.016 100.044 100.044 100.044 100.044 100.021 100.021 100.021 100.021 100.03 100.03 100.03 100.03 100.027 100.027 100.027 100.027 99.9725 99.9725 99.9725 99.9725 100.022 100.022 100.022 100.022 100.027 100.027 100.027 100.027 100.03 100.03 100.03 100.03 100.043 100.043 100.043 100.043 100.022 100.022 100.022 100.022 100.019 100.019 100.019 100.019 99.9851 99.9851 99.9851 99.9851 100.043 100.043 100.043 100.043 100.027 100.027 100.027 100.027 100.021 100.021 100.021 100.021 100.024 100.024 100.024 100.024 100.006 100.006 100.006 100.006 100.016 100.016 100.016 100.016 100.037 100.037 100.037 100.037 100.024 100.024 100.024 100.024 100.043 100.043 100.043 100.043 99.9416 99.9416 99.9416 99.9416 100.023 100.023 100.023 100.023 100.039 100.039 100.039 100.039 100.026 100.026 100.026 100.026 100.047 100.047 100.047 100.047 100.014 100.014 100.014 100.014 100.044 100.044 100.044 100.044 100.036 100.036 100.036 100.036 100.029 100.029 100.029 100.029 100.02 100.02 100.02 100.02 100.027 100.027 100.027 100.027 100.021 100.021 100.021 100.021 100.029 100.029 100.029 100.029 100.026 100.026 100.026 100.026 100.025 100.025 100.025 100.025 100.042 100.042 100.042 100.042 100.024 100.024 100.024 100.024 100.014 100.014 100.014 100.014 100.017 100.017 100.017 100.017 100.04 100.04 100.04 100.04 100.028 100.028 100.028 100.028 100.017 100.017 100.017 100.017 100.036 100.036 100.036 100.036 100.024 100.024 100.024 100.024 100.042 100.042 100.042 100.042 100.024 100.024 100.024 100.024 100.029 100.029 100.029 100.029 100.02 100.02 100.02 100.02 100.024 100.024 100.024 100.024 100.03 100.03 100.03 100.03 100.018 100.018 100.018 100.018 100.042 100.042 100.042 100.042 100.04 100.04 100.04 100.04 100.017 100.017 100.017 100.017 100.027 100.027 100.027 100.027 99.9984 99.9984 99.9984 99.9984 100.034 100.034 100.034 100.034 100.045 100.045 100.045 100.045 100.025 100.025 100.025 100.025 100.039 100.039 100.039 100.039 100.005 100.005 100.005 100.005 100.042 100.042 100.042 100.042 100.015 100.015 100.015 100.015 100.02 100.02 100.02 100.02 100.024 100.024 100.024 100.024 100.024 100.024 100.024 100.024 99.9724 99.9724 99.9724 99.9724 100.033 100.033 100.033 100.033 100.019 100.019 100.019 100.019 100.016 100.016 100.016 100.016 100.023 100.023 100.023 100.023 99.9982 99.9982 99.9982 99.9982 100.041 100.041 100.041 100.041 99.9818 99.9818 99.9818 99.9818 100.026 100.026 100.026 100.026 100.033 100.033 100.033 100.033 100.038 100.038 100.038 100.038 100.027 100.027 100.027 100.027 100.038 100.038 100.038 100.038 100.007 100.007 100.007 100.007 99.7937 99.7937 99.7937 99.7937 100.038 100.038 100.038 100.038 99.9433 99.9433 99.9433 99.9433 100.005 100.005 100.005 100.005 100.015 100.015 100.015 100.015 100.017 100.017 100.017 100.017 100.019 100.019 100.019 100.019 99.9987 99.9987 99.9987 99.9987 100.024 100.024 100.024 100.024 100.018 100.018 100.018 100.018 99.9729 99.9729 99.9729 99.9729 100.026 100.026 100.026 100.026 100.023 100.023 100.023 100.023 100.043 100.043 100.043 100.043 100.033 100.033 100.033 100.033 100.037 100.037 100.037 100.037 100.014 100.014 100.014 100.014 100.04 100.04 100.04 100.04 100.025 100.025 100.025 100.025 100.02 100.02 100.02 100.02 100.041 100.041 100.041 100.041 100.045 100.045 100.045 100.045 100.024 100.024 100.024 100.024 99.9932 99.9932 99.9932 99.9932 100.043 100.043 100.043 100.043 100.022 100.022 100.022 100.022 100.026 100.026 100.026 100.026 100.017 100.017 100.017 100.017 99.987 99.987 99.987 99.987 100.02 100.02 100.02 100.02 100.023 100.023 100.023 100.023 100.033 100.033 100.033 100.033 99.7241 99.7241 99.7241 99.7241 99.9534 99.9534 99.9534 99.9534 100.012 100.012 100.012 100.012 100.036 100.036 100.036 100.036 100.023 100.023 100.023 100.023 100.016 100.016 100.016 100.016 99.9748 99.9748 99.9748 99.9748 100.042 100.042 100.042 100.042 100.015 100.015 100.015 100.015 100.025 100.025 100.025 100.025 99.9921 99.9921 99.9921 99.9921 99.8874 99.8874 99.8874 99.8874 100.005 100.005 100.005 100.005 100.037 100.037 100.037 100.037 100.034 100.034 100.034 100.034 100.023 100.023 100.023 100.023 100.017 100.017 100.017 100.017 100.023 100.023 100.023 100.023 100.019 100.019 100.019 100.019 100.021 100.021 100.021 100.021 100.023 100.023 100.023 100.023 100.01 100.01 100.01 100.01 100.02 100.02 100.02 100.02 100.005 100.005 100.005 100.005 100.016 100.016 100.016 100.016 100.019 100.019 100.019 100.019 99.9539 99.9539 99.9539 99.9539 100.019 100.019 100.019 100.019 99.9755 99.9755 99.9755 99.9755 100.016 100.016 100.016 100.016 100.039 100.039 100.039 100.039 100.023 100.023 100.023 100.023 100.02 100.02 100.02 100.02 100.02 100.02 100.02 100.02 99.9601 99.9601 99.9601 99.9601 100.026 100.026 100.026 100.026 100.024 100.024 100.024 100.024 100.036 100.036 100.036 100.036 100.013 100.013 100.013 100.013 99.9787 99.9787 99.9787 99.9787 99.8942 99.8942 99.8942 99.8942 100.042 100.042 100.042 100.042 100.005 100.005 100.005 100.005 100.017 100.017 100.017 100.017 100.02 100.02 100.02 100.02 100.045 100.045 100.045 100.045 100.025 100.025 100.025 100.025 99.995 99.995 99.995 99.995 99.938 99.938 99.938 99.938 100.016 100.016 100.016 100.016 99.9925 99.9925 99.9925 99.9925 100.01 100.01 100.01 100.01 100.018 100.018 100.018 100.018 99.8419 99.8419 99.8419 99.8419 100.027 100.027 100.027 100.027 99.799 99.799 99.799 99.799 100.026 100.026 100.026 100.026 99.995 99.995 99.995 99.995 99.7923 99.7923 99.7923 99.7923 100.038 100.038 100.038 100.038 100.015 100.015 100.015 100.015 100.036 100.036 100.036 100.036 99.7558 99.7558 99.7558 99.7558 99.9436 99.9436 99.9436 99.9436 99.9976 99.9976 99.9976 99.9976 99.8112 99.8112 99.8112 99.8112 100.008 100.008 100.008 100.008 100.036 100.036 100.036 100.036 100.003 100.003 100.003 100.003 99.8998 99.8998 99.8998 99.8998 100.043 100.043 100.043 100.043 100.039 100.039 100.039 100.039 100.006 100.006 100.006 100.006 100.019 100.019 100.019 100.019 100.022 100.022 100.022 100.022 100.015 100.015 100.015 100.015 99.9934 99.9934 99.9934 99.9934 99.8135 99.8135 99.8135 99.8135 100.014 100.014 100.014 100.014 100.037 100.037 100.037 100.037 99.8448 99.8448 99.8448 99.8448 100.027 100.027 100.027 100.027 99.7622 99.7622 99.7622 99.7622 99.9989 99.9989 99.9989 99.9989 100.021 100.021 100.021 100.021 100.017 100.017 100.017 100.017 99.9909 99.9909 99.9909 99.9909 100.039 100.039 100.039 100.039 100.006 100.006 100.006 100.006 100.011 100.011 100.011 100.011 99.9996 99.9996 99.9996 99.9996 100.012 100.012 100.012 100.012 99.9811 99.9811 99.9811 99.9811 100.025 100.025 100.025 100.025 100.02 100.02 100.02 100.02 100.034 100.034 100.034 100.034 100.021 100.021 100.021 100.021 100.019 100.019 100.019 100.019 99.9398 99.9398 99.9398 99.9398 100.021 100.021 100.021 100.021 99.9469 99.9469 99.9469 99.9469 100.029 100.029 100.029 100.029 100.015 100.015 100.015 100.015 100.03 100.03 100.03 100.03 100.015 100.015 100.015 100.015 100.015 100.015 100.015 100.015 100.026 100.026 100.026 100.026 100.019 100.019 100.019 100.019 100.043 100.043 100.043 100.043 99.8078 99.8078 99.8078 99.8078 100.036 100.036 100.036 100.036 100.005 100.005 100.005 100.005 99.9962 99.9962 99.9962 99.9962 100.029 100.029 100.029 100.029 99.9801 99.9801 99.9801 99.9801 100.016 100.016 100.016 100.016 100.023 100.023 100.023 100.023 100.016 100.016 100.016 100.016 99.9986 99.9986 99.9986 99.9986 99.9662 99.9662 99.9662 99.9662 100.034 100.034 100.034 100.034 100.04 100.04 100.04 100.04 99.965 99.965 99.965 99.965 100.024 100.024 100.024 100.024 99.9993 99.9993 99.9993 99.9993 99.8111 99.8111 99.8111 99.8111 99.7515 99.7515 99.7515 99.7515 100.008 100.008 100.008 100.008 99.9414 99.9414 99.9414 99.9414 99.7688 99.7688 99.7688 99.7688 99.8341 99.8341 99.8341 99.8341 100.015 100.015 100.015 100.015 99.9886 99.9886 99.9886 99.9886 100.017 100.017 100.017 100.017 100.005 100.005 100.005 100.005 99.9765 99.9765 99.9765 99.9765 100.026 100.026 100.026 100.026 99.9592 99.9592 99.9592 99.9592 100.024 100.024 100.024 100.024 100.004 100.004 100.004 100.004 100.024 100.024 100.024 100.024 100.024 100.024 100.024 100.024 100.014 100.014 100.014 100.014 100.023 100.023 100.023 100.023 99.9888 99.9888 99.9888 99.9888 99.9087 99.9087 99.9087 99.9087 99.856 99.856 99.856 99.856 100.016 100.016 100.016 100.016 100.002 100.002 100.002 100.002 99.9922 99.9922 99.9922 99.9922 100.004 100.004 100.004 100.004 99.9894 99.9894 99.9894 99.9894 100.013 100.013 100.013 100.013 99.9748 99.9748 99.9748 99.9748 99.9738 99.9738 99.9738 99.9738 100.022 100.022 100.022 100.022 99.9689 99.9689 99.9689 99.9689 99.8358 99.8358 99.8358 99.8358 100.016 100.016 100.016 100.016 99.8923 99.8923 99.8923 99.8923 99.9953 99.9953 99.9953 99.9953 100 100 100 100 99.9075 99.9075 99.9075 99.9075 100.024 100.024 100.024 100.024 99.9925 99.9925 99.9925 99.9925 100.034 100.034 100.034 100.034 100.043 100.043 100.043 100.043 100.01 100.01 100.01 100.01 100.035 100.035 100.035 100.035 99.7572 99.7572 99.7572 99.7572 99.7255 99.7255 99.7255 99.7255 100.028 100.028 100.028 100.028 100.006 100.006 100.006 100.006 99.7898 99.7898 99.7898 99.7898 99.844 99.844 99.844 99.844 99.5729 99.5729 99.5729 99.5729 100.037 100.037 100.037 100.037 100.029 100.029 100.029 100.029 100.011 100.011 100.011 100.011 100.038 100.038 100.038 100.038 99.8423 99.8423 99.8423 99.8423 99.8173 99.8173 99.8173 99.8173 99.9084 99.9084 99.9084 99.9084 99.8575 99.8575 99.8575 99.8575 99.6722 99.6722 99.6722 99.6722 99.7934 99.7934 99.7934 99.7934 99.8518 99.8518 99.8518 99.8518 99.8652 99.8652 99.8652 99.8652 100.035 100.035 100.035 100.035 99.717 99.717 99.717 99.717 99.997 99.997 99.997 99.997 99.8671 99.8671 99.8671 99.8671 100.026 100.026 100.026 100.026 99.7385 99.7385 99.7385 99.7385 100.009 100.009 100.009 100.009 99.7501 99.7501 99.7501 99.7501 99.9829 99.9829 99.9829 99.9829 99.9434 99.9434 99.9434 99.9434 99.9518 99.9518 99.9518 99.9518 100.005 100.005 100.005 100.005 100.016 100.016 100.016 100.016 99.9478 99.9478 99.9478 99.9478 99.7549 99.7549 99.7549 99.7549 100.034 100.034 100.034 100.034 99.738 99.738 99.738 99.738 100.006 100.006 100.006 100.006 99.9461 99.9461 99.9461 99.9461 99.9937 99.9937 99.9937 99.9937 99.8269 99.8269 99.8269 99.8269 99.9811 99.9811 99.9811 99.9811 99.9595 99.9595 99.9595 99.9595 99.9636 99.9636 99.9636 99.9636 99.8379 99.8379 99.8379 99.8379 99.8446 99.8446 99.8446 99.8446 99.7875 99.7875 99.7875 99.7875 100.045 100.045 100.045 100.045 100.035 100.035 100.035 100.035 100.019 100.019 100.019 100.019 100.037 100.037 100.037 100.037 99.7202 99.7202 99.7202 99.7202 100.01 100.01 100.01 100.01 99.8189 99.8189 99.8189 99.8189 99.7512 99.7512 99.7512 99.7512 99.9173 99.9173 99.9173 99.9173 100.028 100.028 100.028 100.028 99.7926 99.7926 99.7926 99.7926 99.8496 99.8496 99.8496 99.8496 99.9535 99.9535 99.9535 99.9535 100.012 100.012 100.012 100.012 99.931 99.931 99.931 99.931 99.8372 99.8372 99.8372 99.8372 99.9905 99.9905 99.9905 99.9905 99.9762 99.9762 99.9762 99.9762 100.033 100.033 100.033 100.033 99.9204 99.9204 99.9204 99.9204 100.01 100.01 100.01 100.01 99.8488 99.8488 99.8488 99.8488 99.7883 99.7883 99.7883 99.7883 100.032 100.032 100.032 100.032 100.016 100.016 100.016 100.016 99.8572 99.8572 99.8572 99.8572 100.039 100.039 100.039 100.039 99.9755 99.9755 99.9755 99.9755 99.9348 99.9348 99.9348 99.9348 99.9688 99.9688 99.9688 99.9688 99.9541 99.9541 99.9541 99.9541 99.9353 99.9353 99.9353 99.9353 100.025 100.025 100.025 100.025 99.7695 99.7695 99.7695 99.7695 100.005 100.005 100.005 100.005 99.9895 99.9895 99.9895 99.9895 99.7636 99.7636 99.7636 99.7636 100.006 100.006 100.006 100.006 99.9022 99.9022 99.9022 99.9022 99.952 99.952 99.952 99.952 99.9398 99.9398 99.9398 99.9398 99.9532 99.9532 99.9532 99.9532 99.9523 99.9523 99.9523 99.9523 99.8492 99.8492 99.8492 99.8492 100.014 100.014 100.014 100.014 99.9933 99.9933 99.9933 99.9933 99.8109 99.8109 99.8109 99.8109 99.7981 99.7981 99.7981 99.7981 100.017 100.017 100.017 100.017 100.012 100.012 100.012 100.012 99.9629 99.9629 99.9629 99.9629 99.7877 99.7877 99.7877 99.7877 99.9259 99.9259 99.9259 99.9259 99.7429 99.7429 99.7429 99.7429 100 100 100 100 100.034 100.034 100.034 100.034 99.7896 99.7896 99.7896 99.7896 99.9434 99.9434 99.9434 99.9434 99.9503 99.9503 99.9503 99.9503 100.014 100.014 100.014 100.014 99.8328 99.8328 99.8328 99.8328 99.916 99.916 99.916 99.916 99.8604 99.8604 99.8604 99.8604 100.009 100.009 100.009 100.009 99.9992 99.9992 99.9992 99.9992 99.8445 99.8445 99.8445 99.8445 99.9694 99.9694 99.9694 99.9694 100.036 100.036 100.036 100.036 99.9555 99.9555 99.9555 99.9555 99.7392 99.7392 99.7392 99.7392 99.9984 99.9984 99.9984 99.9984 100.008 100.008 100.008 100.008 99.8865 99.8865 99.8865 99.8865 100.04 100.04 100.04 100.04 100.011 100.011 100.011 100.011 99.9915 99.9915 99.9915 99.9915 99.7997 99.7997 99.7997 99.7997 99.8153 99.8153 99.8153 99.8153 99.9594 99.9594 99.9594 99.9594 99.8365 99.8365 99.8365 99.8365 99.9585 99.9585 99.9585 99.9585 99.8935 99.8935 99.8935 99.8935 99.8457 99.8457 99.8457 99.8457 99.9689 99.9689 99.9689 99.9689 100.019 100.019 100.019 100.019 100.003 100.003 100.003 100.003 99.7947 99.7947 99.7947 99.7947 99.9388 99.9388 99.9388 99.9388 99.9761 99.9761 99.9761 99.9761 100.018 100.018 100.018 100.018 99.785 99.785 99.785 99.785 99.9367 99.9367 99.9367 99.9367 99.6663 99.6663 99.6663 99.6663 100.033 100.033 100.033 100.033 99.8515 99.8515 99.8515 99.8515 99.9491 99.9491 99.9491 99.9491 100.014 100.014 100.014 100.014 99.9567 99.9567 99.9567 99.9567 99.8864 99.8864 99.8864 99.8864 100.037 100.037 100.037 100.037 99.9641 99.9641 99.9641 99.9641 99.9602 99.9602 99.9602 99.9602 99.8 99.8 99.8 99.8 99.7951 99.7951 99.7951 99.7951 99.8903 99.8903 99.8903 99.8903 100.017 100.017 100.017 100.017 99.7676 99.7676 99.7676 99.7676 99.9697 99.9697 99.9697 99.9697 99.866 99.866 99.866 99.866 100.001 100.001 100.001 100.001 100.017 100.017 100.017 100.017 100.033 100.033 100.033 100.033 100.023 100.023 100.023 100.023 99.7913 99.7913 99.7913 99.7913 100.037 100.037 100.037 100.037 99.978 99.978 99.978 99.978 99.9995 99.9995 99.9995 99.9995 99.6038 99.6038 99.6038 99.6038 99.9737 99.9737 99.9737 99.9737 99.8486 99.8486 99.8486 99.8486 100.036 100.036 100.036 100.036 99.9529 99.9529 99.9529 99.9529 99.9518 99.9518 99.9518 99.9518 99.9887 99.9887 99.9887 99.9887 99.7969 99.7969 99.7969 99.7969 100.036 100.036 100.036 100.036 99.9046 99.9046 99.9046 99.9046 99.8438 99.8438 99.8438 99.8438 99.8672 99.8672 99.8672 99.8672 99.7335 99.7335 99.7335 99.7335 99.7588 99.7588 99.7588 99.7588 99.8074 99.8074 99.8074 99.8074 99.956 99.956 99.956 99.956 99.8351 99.8351 99.8351 99.8351 99.8179 99.8179 99.8179 99.8179 99.9642 99.9642 99.9642 99.9642 99.887 99.887 99.887 99.887 100.039 100.039 100.039 100.039 100.038 100.038 100.038 100.038 99.898 99.898 99.898 99.898 100.038 100.038 100.038 100.038 99.7444 99.7444 99.7444 99.7444 99.7992 99.7992 99.7992 99.7992 99.9756 99.9756 99.9756 99.9756 99.7226 99.7226 99.7226 99.7226 100.033 100.033 100.033 100.033 99.9752 99.9752 99.9752 99.9752 100.016 100.016 100.016 100.016 99.9427 99.9427 99.9427 99.9427 99.9591 99.9591 99.9591 99.9591 99.9886 99.9886 99.9886 99.9886 100.026 100.026 100.026 100.026 100.016 100.016 100.016 100.016 99.9625 99.9625 99.9625 99.9625 99.9479 99.9479 99.9479 99.9479 99.9206 99.9206 99.9206 99.9206 99.9074 99.9074 99.9074 99.9074 99.9682 99.9682 99.9682 99.9682 100.005 100.005 100.005 100.005 99.728 99.728 99.728 99.728 99.9988 99.9988 99.9988 99.9988 100.005 100.005 100.005 100.005 100.037 100.037 100.037 100.037 100.038 100.038 100.038 100.038 99.9886 99.9886 99.9886 99.9886 99.8011 99.8011 99.8011 99.8011 99.9656 99.9656 99.9656 99.9656 99.9577 99.9577 99.9577 99.9577 99.9868 99.9868 99.9868 99.9868 99.9572 99.9572 99.9572 99.9572 99.9373 99.9373 99.9373 99.9373 100.001 100.001 100.001 100.001 99.944 99.944 99.944 99.944 99.9841 99.9841 99.9841 99.9841 99.7966 99.7966 99.7966 99.7966 99.9104 99.9104 99.9104 99.9104 99.9069 99.9069 99.9069 99.9069 99.907 99.907 99.907 99.907 99.9578 99.9578 99.9578 99.9578 99.8689 99.8689 99.8689 99.8689 99.9451 99.9451 99.9451 99.9451 99.9713 99.9713 99.9713 99.9713 99.8554 99.8554 99.8554 99.8554 99.998 99.998 99.998 99.998 99.7192 99.7192 99.7192 99.7192 99.7662 99.7662 99.7662 99.7662 99.7719 99.7719 99.7719 99.7719 99.8413 99.8413 99.8413 99.8413 99.7825 99.7825 99.7825 99.7825 99.977 99.977 99.977 99.977 99.9082 99.9082 99.9082 99.9082 99.8919 99.8919 99.8919 99.8919 99.9851 99.9851 99.9851 99.9851 99.8535 99.8535 99.8535 99.8535 100.002 100.002 100.002 100.002 99.9652 99.9652 99.9652 99.9652 100.003 100.003 100.003 100.003 99.83 99.83 99.83 99.83 99.9759 99.9759 99.9759 99.9759 100.041 100.041 100.041 100.041 99.9691 99.9691 99.9691 99.9691 100.017 100.017 100.017 100.017 99.9536 99.9536 99.9536 99.9536 99.7327 99.7327 99.7327 99.7327 99.9535 99.9535 99.9535 99.9535 99.3552 99.3552 99.3552 99.3552 99.8862 99.8862 99.8862 99.8862 100.006 100.006 100.006 100.006 99.829 99.829 99.829 99.829 100.012 100.012 100.012 100.012 99.9093 99.9093 99.9093 99.9093 100.012 100.012 100.012 100.012 99.9881 99.9881 99.9881 99.9881 99.9083 99.9083 99.9083 99.9083 99.8893 99.8893 99.8893 99.8893 99.9939 99.9939 99.9939 99.9939 100.015 100.015 100.015 100.015 99.9252 99.9252 99.9252 99.9252 99.9065 99.9065 99.9065 99.9065 99.2172 99.2172 99.2172 99.2172 99.8604 99.8604 99.8604 99.8604 99.9222 99.9222 99.9222 99.9222 99.748 99.748 99.748 99.748 99.8271 99.8271 99.8271 99.8271 99.9569 99.9569 99.9569 99.9569 99.796 99.796 99.796 99.796 100.016 100.016 100.016 100.016 99.9282 99.9282 99.9282 99.9282 100.011 100.011 100.011 100.011 99.9394 99.9394 99.9394 99.9394 100.016 100.016 100.016 100.016 100.031 100.031 100.031 100.031 100.034 100.034 100.034 100.034 100.001 100.001 100.001 100.001 99.9533 99.9533 99.9533 99.9533 99.8404 99.8404 99.8404 99.8404 99.9546 99.9546 99.9546 99.9546 99.9748 99.9748 99.9748 99.9748 99.7891 99.7891 99.7891 99.7891 99.9196 99.9196 99.9196 99.9196 99.9488 99.9488 99.9488 99.9488 99.9848 99.9848 99.9848 99.9848 100.034 100.034 100.034 100.034 99.8842 99.8842 99.8842 99.8842 99.7989 99.7989 99.7989 99.7989 99.9388 99.9388 99.9388 99.9388 99.627 99.627 99.627 99.627 100.038 100.038 100.038 100.038 99.8181 99.8181 99.8181 99.8181 99.9615 99.9615 99.9615 99.9615 99.971 99.971 99.971 99.971 99.216 99.216 99.216 99.216 100.001 100.001 100.001 100.001 100.033 100.033 100.033 100.033 99.9553 99.9553 99.9553 99.9553 99.9878 99.9878 99.9878 99.9878 99.9377 99.9377 99.9377 99.9377 100.035 100.035 100.035 100.035 100 100 100 100 99.9594 99.9594 99.9594 99.9594 100.033 100.033 100.033 100.033 99.8369 99.8369 99.8369 99.8369 99.9172 99.9172 99.9172 99.9172 99.1452 99.1452 99.1452 99.1452 99.8799 99.8799 99.8799 99.8799 99.8069 99.8069 99.8069 99.8069 99.8142 99.8142 99.8142 99.8142 99.9102 99.9102 99.9102 99.9102 99.2162 99.2162 99.2162 99.2162 99.7696 99.7696 99.7696 99.7696 99.9866 99.9866 99.9866 99.9866 99.4605 99.4605 99.4605 99.4605 99.8923 99.8923 99.8923 99.8923 99.2765 99.2765 99.2765 99.2765 100.041 100.041 100.041 100.041 99.8671 99.8671 99.8671 99.8671 99.8936 99.8936 99.8936 99.8936 99.86 99.86 99.86 99.86 99.8358 99.8358 99.8358 99.8358 99.9613 99.9613 99.9613 99.9613 99.9567 99.9567 99.9567 99.9567 100.006 100.006 100.006 100.006 100.008 100.008 100.008 100.008 99.0971 99.0971 99.0971 99.0971 99.8059 99.8059 99.8059 99.8059 100.034 100.034 100.034 100.034 99.222 99.222 99.222 99.222 99.959 99.959 99.959 99.959 99.9594 99.9594 99.9594 99.9594 99.2139 99.2139 99.2139 99.2139 99.248 99.248 99.248 99.248 99.9385 99.9385 99.9385 99.9385 99.8219 99.8219 99.8219 99.8219 99.9793 99.9793 99.9793 99.9793 99.9669 99.9669 99.9669 99.9669 99.9471 99.9471 99.9471 99.9471 99.4428 99.4428 99.4428 99.4428 99.9607 99.9607 99.9607 99.9607 99.9608 99.9608 99.9608 99.9608 100.019 100.019 100.019 100.019 99.9044 99.9044 99.9044 99.9044 99.815 99.815 99.815 99.815 99.213 99.213 99.213 99.213 100.04 100.04 100.04 100.04 99.8053 99.8053 99.8053 99.8053 99.9786 99.9786 99.9786 99.9786 100.041 100.041 100.041 100.041 99.8787 99.8787 99.8787 99.8787 99.9281 99.9281 99.9281 99.9281 99.995 99.995 99.995 99.995 99.9788 99.9788 99.9788 99.9788 99.2929 99.2929 99.2929 99.2929 99.9066 99.9066 99.9066 99.9066 100.036 100.036 100.036 100.036 99.0822 99.0822 99.0822 99.0822 99.8042 99.8042 99.8042 99.8042 99.152 99.152 99.152 99.152 99.8465 99.8465 99.8465 99.8465 99.2703 99.2703 99.2703 99.2703 99.1286 99.1286 99.1286 99.1286 99.9593 99.9593 99.9593 99.9593 99.9801 99.9801 99.9801 99.9801 99.9853 99.9853 99.9853 99.9853 98.9079 98.9079 98.9079 98.9079 100.033 100.033 100.033 100.033 99.9601 99.9601 99.9601 99.9601 99.2731 99.2731 99.2731 99.2731 99.823 99.823 99.823 99.823 99.7908 99.7908 99.7908 99.7908 99.1909 99.1909 99.1909 99.1909 99.7822 99.7822 99.7822 99.7822 99.95 99.95 99.95 99.95 99.8526 99.8526 99.8526 99.8526 99.8012 99.8012 99.8012 99.8012 99.2994 99.2994 99.2994 99.2994 99.0819 99.0819 99.0819 99.0819 100.034 100.034 100.034 100.034 98.9704 98.9704 98.9704 98.9704 98.8891 98.8891 98.8891 98.8891 99.939 99.939 99.939 99.939 100.034 100.034 100.034 100.034 99.8467 99.8467 99.8467 99.8467 99.9066 99.9066 99.9066 99.9066 99.04 99.04 99.04 99.04 99.0398 99.0398 99.0398 99.0398 99.1783 99.1783 99.1783 99.1783 99.9265 99.9265 99.9265 99.9265 99.9567 99.9567 99.9567 99.9567 99.8387 99.8387 99.8387 99.8387 99.9005 99.9005 99.9005 99.9005 99.953 99.953 99.953 99.953 99.9469 99.9469 99.9469 99.9469 100.033 100.033 100.033 100.033 99.8731 99.8731 99.8731 99.8731 99.2772 99.2772 99.2772 99.2772 100.034 100.034 100.034 100.034 99.8527 99.8527 99.8527 99.8527 99.1786 99.1786 99.1786 99.1786 99.9224 99.9224 99.9224 99.9224 99.9953 99.9953 99.9953 99.9953 99.9844 99.9844 99.9844 99.9844 99.1088 99.1088 99.1088 99.1088 99.7768 99.7768 99.7768 99.7768 99.1725 99.1725 99.1725 99.1725 100.026 100.026 100.026 100.026 99.9848 99.9848 99.9848 99.9848 99.9267 99.9267 99.9267 99.9267 99.1821 99.1821 99.1821 99.1821 99.922 99.922 99.922 99.922 99.9224 99.9224 99.9224 99.9224 99.1687 99.1687 99.1687 99.1687 99.9961 99.9961 99.9961 99.9961 99.8214 99.8214 99.8214 99.8214 99.0651 99.0651 99.0651 99.0651 99.1675 99.1675 99.1675 99.1675 99.1297 99.1297 99.1297 99.1297 99.9565 99.9565 99.9565 99.9565 98.9967 98.9967 98.9967 98.9967 99.9082 99.9082 99.9082 99.9082 99.0271 99.0271 99.0271 99.0271 100.035 100.035 100.035 100.035 99.9247 99.9247 99.9247 99.9247 99.1376 99.1376 99.1376 99.1376 99.965 99.965 99.965 99.965 99.9708 99.9708 99.9708 99.9708 99.9337 99.9337 99.9337 99.9337 99.988 99.988 99.988 99.988 98.9851 98.9851 98.9851 98.9851 99.1433 99.1433 99.1433 99.1433 99.9725 99.9725 99.9725 99.9725 99.9424 99.9424 99.9424 99.9424 99.9869 99.9869 99.9869 99.9869 99.9365 99.9365 99.9365 99.9365 99.0958 99.0958 99.0958 99.0958 99.3016 99.3016 99.3016 99.3016 99.1413 99.1413 99.1413 99.1413 99.9816 99.9816 99.9816 99.9816 99.9424 99.9424 99.9424 99.9424 99.9486 99.9486 99.9486 99.9486 99.9502 99.9502 99.9502 99.9502 99.1951 99.1951 99.1951 99.1951 99.9868 99.9868 99.9868 99.9868 99.0494 99.0494 99.0494 99.0494 99.2139 99.2139 99.2139 99.2139 99.0659 99.0659 99.0659 99.0659 99.1413 99.1413 99.1413 99.1413 100.035 100.035 100.035 100.035 99.9092 99.9092 99.9092 99.9092 100.034 100.034 100.034 100.034 99.9596 99.9596 99.9596 99.9596 100.04 100.04 100.04 100.04 100.015 100.015 100.015 100.015 99.952 99.952 99.952 99.952 99.2514 99.2514 99.2514 99.2514 99.0972 99.0972 99.0972 99.0972 99.9466 99.9466 99.9466 99.9466 99.9095 99.9095 99.9095 99.9095 99.092 99.092 99.092 99.092 99.0972 99.0972 99.0972 99.0972 99.1048 99.1048 99.1048 99.1048 99.9563 99.9563 99.9563 99.9563 99.9472 99.9472 99.9472 99.9472 99.0564 99.0564 99.0564 99.0564 100.034 100.034 100.034 100.034 99.9097 99.9097 99.9097 99.9097 98.9889 98.9889 98.9889 98.9889 99.1944 99.1944 99.1944 99.1944 98.9872 98.9872 98.9872 98.9872 99.919 99.919 99.919 99.919 99.2469 99.2469 99.2469 99.2469 99.2521 99.2521 99.2521 99.2521 98.8808 98.8808 98.8808 98.8808 99.955 99.955 99.955 99.955 99.2925 99.2925 99.2925 99.2925 99.2747 99.2747 99.2747 99.2747 99.2595 99.2595 99.2595 99.2595 99.1433 99.1433 99.1433 99.1433 99.9473 99.9473 99.9473 99.9473 98.3523 98.3523 98.3523 98.3523 99.1636 99.1636 99.1636 99.1636 99.1096 99.1096 99.1096 99.1096 99.0197 99.0197 99.0197 99.0197 100.042 100.042 100.042 100.042 100.044 100.044 100.044 100.044 99.1273 99.1273 99.1273 99.1273 98.3536 98.3536 98.3536 98.3536 99.9093 99.9093 99.9093 99.9093 99.1347 99.1347 99.1347 99.1347 99.8309 99.8309 99.8309 99.8309 100.04 100.04 100.04 100.04 99.1336 99.1336 99.1336 99.1336 98.8746 98.8746 98.8746 98.8746 100.036 100.036 100.036 100.036 99.9316 99.9316 99.9316 99.9316 99.2591 99.2591 99.2591 99.2591 99.9594 99.9594 99.9594 99.9594 99.0027 99.0027 99.0027 99.0027 99.2005 99.2005 99.2005 99.2005 98.9699 98.9699 98.9699 98.9699 100.045 100.045 100.045 100.045 99.3672 99.3672 99.3672 99.3672 99.9501 99.9501 99.9501 99.9501 99.052 99.052 99.052 99.052 99.2713 99.2713 99.2713 99.2713 100.048 100.048 100.048 100.048 99.1844 99.1844 99.1844 99.1844 100.043 100.043 100.043 100.043 100.041 100.041 100.041 100.041 100.01 100.01 100.01 100.01 99.248 99.248 99.248 99.248 99.1776 99.1776 99.1776 99.1776 100.035 100.035 100.035 100.035 99.3877 99.3877 99.3877 99.3877 98.9298 98.9298 98.9298 98.9298 99.1281 99.1281 99.1281 99.1281 98.7628 98.7628 98.7628 98.7628 100.008 100.008 100.008 100.008 99.1589 99.1589 99.1589 99.1589 98.8191 98.8191 98.8191 98.8191 98.7724 98.7724 98.7724 98.7724 98.3536 98.3536 98.3536 98.3536 100.016 100.016 100.016 100.016 99.1064 99.1064 99.1064 99.1064 98.9083 98.9083 98.9083 98.9083 100.011 100.011 100.011 100.011 98.843 98.843 98.843 98.843 98.8709 98.8709 98.8709 98.8709 100.041 100.041 100.041 100.041 100.039 100.039 100.039 100.039 99.3292 99.3292 99.3292 99.3292 100.039 100.039 100.039 100.039 100.017 100.017 100.017 100.017 98.8808 98.8808 98.8808 98.8808 99.1834 99.1834 99.1834 99.1834 99.1464 99.1464 99.1464 99.1464 100.046 100.046 100.046 100.046 100.043 100.043 100.043 100.043 100.036 100.036 100.036 100.036 99.1288 99.1288 99.1288 99.1288 98.2007 98.2007 98.2007 98.2007 98.1266 98.1266 98.1266 98.1266 99.1942 99.1942 99.1942 99.1942 98.899 98.899 98.899 98.899 100.035 100.035 100.035 100.035 98.843 98.843 98.843 98.843 99.2524 99.2524 99.2524 99.2524 100.013 100.013 100.013 100.013 99.9162 99.9162 99.9162 99.9162 99.0632 99.0632 99.0632 99.0632 98.8333 98.8333 98.8333 98.8333 99.2297 99.2297 99.2297 99.2297 98.7818 98.7818 98.7818 98.7818 98.3523 98.3523 98.3523 98.3523 98.8346 98.8346 98.8346 98.8346 100.034 100.034 100.034 100.034 98.8498 98.8498 98.8498 98.8498 98.8191 98.8191 98.8191 98.8191 100.035 100.035 100.035 100.035 99.0793 99.0793 99.0793 99.0793 99.2753 99.2753 99.2753 99.2753 100.013 100.013 100.013 100.013 99.174 99.174 99.174 99.174 100.039 100.039 100.039 100.039 99.017 99.017 99.017 99.017 100.047 100.047 100.047 100.047 100.011 100.011 100.011 100.011 99.1667 99.1667 99.1667 99.1667 100.039 100.039 100.039 100.039 99.3262 99.3262 99.3262 99.3262 100.043 100.043 100.043 100.043 100.043 100.043 100.043 100.043 98.8498 98.8498 98.8498 98.8498 100.007 100.007 100.007 100.007 98.3523 98.3523 98.3523 98.3523 100.043 100.043 100.043 100.043 98.843 98.843 98.843 98.843 100.039 100.039 100.039 100.039 100.043 100.043 100.043 100.043 100.011 100.011 100.011 100.011 98.2007 98.2007 98.2007 98.2007 100.008 100.008 100.008 100.008 98.1266 98.1266 98.1266 98.1266 100.035 100.035 100.035 100.035 100.013 100.013 100.013 100.013 100.035 100.035 100.035 100.035 100.037 100.037 100.037 100.037 100.041 100.041 100.041 100.041 100.009 100.009 100.009 100.009 100.006 100.006 100.006 100.006 100.009 100.009 100.009 100.009 100.012 100.012 100.012 100.012 99.9912 99.9912 99.9912 99.9912 100.006 100.006 100.006 100.006 100.009 100.009 100.009 100.009 100.006 100.006 100.006 100.006 100.011 100.011 100.011 100.011 100.002 100.002 100.002 100.002 98.8191 98.8191 98.8191 98.8191 100.012 100.012 100.012 100.012 98.8808 98.8808 98.8808 98.8808 99.9981 99.9981 99.9981 99.9981 100.002 100.002 100.002 100.002 100.009 100.009 100.009 100.009 100.045 100.045 100.045 100.045 100.003 100.003 100.003 100.003 100.008 100.008 100.008 100.008 100.013 100.013 100.013 100.013 99.9997 99.9997 99.9997 99.9997 100.044 100.044 100.044 100.044 99.2725 99.2725 99.2725 99.2725 100.01 100.01 100.01 100.01 100.036 100.036 100.036 100.036 99.9995 99.9995 99.9995 99.9995 98.2007 98.2007 98.2007 98.2007 100.01 100.01 100.01 100.01 99.9905 99.9905 99.9905 99.9905 100.007 100.007 100.007 100.007 100.01 100.01 100.01 100.01 98.3536 98.3536 98.3536 98.3536 100.01 100.01 100.01 100.01 98.8498 98.8498 98.8498 98.8498 100.01 100.01 100.01 100.01 100.011 100.011 100.011 100.011 98.5665 98.5665 98.5665 98.5665 100.042 100.042 100.042 100.042 98.1266 98.1266 98.1266 98.1266 98.5272 98.5272 98.5272 98.5272 99.0772 99.0772 99.0772 99.0772 100.012 100.012 100.012 100.012 100.012 100.012 100.012 100.012 99.9957 99.9957 99.9957 99.9957 99.0829 99.0829 99.0829 99.0829 100.038 100.038 100.038 100.038 100.009 100.009 100.009 100.009 100.017 100.017 100.017 100.017 99.202 99.202 99.202 99.202 99.1114 99.1114 99.1114 99.1114 99.0252 99.0252 99.0252 99.0252 100.004 100.004 100.004 100.004 98.8918 98.8918 98.8918 98.8918 98.4727 98.4727 98.4727 98.4727 99.2164 99.2164 99.2164 99.2164 99.2395 99.2395 99.2395 99.2395 99.158 99.158 99.158 99.158 99.1082 99.1082 99.1082 99.1082 100.013 100.013 100.013 100.013 98.4757 98.4757 98.4757 98.4757 99.3202 99.3202 99.3202 99.3202 99.1006 99.1006 99.1006 99.1006 99.3972 99.3972 99.3972 99.3972 100.038 100.038 100.038 100.038 100.043 100.043 100.043 100.043 98.5574 98.5574 98.5574 98.5574 99.3461 99.3461 99.3461 99.3461 99.0486 99.0486 99.0486 99.0486 99.035 99.035 99.035 99.035 98.8892 98.8892 98.8892 98.8892 100.048 100.048 100.048 100.048 99.2944 99.2944 99.2944 99.2944 99.4777 99.4777 99.4777 99.4777 100.017 100.017 100.017 100.017 99.3364 99.3364 99.3364 99.3364 99.2727 99.2727 99.2727 99.2727 99.2584 99.2584 99.2584 99.2584 98.7965 98.7965 98.7965 98.7965 98.9716 98.9716 98.9716 98.9716 99.0409 99.0409 99.0409 99.0409 99.1174 99.1174 99.1174 99.1174 99.043 99.043 99.043 99.043 99.3053 99.3053 99.3053 99.3053 99.3137 99.3137 99.3137 99.3137 98.9577 98.9577 98.9577 98.9577 98.7995 98.7995 98.7995 98.7995 100.004 100.004 100.004 100.004 99.2731 99.2731 99.2731 99.2731 98.3844 98.3844 98.3844 98.3844 99.215 99.215 99.215 99.215 98.3142 98.3142 98.3142 98.3142 98.8768 98.8768 98.8768 98.8768 99.0489 99.0489 99.0489 99.0489 99.2789 99.2789 99.2789 99.2789 100.042 100.042 100.042 100.042 99.3838 99.3838 99.3838 99.3838 99.2152 99.2152 99.2152 99.2152 99.4061 99.4061 99.4061 99.4061 98.9119 98.9119 98.9119 98.9119 98.7403 98.7403 98.7403 98.7403 98.4264 98.4264 98.4264 98.4264 98.9958 98.9958 98.9958 98.9958 98.6573 98.6573 98.6573 98.6573 98.7029 98.7029 98.7029 98.7029 100.012 100.012 100.012 100.012 98.8147 98.8147 98.8147 98.8147 99.4212 99.4212 99.4212 99.4212 99.0529 99.0529 99.0529 99.0529 98.9292 98.9292 98.9292 98.9292 98.8931 98.8931 98.8931 98.8931 99.1911 99.1911 99.1911 99.1911 98.8003 98.8003 98.8003 98.8003 99.1723 99.1723 99.1723 99.1723 98.8461 98.8461 98.8461 98.8461 98.8742 98.8742 98.8742 98.8742 99.3111 99.3111 99.3111 99.3111 98.8151 98.8151 98.8151 98.8151 100.024 100.024 100.024 100.024 100.018 100.018 100.018 100.018 100.012 100.012 100.012 100.012 99.9981 99.9981 99.9981 99.9981 99.9995 99.9995 99.9995 99.9995 99.9867 99.9867 99.9867 99.9867 100.025 100.025 100.025 100.025 100.005 100.005 100.005 100.005 100.036 100.036 100.036 100.036 100.05 100.05 100.05 100.05 100.043 100.043 100.043 100.043 100.021 100.021 100.021 100.021 99.8964 99.8964 99.8964 99.8964 99.9474 99.9474 99.9474 99.9474 99.9848 99.9848 99.9848 99.9848 100.025 100.025 100.025 100.025 100.013 100.013 100.013 100.013 100.004 100.004 100.004 100.004 100.043 100.043 100.043 100.043 100.036 100.036 100.036 100.036 100.042 100.042 100.042 100.042 100.035 100.035 100.035 100.035 99.7882 99.7882 99.7882 99.7882 99.8355 99.8355 99.8355 99.8355 99.9795 99.9795 99.9795 99.9795 100.006 100.006 100.006 100.006 100.033 100.033 100.033 100.033 100.04 100.04 100.04 100.04 100.037 100.037 100.037 100.037 100.033 100.033 100.033 100.033 100.036 100.036 100.036 100.036 99.9359 99.9359 99.9359 99.9359 99.7795 99.7795 99.7795 99.7795 99.8499 99.8499 99.8499 99.8499 99.7801 99.7801 99.7801 99.7801 99.7898 99.7898 99.7898 99.7898 99.9511 99.9511 99.9511 99.9511 100.019 100.019 100.019 100.019 100.043 100.043 100.043 100.043 99.9387 99.9387 99.9387 99.9387 99.7977 99.7977 99.7977 99.7977 98.8406 98.8406 98.8406 98.8406 98.9856 98.9856 98.9856 98.9856 99.963 99.963 99.963 99.963 99.9207 99.9207 99.9207 99.9207 99.9542 99.9542 99.9542 99.9542 99.8446 99.8446 99.8446 99.8446 99.9405 99.9405 99.9405 99.9405 99.9511 99.9511 99.9511 99.9511 99.9256 99.9256 99.9256 99.9256 99.8494 99.8494 99.8494 99.8494 99.902 99.902 99.902 99.902 99.9049 99.9049 99.9049 99.9049 99.8763 99.8763 99.8763 99.8763 99.8622 99.8622 99.8622 99.8622 100.033 100.033 100.033 100.033 100.038 100.038 100.038 100.038 99.9015 99.9015 99.9015 99.9015 99.7452 99.7452 99.7452 99.7452 99.9389 99.9389 99.9389 99.9389 99.9609 99.9609 99.9609 99.9609 
VECTORS Displacement float 
3.47362e-05 2.95918e-05 0.100047 
2.72112e-05 1.86924e-05 0.100053 
2.29775e-05 2.79262e-05 0.10005 
-4.3652e-15 1.63767e-14 1.00062e-10 
6.09189e-05 7.92342e-06 0.100019 
4.56621e-05 3.1971e-06 0.100042 
4.82396e-05 1.7431e-05 0.100035 
1.2456e-14 1.15981e-15 1.0009e-10 
-9.02066e-06 2.12991e-05 0.100059 
2.04377e-06 2.70331e-05 0.100055 
3.50379e-07 1.46364e-05 0.10006 
2.59561e-06 1.31476e-05 0.0479705 
-2.29086e-05 5.51526e-05 0.100023 
-2.16191e-14 -5.6382e-15 1.0009e-10 
-7.94525e-06 4.37477e-05 0.100042 
-2.47137e-05 3.8935e-05 0.10004 
-2.16191e-14 -5.6382e-15 1.0009e-10 
-7.26406e-06 2.94324e-05 0.100055 
-7.94525e-06 4.37477e-05 0.100042 
-2.47137e-05 3.8935e-05 0.10004 
2.29775e-05 2.79262e-05 0.10005 
-4.3652e-15 1.63767e-14 1.00062e-10 
2.72112e-05 1.86924e-05 0.100053 
5.79011e-06 5.82395e-06 0.0438467 
6.05317e-05 -7.46322e-06 0.100022 
4.09096e-05 -1.10796e-05 0.100043 
4.56621e-05 3.1971e-06 0.100042 
3.91016e-15 5.5728e-15 1.00046e-10 
3.47362e-05 2.95918e-05 0.100047 
4.82396e-05 1.7431e-05 0.100035 
3.71413e-05 1.30871e-05 0.100046 
1.29182e-05 3.30709e-06 0.0441446 
-9.02066e-06 2.12991e-05 0.100059 
3.50379e-07 1.46364e-05 0.10006 
-1.06686e-05 1.0435e-05 0.100058 
-6.16076e-06 2.1223e-06 0.0497314 
3.39295e-05 4.54892e-07 0.100049 
4.09096e-05 -1.10796e-05 0.100043 
3.00055e-05 -9.69449e-06 0.100052 
1.29182e-05 3.30709e-06 0.0441446 
5.28136e-06 -5.4799e-05 0.100032 
-5.55103e-06 -5.86472e-05 0.100019 
-6.2081e-06 -4.67449e-05 0.100043 
8.03027e-15 -3.81591e-15 1.00108e-10 
3.47362e-05 2.95918e-05 0.100047 
2.29775e-05 2.79262e-05 0.10005 
1.83156e-05 4.10816e-05 0.100047 
-4.3652e-15 1.63767e-14 1.00062e-10 
-1.78398e-05 -3.9575e-05 0.100047 
-3.29738e-05 -4.34132e-05 0.100027 
5.62681e-17 -2.48705e-14 1.00032e-10 
-1.74603e-05 -5.69133e-05 0.100023 
-9.02066e-06 2.12991e-05 0.100059 
-1.90366e-15 5.71259e-15 1.00062e-10 
3.50379e-07 1.46364e-05 0.10006 
-6.16076e-06 2.1223e-06 0.0497314 
6.05317e-05 -7.46322e-06 0.100022 
5.58802e-05 -2.37198e-05 0.100017 
4.09096e-05 -1.10796e-05 0.100043 
-4.22611e-15 -7.24899e-15 9.99878e-11 
-1.78398e-05 -3.9575e-05 0.100047 
5.62681e-17 -2.48705e-14 1.00032e-10 
-6.2081e-06 -4.67449e-05 0.100043 
-1.74603e-05 -5.69133e-05 0.100023 
3.00055e-05 -9.69449e-06 0.100052 
4.09096e-05 -1.10796e-05 0.100043 
2.60305e-05 -2.07289e-05 0.100052 
1.32158e-14 -1.81027e-16 1.00071e-10 
-1.03997e-14 2.06657e-16 1.00061e-10 
-3.19851e-05 -2.71852e-05 0.100048 
-3.29738e-05 -4.34132e-05 0.100027 
-1.78398e-05 -3.9575e-05 0.100047 
-4.55699e-05 -7.44938e-06 0.100018 
-9.11877e-15 -7.78679e-15 1.00089e-10 
-5.18023e-05 8.55186e-07 0.099978 
-5.21181e-05 7.20726e-06 0.100023 
-7.94525e-06 4.37477e-05 0.100042 
-2.20173e-15 2.022e-14 9.99509e-11 
-2.29086e-05 5.51526e-05 0.100023 
-5.06565e-06 5.53661e-05 0.100018 
-3.9052e-05 1.28844e-05 0.100048 
-3.83326e-05 2.73176e-05 0.100039 
-2.89866e-05 2.38834e-05 0.100048 
-7.83724e-06 8.35936e-06 0.0422734 
-3.19851e-05 -2.71852e-05 0.100048 
-1.78398e-05 -3.9575e-05 0.100047 
-1.03997e-14 2.06657e-16 1.00061e-10 
-1.0664e-05 -1.1906e-05 0.0542056 
-7.26406e-06 2.94324e-05 0.100055 
-2.47137e-05 3.8935e-05 0.10004 
-2.16191e-14 -5.6382e-15 1.0009e-10 
-7.83724e-06 8.35936e-06 0.0422734 
3.47362e-05 2.95918e-05 0.100047 
2.72112e-05 1.86924e-05 0.100053 
-4.3652e-15 1.63767e-14 1.00062e-10 
1.29182e-05 3.30709e-06 0.0441446 
-5.53164e-05 1.49842e-05 0.0999735 
-6.03446e-05 2.69656e-05 0.0999712 
5.01193e-14 -2.05174e-14 1.00024e-10 
-6.52429e-05 2.03433e-05 0.09989 
-6.03446e-05 2.69656e-05 0.0999712 
-4.8344e-05 2.27449e-05 0.100016 
5.22154e-15 6.98438e-15 1.00058e-10 
-4.61568e-05 3.28924e-05 0.100003 
2.3511e-05 5.83085e-05 0.100012 
6.82601e-06 4.55458e-05 0.100036 
9.27463e-06 5.41236e-05 0.0999932 
1.76213e-15 -7.52097e-15 1.00075e-10 
-2.47137e-05 3.8935e-05 0.10004 
-2.29086e-05 5.51526e-05 0.100023 
-2.16191e-14 -5.6382e-15 1.0009e-10 
-3.80425e-05 4.46992e-05 0.100021 
4.21492e-06 3.80124e-05 0.100047 
-7.94525e-06 4.37477e-05 0.100042 
6.82601e-06 4.55458e-05 0.100036 
2.59561e-06 1.31476e-05 0.0479705 
3.8742e-05 -2.7704e-05 0.100041 
4.09096e-05 -1.10796e-05 0.100043 
5.58802e-05 -2.37198e-05 0.100017 
-4.22611e-15 -7.24899e-15 9.99878e-11 
1.83156e-05 4.10816e-05 0.100047 
6.82601e-06 4.55458e-05 0.100036 
1.76213e-15 -7.52097e-15 1.00075e-10 
2.59561e-06 1.31476e-05 0.0479705 
6.62628e-05 -1.66144e-05 0.0999877 
4.71313e-05 -2.78628e-05 0.0999793 
1.03205e-14 3.53759e-15 9.99384e-11 
4.83184e-05 -1.35016e-05 0.0999022 
2.53441e-05 -3.40384e-05 0.100044 
2.60305e-05 -2.07289e-05 0.100052 
3.8742e-05 -2.7704e-05 0.100041 
6.86288e-06 -1.25699e-05 0.0419077 
-2.95201e-05 -5.41367e-05 0.0999965 
-1.03997e-14 2.06657e-16 1.00061e-10 
-4.10081e-05 -4.21213e-05 0.0999941 
-3.29738e-05 -4.34132e-05 0.100027 
5.54151e-05 1.87711e-07 0.0999804 
6.62628e-05 -1.66144e-05 0.0999877 
6.05317e-05 -7.46322e-06 0.100022 
3.91016e-15 5.5728e-15 1.00046e-10 
-3.91604e-05 -2.92381e-05 0.100026 
-3.19851e-05 -2.71852e-05 0.100048 
-1.03997e-14 2.06657e-16 1.00061e-10 
-1.64282e-05 -4.86123e-06 0.048807 
-5.20386e-15 -4.54326e-17 9.9919e-11 
-4.8344e-05 2.27449e-05 0.100016 
-6.03446e-05 2.69656e-05 0.0999712 
-5.53164e-05 1.49842e-05 0.0999735 
6.09189e-05 7.92342e-06 0.100019 
6.75354e-05 1.07688e-05 0.0999743 
5.54151e-05 1.87711e-07 0.0999804 
3.91016e-15 5.5728e-15 1.00046e-10 
-7.28806e-06 2.80644e-06 0.100059 
3.50379e-07 1.46364e-05 0.10006 
2.35166e-06 5.1993e-06 0.10006 
-6.16076e-06 2.1223e-06 0.0497314 
-9.02066e-06 2.12991e-05 0.100059 
3.50379e-07 1.46364e-05 0.10006 
-1.90366e-15 5.71259e-15 1.00062e-10 
2.59561e-06 1.31476e-05 0.0479705 
-4.55699e-05 -7.44938e-06 0.100018 
-5.21181e-05 7.20726e-06 0.100023 
-4.69423e-05 -3.81554e-06 0.100041 
-1.64282e-05 -4.86123e-06 0.048807 
1.85543e-06 3.15096e-05 0.0998219 
-7.34016e-15 3.05353e-14 1.00374e-10 
2.22118e-06 3.85654e-05 0.0999452 
-7.85929e-06 3.04787e-05 0.0998382 
3.47362e-05 2.95918e-05 0.100047 
1.83156e-05 4.10816e-05 0.100047 
3.20001e-05 4.2529e-05 0.100026 
1.14499e-14 4.89949e-15 1.00015e-10 
-1.7716e-06 -4.07097e-06 0.10006 
-1.05306e-05 -1.09753e-05 0.100059 
-7.28806e-06 2.80644e-06 0.100059 
-6.16076e-06 2.1223e-06 0.0497314 
1.32158e-14 -1.81027e-16 1.00071e-10 
3.8742e-05 -2.7704e-05 0.100041 
2.60305e-05 -2.07289e-05 0.100052 
6.86288e-06 -1.25699e-05 0.0419077 
-4.58566e-05 -1.82272e-05 0.100034 
-3.19851e-05 -2.71852e-05 0.100048 
-3.91604e-05 -2.92381e-05 0.100026 
-1.64282e-05 -4.86123e-06 0.048807 
1.20093e-14 -2.00789e-15 9.99872e-11 
-5.05469e-05 3.1268e-05 0.099934 
-4.61568e-05 3.28924e-05 0.100003 
-4.1319e-05 3.94485e-05 0.099967 
-7.26406e-06 2.94324e-05 0.100055 
-1.91968e-05 2.78376e-05 0.100051 
-2.47137e-05 3.8935e-05 0.10004 
-7.83724e-06 8.35936e-06 0.0422734 
-1.05306e-05 -1.09753e-05 0.100059 
-2.48284e-05 -9.27827e-06 0.100057 
-1.49658e-05 -5.09375e-07 0.100058 
-1.26546e-05 -2.02278e-06 0.0492153 
1.83156e-05 4.10816e-05 0.100047 
6.82601e-06 4.55458e-05 0.100036 
2.3511e-05 5.83085e-05 0.100012 
1.76213e-15 -7.52097e-15 1.00075e-10 
-5.06565e-06 5.53661e-05 0.100018 
-7.94525e-06 4.37477e-05 0.100042 
1.32959e-14 2.16956e-14 1.00094e-10 
6.82601e-06 4.55458e-05 0.100036 
9.27463e-06 5.41236e-05 0.0999932 
2.00214e-05 6.22632e-05 0.0999638 
2.3511e-05 5.83085e-05 0.100012 
1.76213e-15 -7.52097e-15 1.00075e-10 
-7.26406e-06 2.94324e-05 0.100055 
1.32959e-14 2.16956e-14 1.00094e-10 
-2.16191e-14 -5.6382e-15 1.0009e-10 
-7.94525e-06 4.37477e-05 0.100042 
3.20001e-05 4.2529e-05 0.100026 
1.83156e-05 4.10816e-05 0.100047 
2.3511e-05 5.83085e-05 0.100012 
1.76213e-15 -7.52097e-15 1.00075e-10 
3.8742e-05 -2.7704e-05 0.100041 
2.60305e-05 -2.07289e-05 0.100052 
4.09096e-05 -1.10796e-05 0.100043 
1.32158e-14 -1.81027e-16 1.00071e-10 
3.00055e-05 -9.69449e-06 0.100052 
1.32158e-14 -1.81027e-16 1.00071e-10 
2.60305e-05 -2.07289e-05 0.100052 
6.6845e-06 -4.96604e-06 0.0451146 
2.72112e-05 1.86924e-05 0.100053 
3.47362e-05 2.95918e-05 0.100047 
3.71413e-05 1.30871e-05 0.100046 
1.29182e-05 3.30709e-06 0.0441446 
-2.95201e-05 -5.41367e-05 0.0999965 
5.62681e-17 -2.48705e-14 1.00032e-10 
-3.29738e-05 -4.34132e-05 0.100027 
-1.74603e-05 -5.69133e-05 0.100023 
-4.61568e-05 3.28924e-05 0.100003 
-3.83326e-05 2.73176e-05 0.100039 
1.20093e-14 -2.00789e-15 9.99872e-11 
-3.80425e-05 4.46992e-05 0.100021 
-2.16191e-14 -5.6382e-15 1.0009e-10 
-2.20173e-15 2.022e-14 9.99509e-11 
-2.29086e-05 5.51526e-05 0.100023 
-7.94525e-06 4.37477e-05 0.100042 
4.56621e-05 3.1971e-06 0.100042 
3.71413e-05 1.30871e-05 0.100046 
4.82396e-05 1.7431e-05 0.100035 
1.29182e-05 3.30709e-06 0.0441446 
3.20001e-05 4.2529e-05 0.100026 
2.3511e-05 5.83085e-05 0.100012 
3.36434e-05 5.82349e-05 0.0999934 
1.76213e-15 -7.52097e-15 1.00075e-10 
6.09189e-05 7.92342e-06 0.100019 
4.56621e-05 3.1971e-06 0.100042 
1.2456e-14 1.15981e-15 1.0009e-10 
3.91016e-15 5.5728e-15 1.00046e-10 
-3.32413e-05 -3.38461e-07 0.100054 
-3.9052e-05 1.28844e-05 0.100048 
-2.76725e-05 1.11363e-05 0.100056 
-1.26546e-05 -2.02278e-06 0.0492153 
-7.26406e-06 2.94324e-05 0.100055 
-7.83724e-06 8.35936e-06 0.0422734 
1.32959e-14 2.16956e-14 1.00094e-10 
2.59561e-06 1.31476e-05 0.0479705 
-9.02066e-06 2.12991e-05 0.100059 
-1.06686e-05 1.0435e-05 0.100058 
-1.97289e-05 1.78933e-05 0.100056 
-6.16076e-06 2.1223e-06 0.0497314 
-5.55103e-06 -5.86472e-05 0.100019 
-6.2081e-06 -4.67449e-05 0.100043 
5.62681e-17 -2.48705e-14 1.00032e-10 
-1.74603e-05 -5.69133e-05 0.100023 
3.47362e-05 2.95918e-05 0.100047 
4.24837e-05 3.40717e-05 0.100015 
4.82396e-05 1.7431e-05 0.100035 
1.14499e-14 4.89949e-15 1.00015e-10 
-5.55103e-06 -5.86472e-05 0.100019 
5.62681e-17 -2.48705e-14 1.00032e-10 
-6.2081e-06 -4.67449e-05 0.100043 
8.03027e-15 -3.81591e-15 1.00108e-10 
6.62628e-05 -1.66144e-05 0.0999877 
5.58802e-05 -2.37198e-05 0.100017 
6.05317e-05 -7.46322e-06 0.100022 
-4.22611e-15 -7.24899e-15 9.99878e-11 
-2.16191e-14 -5.6382e-15 1.0009e-10 
-3.83326e-05 2.73176e-05 0.100039 
-2.47137e-05 3.8935e-05 0.10004 
-3.80425e-05 4.46992e-05 0.100021 
-7.94525e-06 4.37477e-05 0.100042 
-7.26406e-06 2.94324e-05 0.100055 
1.32959e-14 2.16956e-14 1.00094e-10 
2.59561e-06 1.31476e-05 0.0479705 
5.28136e-06 -5.4799e-05 0.100032 
1.65415e-05 -4.53499e-05 0.100038 
1.68971e-05 -5.55476e-05 0.100016 
6.86288e-06 -1.25699e-05 0.0419077 
3.39295e-05 4.54892e-07 0.100049 
4.56621e-05 3.1971e-06 0.100042 
4.09096e-05 -1.10796e-05 0.100043 
1.29182e-05 3.30709e-06 0.0441446 
-1.53002e-05 5.05967e-05 0.0999726 
2.22118e-06 3.85654e-05 0.0999452 
-5.06565e-06 5.53661e-05 0.100018 
-4.1497e-15 -3.32772e-14 9.98534e-11 
3.36434e-05 5.82349e-05 0.0999934 
2.3511e-05 5.83085e-05 0.100012 
2.00214e-05 6.22632e-05 0.0999638 
1.76213e-15 -7.52097e-15 1.00075e-10 
3.20001e-05 4.2529e-05 0.100026 
3.36434e-05 5.82349e-05 0.0999934 
3.83034e-05 4.32617e-05 0.0999912 
-4.93347e-15 2.78394e-14 1.00009e-10 
-5.5533e-05 -1.24286e-05 0.099958 
3.58502e-15 -1.00007e-15 9.98792e-11 
-4.55699e-05 -7.44938e-06 0.100018 
-4.58569e-05 -2.07977e-05 0.100003 
-2.63817e-07 -1.56048e-05 0.100058 
1.35306e-05 -1.9621e-05 0.100056 
2.82143e-06 -2.87493e-05 0.100054 
-3.24792e-06 -8.03112e-06 0.0486293 
-1.91968e-05 2.78376e-05 0.100051 
-7.26406e-06 2.94324e-05 0.100055 
-9.02066e-06 2.12991e-05 0.100059 
-7.83724e-06 8.35936e-06 0.0422734 
-3.9052e-05 1.28844e-05 0.100048 
-4.8344e-05 2.27449e-05 0.100016 
5.22154e-15 6.98438e-15 1.00058e-10 
-5.21181e-05 7.20726e-06 0.100023 
2.29775e-05 2.79262e-05 0.10005 
2.72112e-05 1.86924e-05 0.100053 
1.81046e-05 1.97682e-05 0.100053 
5.79011e-06 5.82395e-06 0.0438467 
-5.20386e-15 -4.54326e-17 9.9919e-11 
-4.8344e-05 2.27449e-05 0.100016 
-5.53164e-05 1.49842e-05 0.0999735 
-5.21181e-05 7.20726e-06 0.100023 
-1.81185e-05 -1.82362e-05 0.100055 
-2.48284e-05 -9.27827e-06 0.100057 
-1.05306e-05 -1.09753e-05 0.100059 
-1.0664e-05 -1.1906e-05 0.0542056 
-9.7553e-15 -5.96936e-15 1.00065e-10 
-1.78398e-05 -3.9575e-05 0.100047 
-6.2081e-06 -4.67449e-05 0.100043 
-7.79829e-08 -1.42251e-05 0.042739 
-2.29086e-05 5.51526e-05 0.100023 
-3.11394e-05 5.56202e-05 0.0999841 
-2.20173e-15 2.022e-14 9.99509e-11 
-3.80425e-05 4.46992e-05 0.100021 
-3.29738e-05 -4.34132e-05 0.100027 
5.62681e-17 -2.48705e-14 1.00032e-10 
-1.03997e-14 2.06657e-16 1.00061e-10 
-1.78398e-05 -3.9575e-05 0.100047 
8.03027e-15 -3.81591e-15 1.00108e-10 
1.68971e-05 -5.55476e-05 0.100016 
5.28136e-06 -5.4799e-05 0.100032 
1.62911e-06 -6.71259e-05 0.0999911 
5.01193e-14 -2.05174e-14 1.00024e-10 
-5.53164e-05 1.49842e-05 0.0999735 
-6.52429e-05 2.03433e-05 0.09989 
-4.53201e-05 8.48944e-06 0.0998868 
3.50379e-07 1.46364e-05 0.10006 
1.12477e-05 1.12839e-05 0.100057 
2.35166e-06 5.1993e-06 0.10006 
5.79011e-06 5.82395e-06 0.0438467 
4.56621e-05 3.1971e-06 0.100042 
6.09189e-05 7.92342e-06 0.100019 
6.05317e-05 -7.46322e-06 0.100022 
3.91016e-15 5.5728e-15 1.00046e-10 
-6.2081e-06 -4.67449e-05 0.100043 
-9.7553e-15 -5.96936e-15 1.00065e-10 
5.62681e-17 -2.48705e-14 1.00032e-10 
-1.78398e-05 -3.9575e-05 0.100047 
-3.11394e-05 5.56202e-05 0.0999841 
-1.14938e-14 -1.51858e-14 9.99295e-11 
-2.42004e-05 3.37462e-05 0.0998812 
-1.53002e-05 5.05967e-05 0.0999726 
1.32158e-14 -1.81027e-16 1.00071e-10 
4.56621e-05 3.1971e-06 0.100042 
4.09096e-05 -1.10796e-05 0.100043 
3.91016e-15 5.5728e-15 1.00046e-10 
-7.28806e-06 2.80644e-06 0.100059 
-1.06686e-05 1.0435e-05 0.100058 
3.50379e-07 1.46364e-05 0.10006 
-6.16076e-06 2.1223e-06 0.0497314 
1.07056e-14 5.51363e-15 9.99775e-11 
-2.73231e-05 -6.16719e-05 0.0999002 
-1.47519e-05 -6.37192e-05 0.0999789 
-2.95201e-05 -5.41367e-05 0.0999965 
2.72112e-05 1.86924e-05 0.100053 
5.79011e-06 5.82395e-06 0.0438467 
-4.3652e-15 1.63767e-14 1.00062e-10 
1.29182e-05 3.30709e-06 0.0441446 
-9.02066e-06 2.12991e-05 0.100059 
-7.83724e-06 8.35936e-06 0.0422734 
-7.26406e-06 2.94324e-05 0.100055 
2.59561e-06 1.31476e-05 0.0479705 
-7.28806e-06 2.80644e-06 0.100059 
-1.05306e-05 -1.09753e-05 0.100059 
-1.49658e-05 -5.09375e-07 0.100058 
-6.16076e-06 2.1223e-06 0.0497314 
-3.19851e-05 -2.71852e-05 0.100048 
-3.91604e-05 -2.92381e-05 0.100026 
-1.03997e-14 2.06657e-16 1.00061e-10 
-3.29738e-05 -4.34132e-05 0.100027 
-6.2081e-06 -4.67449e-05 0.100043 
-1.78398e-05 -3.9575e-05 0.100047 
-7.14711e-06 -3.47554e-05 0.100051 
-7.79829e-08 -1.42251e-05 0.042739 
5.26181e-05 3.07291e-05 0.0999722 
4.24837e-05 3.40717e-05 0.100015 
3.83034e-05 4.32617e-05 0.0999912 
4.69002e-14 3.47452e-14 1.00142e-10 
9.27463e-06 5.41236e-05 0.0999932 
6.82601e-06 4.55458e-05 0.100036 
-5.06565e-06 5.53661e-05 0.100018 
-4.1497e-15 -3.32772e-14 9.98534e-11 
7.51463e-06 5.33769e-06 0.0995691 
-4.60925e-05 6.56188e-07 0.0496463 
2.43334e-05 -8.1768e-06 0.0996381 
-1.81272e-13 -7.90914e-14 9.84557e-11 
-1.97289e-05 1.78933e-05 0.100056 
-1.85941e-05 7.45005e-06 0.100058 
-2.76725e-05 1.11363e-05 0.100056 
-7.83724e-06 8.35936e-06 0.0422734 
-4.71991e-05 -3.14745e-05 0.0998614 
1.97502e-14 -6.55476e-14 1.00495e-10 
-4.68848e-05 -3.02534e-05 0.099973 
-3.50716e-05 -2.88763e-05 0.0999037 
-4.93347e-15 2.78394e-14 1.00009e-10 
3.20001e-05 4.2529e-05 0.100026 
3.36434e-05 5.82349e-05 0.0999934 
1.76213e-15 -7.52097e-15 1.00075e-10 
4.82396e-05 1.7431e-05 0.100035 
6.09189e-05 7.92342e-06 0.100019 
1.2456e-14 1.15981e-15 1.0009e-10 
-1.50261e-14 8.49891e-15 9.99389e-11 
-8.05101e-06 2.79562e-05 0.0996153 
4.15969e-15 -2.14514e-13 9.8672e-11 
-2.41495e-06 -4.36617e-05 0.0496319 
-1.94651e-14 -2.24431e-13 9.83124e-11 
-2.20173e-15 2.022e-14 9.99509e-11 
-2.16191e-14 -5.6382e-15 1.0009e-10 
-2.29086e-05 5.51526e-05 0.100023 
-3.80425e-05 4.46992e-05 0.100021 
-7.94525e-06 4.37477e-05 0.100042 
1.32959e-14 2.16956e-14 1.00094e-10 
-2.20173e-15 2.022e-14 9.99509e-11 
-5.06565e-06 5.53661e-05 0.100018 
3.58502e-15 -1.00007e-15 9.98792e-11 
-4.55699e-05 -7.44938e-06 0.100018 
-9.11877e-15 -7.78679e-15 1.00089e-10 
-5.18023e-05 8.55186e-07 0.099978 
-2.95201e-05 -5.41367e-05 0.0999965 
5.62681e-17 -2.48705e-14 1.00032e-10 
-1.03997e-14 2.06657e-16 1.00061e-10 
-3.29738e-05 -4.34132e-05 0.100027 
3.91016e-15 5.5728e-15 1.00046e-10 
6.62628e-05 -1.66144e-05 0.0999877 
6.05317e-05 -7.46322e-06 0.100022 
-4.22611e-15 -7.24899e-15 9.99878e-11 
-6.03446e-05 2.69656e-05 0.0999712 
-4.6685e-05 2.01706e-05 0.0998478 
5.01193e-14 -2.05174e-14 1.00024e-10 
-6.52429e-05 2.03433e-05 0.09989 
-4.10081e-05 -4.21213e-05 0.0999941 
-1.03997e-14 2.06657e-16 1.00061e-10 
-3.91604e-05 -2.92381e-05 0.100026 
-3.29738e-05 -4.34132e-05 0.100027 
1.32959e-14 2.16956e-14 1.00094e-10 
-7.26406e-06 2.94324e-05 0.100055 
-2.16191e-14 -5.6382e-15 1.0009e-10 
-7.83724e-06 8.35936e-06 0.0422734 
2.53648e-05 -3.74752e-05 0.100032 
2.53441e-05 -3.40384e-05 0.100044 
3.8742e-05 -2.7704e-05 0.100041 
6.86288e-06 -1.25699e-05 0.0419077 
-2.63817e-07 -1.56048e-05 0.100058 
-1.7716e-06 -4.07097e-06 0.10006 
6.64819e-06 -2.61503e-06 0.100059 
7.06615e-07 -8.90303e-07 0.042266 
-7.14711e-06 -3.47554e-05 0.100051 
-7.79829e-08 -1.42251e-05 0.042739 
-1.78398e-05 -3.9575e-05 0.100047 
-1.0664e-05 -1.1906e-05 0.0542056 
-3.83326e-05 2.73176e-05 0.100039 
-2.16191e-14 -5.6382e-15 1.0009e-10 
1.20093e-14 -2.00789e-15 9.99872e-11 
-3.80425e-05 4.46992e-05 0.100021 
-2.44229e-05 -3.80804e-08 0.100056 
-2.76725e-05 1.11363e-05 0.100056 
-1.85941e-05 7.45005e-06 0.100058 
-1.26546e-05 -2.02278e-06 0.0492153 
4.56621e-05 3.1971e-06 0.100042 
1.32158e-14 -1.81027e-16 1.00071e-10 
4.09096e-05 -1.10796e-05 0.100043 
1.29182e-05 3.30709e-06 0.0441446 
-3.9052e-05 1.28844e-05 0.100048 
5.22154e-15 6.98438e-15 1.00058e-10 
-3.83326e-05 2.73176e-05 0.100039 
-7.83724e-06 8.35936e-06 0.0422734 
2.42034e-05 7.68226e-06 0.100055 
2.12594e-05 -7.44716e-06 0.100055 
1.49694e-05 3.83395e-07 0.100059 
1.29182e-05 3.30709e-06 0.0441446 
3.00055e-05 -9.69449e-06 0.100052 
2.12594e-05 -7.44716e-06 0.100055 
3.39295e-05 4.54892e-07 0.100049 
1.29182e-05 3.30709e-06 0.0441446 
8.49044e-06 3.37106e-05 0.0996727 
-8.05101e-06 2.79562e-05 0.0996153 
-2.41495e-06 -4.36617e-05 0.0496319 
-1.94651e-14 -2.24431e-13 9.83124e-11 
-8.12817e-15 7.77816e-15 1.00059e-10 
-2.76725e-05 1.11363e-05 0.100056 
-3.9052e-05 1.28844e-05 0.100048 
-1.26546e-05 -2.02278e-06 0.0492153 
1.54623e-14 -9.97011e-15 1.00131e-10 
-4.68848e-05 -3.02534e-05 0.099973 
-5.72968e-05 -2.22684e-05 0.0998967 
-4.71991e-05 -3.14745e-05 0.0998614 
-3.9052e-05 1.28844e-05 0.100048 
-2.89866e-05 2.38834e-05 0.100048 
-2.76725e-05 1.11363e-05 0.100056 
-7.83724e-06 8.35936e-06 0.0422734 
4.09096e-05 -1.10796e-05 0.100043 
3.8742e-05 -2.7704e-05 0.100041 
1.32158e-14 -1.81027e-16 1.00071e-10 
-4.22611e-15 -7.24899e-15 9.99878e-11 
4.09096e-05 -1.10796e-05 0.100043 
1.32158e-14 -1.81027e-16 1.00071e-10 
3.00055e-05 -9.69449e-06 0.100052 
1.29182e-05 3.30709e-06 0.0441446 
-4.68848e-05 -3.02534e-05 0.099973 
-3.91604e-05 -2.92381e-05 0.100026 
-1.13333e-14 -4.43145e-15 1.00036e-10 
-4.58569e-05 -2.07977e-05 0.100003 
6.62628e-05 -1.66144e-05 0.0999877 
1.03205e-14 3.53759e-15 9.99384e-11 
4.71313e-05 -2.78628e-05 0.0999793 
-4.22611e-15 -7.24899e-15 9.99878e-11 
1.83156e-05 4.10816e-05 0.100047 
3.20001e-05 4.2529e-05 0.100026 
1.14499e-14 4.89949e-15 1.00015e-10 
1.76213e-15 -7.52097e-15 1.00075e-10 
-8.12817e-15 7.77816e-15 1.00059e-10 
-1.26546e-05 -2.02278e-06 0.0492153 
-3.9052e-05 1.28844e-05 0.100048 
-1.64282e-05 -4.86123e-06 0.048807 
1.12477e-05 1.12839e-05 0.100057 
6.64819e-06 -2.61503e-06 0.100059 
2.35166e-06 5.1993e-06 0.10006 
7.06615e-07 -8.90303e-07 0.042266 
-4.60925e-05 6.56188e-07 0.0496463 
7.51463e-06 5.33769e-06 0.0995691 
-2.4093e-13 -5.18192e-15 9.8655e-11 
-1.81272e-13 -7.90914e-14 9.84557e-11 
1.54623e-14 -9.97011e-15 1.00131e-10 
1.97502e-14 -6.55476e-14 1.00495e-10 
-4.68848e-05 -3.02534e-05 0.099973 
-4.71991e-05 -3.14745e-05 0.0998614 
2.53648e-05 -3.74752e-05 0.100032 
1.81506e-14 1.78058e-14 9.99388e-11 
1.68971e-05 -5.55476e-05 0.100016 
6.86288e-06 -1.25699e-05 0.0419077 
1.35306e-05 -1.9621e-05 0.100056 
1.54212e-05 -3.3144e-05 0.100052 
2.82143e-06 -2.87493e-05 0.100054 
-7.79829e-08 -1.42251e-05 0.042739 
3.8742e-05 -2.7704e-05 0.100041 
5.58802e-05 -2.37198e-05 0.100017 
4.37893e-05 -4.04e-05 0.100013 
-4.22611e-15 -7.24899e-15 9.99878e-11 
4.56621e-05 3.1971e-06 0.100042 
3.91016e-15 5.5728e-15 1.00046e-10 
1.32158e-14 -1.81027e-16 1.00071e-10 
1.29182e-05 3.30709e-06 0.0441446 
-6.52429e-05 2.03433e-05 0.09989 
-2.93425e-05 1.29084e-05 0.0997196 
5.01193e-14 -2.05174e-14 1.00024e-10 
-4.53201e-05 8.48944e-06 0.0998868 
6.82601e-06 4.55458e-05 0.100036 
1.83156e-05 4.10816e-05 0.100047 
4.21492e-06 3.80124e-05 0.100047 
2.59561e-06 1.31476e-05 0.0479705 
6.75354e-05 1.07688e-05 0.0999743 
6.09189e-05 7.92342e-06 0.100019 
-1.50261e-14 8.49891e-15 9.99389e-11 
3.91016e-15 5.5728e-15 1.00046e-10 
-8.12817e-15 7.77816e-15 1.00059e-10 
-3.9052e-05 1.28844e-05 0.100048 
-2.76725e-05 1.11363e-05 0.100056 
-7.83724e-06 8.35936e-06 0.0422734 
-5.18023e-05 8.55186e-07 0.099978 
3.58502e-15 -1.00007e-15 9.98792e-11 
-4.55699e-05 -7.44938e-06 0.100018 
-5.5533e-05 -1.24286e-05 0.099958 
1.19414e-13 1.42617e-15 9.83977e-11 
5.51545e-05 1.44284e-06 0.0496284 
2.21216e-13 -1.59596e-14 9.84178e-11 
-9.09223e-06 6.55199e-06 0.099644 
-4.10081e-05 -4.21213e-05 0.0999941 
-2.13064e-14 1.20842e-14 9.99287e-11 
-3.11894e-05 -4.6494e-05 0.0999213 
-3.50716e-05 -2.88763e-05 0.0999037 
1.49694e-05 3.83395e-07 0.100059 
1.0665e-05 -1.07206e-05 0.100056 
6.64819e-06 -2.61503e-06 0.100059 
6.6845e-06 -4.96604e-06 0.0451146 
4.34401e-06 -4.13329e-05 0.100046 
5.28136e-06 -5.4799e-05 0.100032 
-6.2081e-06 -4.67449e-05 0.100043 
-7.79829e-08 -1.42251e-05 0.042739 
6.26998e-05 2.19385e-05 0.0999969 
4.82396e-05 1.7431e-05 0.100035 
4.24837e-05 3.40717e-05 0.100015 
-1.50261e-14 8.49891e-15 9.99389e-11 
-1.03997e-14 2.06657e-16 1.00061e-10 
-1.78398e-05 -3.9575e-05 0.100047 
-9.7553e-15 -5.96936e-15 1.00065e-10 
-1.0664e-05 -1.1906e-05 0.0542056 
2.29775e-05 2.79262e-05 0.10005 
1.83156e-05 4.10816e-05 0.100047 
-4.3652e-15 1.63767e-14 1.00062e-10 
2.59561e-06 1.31476e-05 0.0479705 
1.72913e-05 -4.87396e-05 0.0999604 
1.68971e-05 -5.55476e-05 0.100016 
1.81506e-14 1.78058e-14 9.99388e-11 
1.62911e-06 -6.71259e-05 0.0999911 
5.22154e-15 6.98438e-15 1.00058e-10 
-9.11877e-15 -7.78679e-15 1.00089e-10 
-3.9052e-05 1.28844e-05 0.100048 
-5.21181e-05 7.20726e-06 0.100023 
6.09189e-05 7.92342e-06 0.100019 
4.82396e-05 1.7431e-05 0.100035 
6.26998e-05 2.19385e-05 0.0999969 
-1.50261e-14 8.49891e-15 9.99389e-11 
2.22118e-06 3.85654e-05 0.0999452 
1.01356e-05 5.20172e-05 0.0999067 
9.27463e-06 5.41236e-05 0.0999932 
-4.1497e-15 -3.32772e-14 9.98534e-11 
3.47362e-05 2.95918e-05 0.100047 
1.2456e-14 1.15981e-15 1.0009e-10 
4.82396e-05 1.7431e-05 0.100035 
1.29182e-05 3.30709e-06 0.0441446 
-5.20386e-15 -4.54326e-17 9.9919e-11 
-5.53164e-05 1.49842e-05 0.0999735 
-5.18023e-05 8.55186e-07 0.099978 
-5.21181e-05 7.20726e-06 0.100023 
5.62681e-17 -2.48705e-14 1.00032e-10 
-6.2081e-06 -4.67449e-05 0.100043 
8.03027e-15 -3.81591e-15 1.00108e-10 
-7.79829e-08 -1.42251e-05 0.042739 
1.14499e-14 4.89949e-15 1.00015e-10 
3.47362e-05 2.95918e-05 0.100047 
1.83156e-05 4.10816e-05 0.100047 
-4.3652e-15 1.63767e-14 1.00062e-10 
-5.57768e-05 -1.71737e-05 0.0998385 
1.54623e-14 -9.97011e-15 1.00131e-10 
-3.38167e-15 9.32939e-15 1.00138e-10 
-5.5533e-05 -1.24286e-05 0.099958 
-3.80425e-05 4.46992e-05 0.100021 
-3.11394e-05 5.56202e-05 0.0999841 
1.20093e-14 -2.00789e-15 9.99872e-11 
-4.1319e-05 3.94485e-05 0.099967 
5.54151e-05 1.87711e-07 0.0999804 
6.75354e-05 1.07688e-05 0.0999743 
6.96214e-14 -7.17407e-15 1.00033e-10 
3.91016e-15 5.5728e-15 1.00046e-10 
-4.8344e-05 2.27449e-05 0.100016 
5.22154e-15 6.98438e-15 1.00058e-10 
-5.20386e-15 -4.54326e-17 9.9919e-11 
-6.03446e-05 2.69656e-05 0.0999712 
-4.55699e-05 -7.44938e-06 0.100018 
-4.58566e-05 -1.82272e-05 0.100034 
-4.58569e-05 -2.07977e-05 0.100003 
-1.64282e-05 -4.86123e-06 0.048807 
-5.06565e-06 5.53661e-05 0.100018 
-2.20173e-15 2.022e-14 9.99509e-11 
-2.29086e-05 5.51526e-05 0.100023 
-1.53002e-05 5.05967e-05 0.0999726 
4.56621e-05 3.1971e-06 0.100042 
4.82396e-05 1.7431e-05 0.100035 
1.2456e-14 1.15981e-15 1.0009e-10 
1.29182e-05 3.30709e-06 0.0441446 
6.09189e-05 7.92342e-06 0.100019 
5.54151e-05 1.87711e-07 0.0999804 
6.05317e-05 -7.46322e-06 0.100022 
3.91016e-15 5.5728e-15 1.00046e-10 
3.75629e-05 -4.14227e-05 0.0999405 
3.84617e-05 -2.06054e-05 0.0998836 
2.5542e-05 -3.21784e-05 0.0997541 
-4.49752e-14 2.33003e-14 1.00211e-10 
-1.90366e-15 5.71259e-15 1.00062e-10 
5.79011e-06 5.82395e-06 0.0438467 
3.50379e-07 1.46364e-05 0.10006 
-6.16076e-06 2.1223e-06 0.0497314 
5.58802e-05 -2.37198e-05 0.100017 
6.62628e-05 -1.66144e-05 0.0999877 
4.71313e-05 -2.78628e-05 0.0999793 
-4.22611e-15 -7.24899e-15 9.99878e-11 
1.49694e-05 3.83395e-07 0.100059 
1.12477e-05 1.12839e-05 0.100057 
2.42034e-05 7.68226e-06 0.100055 
5.79011e-06 5.82395e-06 0.0438467 
-4.1497e-15 -3.32772e-14 9.98534e-11 
9.27463e-06 5.41236e-05 0.0999932 
6.82601e-06 4.55458e-05 0.100036 
1.76213e-15 -7.52097e-15 1.00075e-10 
-5.05469e-05 3.1268e-05 0.099934 
1.20093e-14 -2.00789e-15 9.99872e-11 
-4.22245e-14 2.99316e-14 1.0014e-10 
-4.1319e-05 3.94485e-05 0.099967 
4.15969e-15 -2.14514e-13 9.8672e-11 
-7.34016e-15 3.05353e-14 1.00374e-10 
1.85543e-06 3.15096e-05 0.0998219 
-7.85929e-06 3.04787e-05 0.0998382 
-7.26406e-06 2.94324e-05 0.100055 
2.04377e-06 2.70331e-05 0.100055 
-9.02066e-06 2.12991e-05 0.100059 
2.59561e-06 1.31476e-05 0.0479705 
5.62681e-17 -2.48705e-14 1.00032e-10 
-9.7553e-15 -5.96936e-15 1.00065e-10 
-6.2081e-06 -4.67449e-05 0.100043 
-7.79829e-08 -1.42251e-05 0.042739 
4.82396e-05 1.7431e-05 0.100035 
3.47362e-05 2.95918e-05 0.100047 
1.14499e-14 4.89949e-15 1.00015e-10 
1.2456e-14 1.15981e-15 1.0009e-10 
-2.89866e-05 2.38834e-05 0.100048 
-3.83326e-05 2.73176e-05 0.100039 
-2.47137e-05 3.8935e-05 0.10004 
-7.83724e-06 8.35936e-06 0.0422734 
5.22154e-15 6.98438e-15 1.00058e-10 
-4.8344e-05 2.27449e-05 0.100016 
-3.83326e-05 2.73176e-05 0.100039 
-4.61568e-05 3.28924e-05 0.100003 
1.54623e-14 -9.97011e-15 1.00131e-10 
-5.72968e-05 -2.22684e-05 0.0998967 
-4.68848e-05 -3.02534e-05 0.099973 
-4.58569e-05 -2.07977e-05 0.100003 
-4.41431e-05 -5.08118e-06 0.0998697 
-5.57768e-05 -1.71737e-05 0.0998385 
-3.38167e-15 9.32939e-15 1.00138e-10 
-5.5533e-05 -1.24286e-05 0.099958 
1.2456e-14 1.15981e-15 1.0009e-10 
3.91016e-15 5.5728e-15 1.00046e-10 
4.56621e-05 3.1971e-06 0.100042 
1.29182e-05 3.30709e-06 0.0441446 
1.54623e-14 -9.97011e-15 1.00131e-10 
-5.57768e-05 -1.71737e-05 0.0998385 
-5.72968e-05 -2.22684e-05 0.0998967 
-5.5533e-05 -1.24286e-05 0.099958 
-5.18023e-05 8.55186e-07 0.099978 
-9.11877e-15 -7.78679e-15 1.00089e-10 
-5.20386e-15 -4.54326e-17 9.9919e-11 
-5.21181e-05 7.20726e-06 0.100023 
1.32959e-14 2.16956e-14 1.00094e-10 
1.76213e-15 -7.52097e-15 1.00075e-10 
6.82601e-06 4.55458e-05 0.100036 
2.59561e-06 1.31476e-05 0.0479705 
2.60351e-05 3.02084e-05 0.0996995 
4.93408e-05 2.06597e-05 0.0998533 
4.07218e-05 3.08412e-05 0.0999026 
-2.13175e-13 -1.27377e-13 9.91712e-11 
5.28136e-06 -5.4799e-05 0.100032 
8.03027e-15 -3.81591e-15 1.00108e-10 
-6.2081e-06 -4.67449e-05 0.100043 
-7.79829e-08 -1.42251e-05 0.042739 
3.66889e-05 -2.47289e-05 0.099731 
-2.45792e-13 7.56687e-14 9.92453e-11 
2.5542e-05 -3.21784e-05 0.0997541 
3.84617e-05 -2.06054e-05 0.0998836 
1.32158e-14 -1.81027e-16 1.00071e-10 
2.60305e-05 -2.07289e-05 0.100052 
6.6845e-06 -4.96604e-06 0.0451146 
6.86288e-06 -1.25699e-05 0.0419077 
-5.72968e-05 -2.22684e-05 0.0998967 
1.54623e-14 -9.97011e-15 1.00131e-10 
-5.5533e-05 -1.24286e-05 0.099958 
-4.58569e-05 -2.07977e-05 0.100003 
-7.85929e-06 3.04787e-05 0.0998382 
4.15969e-15 -2.14514e-13 9.8672e-11 
1.33584e-14 -1.74204e-13 9.88245e-11 
-1.80177e-05 3.27343e-05 0.0996951 
1.28013e-05 3.08063e-05 0.100052 
2.29775e-05 2.79262e-05 0.10005 
1.81046e-05 1.97682e-05 0.100053 
5.79011e-06 5.82395e-06 0.0438467 
2.53648e-05 -3.74752e-05 0.100032 
3.8742e-05 -2.7704e-05 0.100041 
4.37893e-05 -4.04e-05 0.100013 
-1.79771e-15 -1.72541e-14 1.00092e-10 
1.49694e-05 3.83395e-07 0.100059 
6.64819e-06 -2.61503e-06 0.100059 
1.12477e-05 1.12839e-05 0.100057 
7.06615e-07 -8.90303e-07 0.042266 
5.95926e-06 -1.57217e-05 0.0995966 
-1.59438e-06 5.2946e-05 0.0496482 
-3.20611e-06 -1.55851e-05 0.0996728 
6.13684e-14 1.54122e-13 9.83801e-11 
2.22118e-06 3.85654e-05 0.0999452 
-7.34016e-15 3.05353e-14 1.00374e-10 
1.85543e-06 3.15096e-05 0.0998219 
7.24462e-15 2.46363e-14 1.00303e-10 
-4.1319e-05 3.94485e-05 0.099967 
-3.11394e-05 5.56202e-05 0.0999841 
-1.14938e-14 -1.51858e-14 9.99295e-11 
-2.83206e-05 4.36499e-05 0.099905 
1.85543e-06 3.15096e-05 0.0998219 
-8.05101e-06 2.79562e-05 0.0996153 
4.15969e-15 -2.14514e-13 9.8672e-11 
-7.85929e-06 3.04787e-05 0.0998382 
6.82601e-06 4.55458e-05 0.100036 
1.32959e-14 2.16956e-14 1.00094e-10 
-5.06565e-06 5.53661e-05 0.100018 
-4.1497e-15 -3.32772e-14 9.98534e-11 
1.0665e-05 -1.07206e-05 0.100056 
1.35306e-05 -1.9621e-05 0.100056 
-2.63817e-07 -1.56048e-05 0.100058 
6.6845e-06 -4.96604e-06 0.0451146 
-4.68848e-05 -3.02534e-05 0.099973 
-1.13333e-14 -4.43145e-15 1.00036e-10 
1.54623e-14 -9.97011e-15 1.00131e-10 
-4.58569e-05 -2.07977e-05 0.100003 
3.84617e-05 -2.06054e-05 0.0998836 
-2.45792e-13 7.56687e-14 9.92453e-11 
2.5542e-05 -3.21784e-05 0.0997541 
-5.76453e-14 8.63802e-14 9.89752e-11 
-1.95758e-05 -2.81997e-05 0.100051 
-7.14711e-06 -3.47554e-05 0.100051 
-1.78398e-05 -3.9575e-05 0.100047 
-1.0664e-05 -1.1906e-05 0.0542056 
2.72112e-05 1.86924e-05 0.100053 
2.42034e-05 7.68226e-06 0.100055 
1.81046e-05 1.97682e-05 0.100053 
5.79011e-06 5.82395e-06 0.0438467 
1.27592e-15 -2.15176e-14 9.99158e-11 
2.64982e-05 -4.70564e-05 0.0999822 
2.53648e-05 -3.74752e-05 0.100032 
1.81506e-14 1.78058e-14 9.99388e-11 
-2.20173e-15 2.022e-14 9.99509e-11 
-2.16191e-14 -5.6382e-15 1.0009e-10 
1.32959e-14 2.16956e-14 1.00094e-10 
-7.94525e-06 4.37477e-05 0.100042 
6.75354e-05 1.07688e-05 0.0999743 
6.09189e-05 7.92342e-06 0.100019 
6.26998e-05 2.19385e-05 0.0999969 
-1.50261e-14 8.49891e-15 9.99389e-11 
-1.13333e-14 -4.43145e-15 1.00036e-10 
-3.91604e-05 -2.92381e-05 0.100026 
-1.03997e-14 2.06657e-16 1.00061e-10 
-1.64282e-05 -4.86123e-06 0.048807 
5.22154e-15 6.98438e-15 1.00058e-10 
-4.48517e-14 2.53872e-14 1.0007e-10 
-6.03446e-05 2.69656e-05 0.0999712 
-4.61568e-05 3.28924e-05 0.100003 
-7.85929e-06 3.04787e-05 0.0998382 
-8.05101e-06 2.79562e-05 0.0996153 
4.15969e-15 -2.14514e-13 9.8672e-11 
-1.80177e-05 3.27343e-05 0.0996951 
1.68971e-05 -5.55476e-05 0.100016 
2.53648e-05 -3.74752e-05 0.100032 
2.64982e-05 -4.70564e-05 0.0999822 
1.81506e-14 1.78058e-14 9.99388e-11 
-1.05306e-05 -1.09753e-05 0.100059 
-1.49658e-05 -5.09375e-07 0.100058 
-6.16076e-06 2.1223e-06 0.0497314 
-1.26546e-05 -2.02278e-06 0.0492153 
1.33705e-13 1.62128e-13 9.87225e-11 
1.97502e-14 -6.55476e-14 1.00495e-10 
-4.04487e-05 -1.98403e-05 0.0997295 
-3.50716e-05 -2.88763e-05 0.0999037 
-1.47519e-05 -6.37192e-05 0.0999789 
5.62681e-17 -2.48705e-14 1.00032e-10 
-2.95201e-05 -5.41367e-05 0.0999965 
-1.74603e-05 -5.69133e-05 0.100023 
-4.68848e-05 -3.02534e-05 0.099973 
-2.13064e-14 1.20842e-14 9.99287e-11 
-3.91604e-05 -2.92381e-05 0.100026 
-4.10081e-05 -4.21213e-05 0.0999941 
5.26181e-05 3.07291e-05 0.0999722 
5.44003e-05 1.83981e-05 0.0999154 
6.26998e-05 2.19385e-05 0.0999969 
-1.50261e-14 8.49891e-15 9.99389e-11 
3.58502e-15 -1.00007e-15 9.98792e-11 
-1.13333e-14 -4.43145e-15 1.00036e-10 
-4.55699e-05 -7.44938e-06 0.100018 
-4.58569e-05 -2.07977e-05 0.100003 
-3.83326e-05 2.73176e-05 0.100039 
1.20093e-14 -2.00789e-15 9.99872e-11 
5.22154e-15 6.98438e-15 1.00058e-10 
-4.61568e-05 3.28924e-05 0.100003 
-3.62094e-05 -2.04487e-05 0.0997118 
-5.57768e-05 -1.71737e-05 0.0998385 
-5.72968e-05 -2.22684e-05 0.0998967 
1.54623e-14 -9.97011e-15 1.00131e-10 
2.29775e-05 2.79262e-05 0.10005 
1.28013e-05 3.08063e-05 0.100052 
1.83156e-05 4.10816e-05 0.100047 
2.59561e-06 1.31476e-05 0.0479705 
5.01193e-14 -2.05174e-14 1.00024e-10 
-5.20386e-15 -4.54326e-17 9.9919e-11 
-6.03446e-05 2.69656e-05 0.0999712 
-5.53164e-05 1.49842e-05 0.0999735 
-1.53002e-05 5.05967e-05 0.0999726 
-5.06565e-06 5.53661e-05 0.100018 
-2.20173e-15 2.022e-14 9.99509e-11 
-4.1497e-15 -3.32772e-14 9.98534e-11 
2.53648e-05 -3.74752e-05 0.100032 
4.37893e-05 -4.04e-05 0.100013 
2.64982e-05 -4.70564e-05 0.0999822 
1.27592e-15 -2.15176e-14 9.99158e-11 
-1.47519e-05 -6.37192e-05 0.0999789 
5.62681e-17 -2.48705e-14 1.00032e-10 
-5.55103e-06 -5.86472e-05 0.100019 
-2.56942e-14 9.5864e-15 9.98459e-11 
2.00214e-05 6.22632e-05 0.0999638 
9.27463e-06 5.41236e-05 0.0999932 
1.93684e-14 4.61972e-14 9.99896e-11 
1.76213e-15 -7.52097e-15 1.00075e-10 
-3.83326e-05 2.73176e-05 0.100039 
-4.8344e-05 2.27449e-05 0.100016 
5.22154e-15 6.98438e-15 1.00058e-10 
-3.9052e-05 1.28844e-05 0.100048 
-1.19492e-14 -4.48993e-16 1.00054e-10 
-3.19851e-05 -2.71852e-05 0.100048 
-1.03997e-14 2.06657e-16 1.00061e-10 
-1.0664e-05 -1.1906e-05 0.0542056 
3.50379e-07 1.46364e-05 0.10006 
7.06615e-07 -8.90303e-07 0.042266 
2.35166e-06 5.1993e-06 0.10006 
-6.16076e-06 2.1223e-06 0.0497314 
6.26998e-05 2.19385e-05 0.0999969 
5.44003e-05 1.83981e-05 0.0999154 
6.75354e-05 1.07688e-05 0.0999743 
-1.50261e-14 8.49891e-15 9.99389e-11 
-1.03997e-14 2.06657e-16 1.00061e-10 
-3.19851e-05 -2.71852e-05 0.100048 
-1.19492e-14 -4.48993e-16 1.00054e-10 
-1.64282e-05 -4.86123e-06 0.048807 
-4.71991e-05 -3.14745e-05 0.0998614 
-5.72968e-05 -2.22684e-05 0.0998967 
1.209e-13 8.08057e-14 9.88263e-11 
-4.32109e-05 -1.97336e-05 0.0997364 
1.32959e-14 2.16956e-14 1.00094e-10 
6.82601e-06 4.55458e-05 0.100036 
-7.94525e-06 4.37477e-05 0.100042 
2.59561e-06 1.31476e-05 0.0479705 
-1.53002e-05 5.05967e-05 0.0999726 
2.22118e-06 3.85654e-05 0.0999452 
-7.34016e-15 3.05353e-14 1.00374e-10 
-7.85929e-06 3.04787e-05 0.0998382 
3.50379e-07 1.46364e-05 0.10006 
5.79011e-06 5.82395e-06 0.0438467 
7.06615e-07 -8.90303e-07 0.042266 
-6.16076e-06 2.1223e-06 0.0497314 
-3.11394e-05 5.56202e-05 0.0999841 
1.20093e-14 -2.00789e-15 9.99872e-11 
-2.20173e-15 2.022e-14 9.99509e-11 
-3.80425e-05 4.46992e-05 0.100021 
-2.16191e-14 -5.6382e-15 1.0009e-10 
-2.47137e-05 3.8935e-05 0.10004 
-3.83326e-05 2.73176e-05 0.100039 
-7.83724e-06 8.35936e-06 0.0422734 
-8.12817e-15 7.77816e-15 1.00059e-10 
-3.9052e-05 1.28844e-05 0.100048 
-9.11877e-15 -7.78679e-15 1.00089e-10 
-1.64282e-05 -4.86123e-06 0.048807 
-4.22611e-15 -7.24899e-15 9.99878e-11 
4.37893e-05 -4.04e-05 0.100013 
3.8742e-05 -2.7704e-05 0.100041 
-1.79771e-15 -1.72541e-14 1.00092e-10 
5.62681e-17 -2.48705e-14 1.00032e-10 
-1.47519e-05 -6.37192e-05 0.0999789 
-5.55103e-06 -5.86472e-05 0.100019 
-1.74603e-05 -5.69133e-05 0.100023 
-3.80425e-05 4.46992e-05 0.100021 
1.20093e-14 -2.00789e-15 9.99872e-11 
-4.61568e-05 3.28924e-05 0.100003 
-4.1319e-05 3.94485e-05 0.099967 
-1.95758e-05 -2.81997e-05 0.100051 
-1.78398e-05 -3.9575e-05 0.100047 
-3.19851e-05 -2.71852e-05 0.100048 
-1.0664e-05 -1.1906e-05 0.0542056 
-1.56262e-05 -2.47047e-05 0.0497781 
2.00884e-05 1.34031e-05 0.0997219 
1.66274e-05 2.8631e-05 0.0996962 
-3.62927e-14 -9.28586e-14 9.89718e-11 
1.49694e-05 3.83395e-07 0.100059 
5.79011e-06 5.82395e-06 0.0438467 
2.42034e-05 7.68226e-06 0.100055 
1.29182e-05 3.30709e-06 0.0441446 
-2.56942e-14 9.5864e-15 9.98459e-11 
-5.55103e-06 -5.86472e-05 0.100019 
-1.47519e-05 -6.37192e-05 0.0999789 
1.62911e-06 -6.71259e-05 0.0999911 
-3.11394e-05 5.56202e-05 0.0999841 
-2.20173e-15 2.022e-14 9.99509e-11 
-1.14938e-14 -1.51858e-14 9.99295e-11 
-1.53002e-05 5.05967e-05 0.0999726 
1.49694e-05 3.83395e-07 0.100059 
7.06615e-07 -8.90303e-07 0.042266 
5.79011e-06 5.82395e-06 0.0438467 
6.6845e-06 -4.96604e-06 0.0451146 
1.01356e-05 5.20172e-05 0.0999067 
2.00214e-05 6.22632e-05 0.0999638 
9.27463e-06 5.41236e-05 0.0999932 
1.93684e-14 4.61972e-14 9.99896e-11 
3.47362e-05 2.95918e-05 0.100047 
-4.3652e-15 1.63767e-14 1.00062e-10 
1.2456e-14 1.15981e-15 1.0009e-10 
1.29182e-05 3.30709e-06 0.0441446 
-2.20173e-15 2.022e-14 9.99509e-11 
-3.11394e-05 5.56202e-05 0.0999841 
-2.29086e-05 5.51526e-05 0.100023 
-1.53002e-05 5.05967e-05 0.0999726 
1.76213e-15 -7.52097e-15 1.00075e-10 
-4.3652e-15 1.63767e-14 1.00062e-10 
1.83156e-05 4.10816e-05 0.100047 
2.59561e-06 1.31476e-05 0.0479705 
-3.11394e-05 5.56202e-05 0.0999841 
-2.42004e-05 3.37462e-05 0.0998812 
-1.14938e-14 -1.51858e-14 9.99295e-11 
-2.83206e-05 4.36499e-05 0.099905 
6.47688e-14 -1.18551e-14 1.00173e-10 
1.03205e-14 3.53759e-15 9.99384e-11 
4.71313e-05 -2.78628e-05 0.0999793 
4.83184e-05 -1.35016e-05 0.0999022 
-1.7716e-06 -4.07097e-06 0.10006 
-1.05306e-05 -1.09753e-05 0.100059 
-6.16076e-06 2.1223e-06 0.0497314 
-3.24792e-06 -8.03112e-06 0.0486293 
1.65415e-05 -4.53499e-05 0.100038 
2.53648e-05 -3.74752e-05 0.100032 
1.68971e-05 -5.55476e-05 0.100016 
6.86288e-06 -1.25699e-05 0.0419077 
-7.34016e-15 3.05353e-14 1.00374e-10 
2.22118e-06 3.85654e-05 0.0999452 
-1.53002e-05 5.05967e-05 0.0999726 
-4.1497e-15 -3.32772e-14 9.98534e-11 
3.50379e-07 1.46364e-05 0.10006 
5.79011e-06 5.82395e-06 0.0438467 
-1.90366e-15 5.71259e-15 1.00062e-10 
2.59561e-06 1.31476e-05 0.0479705 
-5.05469e-05 3.1268e-05 0.099934 
-4.48517e-14 2.53872e-14 1.0007e-10 
1.20093e-14 -2.00789e-15 9.99872e-11 
-4.61568e-05 3.28924e-05 0.100003 
-3.7894e-05 -8.1622e-07 0.0496422 
3.34416e-05 -1.79446e-05 0.0997097 
-1.81272e-13 -7.90914e-14 9.84557e-11 
-3.84406e-05 3.15062e-07 0.0496692 
4.71313e-05 -2.78628e-05 0.0999793 
3.75629e-05 -4.14227e-05 0.0999405 
4.37893e-05 -4.04e-05 0.100013 
1.27592e-15 -2.15176e-14 9.99158e-11 
1.01356e-05 5.20172e-05 0.0999067 
2.22118e-06 3.85654e-05 0.0999452 
1.85543e-06 3.15096e-05 0.0998219 
7.24462e-15 2.46363e-14 1.00303e-10 
-8.99136e-14 2.78424e-14 9.93052e-11 
-4.71561e-05 9.26053e-07 0.0496718 
7.51463e-06 5.33769e-06 0.0995691 
-2.4093e-13 -5.18192e-15 9.8655e-11 
1.33584e-14 -1.74204e-13 9.88245e-11 
-1.16854e-06 -3.57773e-05 0.0497582 
8.84049e-06 -2.65822e-05 0.0497499 
-1.80177e-05 3.27343e-05 0.0996951 
-5.20386e-15 -4.54326e-17 9.9919e-11 
5.22154e-15 6.98438e-15 1.00058e-10 
-4.8344e-05 2.27449e-05 0.100016 
-5.21181e-05 7.20726e-06 0.100023 
1.54623e-14 -9.97011e-15 1.00131e-10 
-5.72968e-05 -2.22684e-05 0.0998967 
1.209e-13 8.08057e-14 9.88263e-11 
-4.71991e-05 -3.14745e-05 0.0998614 
4.07218e-05 3.08412e-05 0.0999026 
3.83034e-05 4.32617e-05 0.0999912 
3.4004e-05 4.90207e-05 0.0999162 
-4.93347e-15 2.78394e-14 1.00009e-10 
-1.50261e-14 8.49891e-15 9.99389e-11 
5.44003e-05 1.83981e-05 0.0999154 
6.75354e-05 1.07688e-05 0.0999743 
6.96214e-14 -7.17407e-15 1.00033e-10 
3.00055e-05 -9.69449e-06 0.100052 
1.32158e-14 -1.81027e-16 1.00071e-10 
6.6845e-06 -4.96604e-06 0.0451146 
1.29182e-05 3.30709e-06 0.0441446 
6.47688e-14 -1.18551e-14 1.00173e-10 
3.84617e-05 -2.06054e-05 0.0998836 
3.75629e-05 -4.14227e-05 0.0999405 
-4.49752e-14 2.33003e-14 1.00211e-10 
4.71313e-05 -2.78628e-05 0.0999793 
4.37893e-05 -4.04e-05 0.100013 
5.58802e-05 -2.37198e-05 0.100017 
-4.22611e-15 -7.24899e-15 9.99878e-11 
4.71313e-05 -2.78628e-05 0.0999793 
4.37893e-05 -4.04e-05 0.100013 
-4.22611e-15 -7.24899e-15 9.99878e-11 
1.27592e-15 -2.15176e-14 9.99158e-11 
1.14499e-14 4.89949e-15 1.00015e-10 
4.24837e-05 3.40717e-05 0.100015 
4.82396e-05 1.7431e-05 0.100035 
-1.50261e-14 8.49891e-15 9.99389e-11 
-5.06565e-06 5.53661e-05 0.100018 
2.22118e-06 3.85654e-05 0.0999452 
9.27463e-06 5.41236e-05 0.0999932 
-4.1497e-15 -3.32772e-14 9.98534e-11 
4.24837e-05 3.40717e-05 0.100015 
5.26181e-05 3.07291e-05 0.0999722 
6.26998e-05 2.19385e-05 0.0999969 
-1.50261e-14 8.49891e-15 9.99389e-11 
-1.94651e-14 -2.24431e-13 9.83124e-11 
1.85543e-06 3.15096e-05 0.0998219 
4.15969e-15 -2.14514e-13 9.8672e-11 
7.24462e-15 2.46363e-14 1.00303e-10 
5.51545e-05 1.44284e-06 0.0496284 
-1.75227e-05 -1.27165e-05 0.0996616 
2.21216e-13 -1.59596e-14 9.84178e-11 
-9.09223e-06 6.55199e-06 0.099644 
-1.13333e-14 -4.43145e-15 1.00036e-10 
-9.11877e-15 -7.78679e-15 1.00089e-10 
-4.55699e-05 -7.44938e-06 0.100018 
-1.64282e-05 -4.86123e-06 0.048807 
1.93684e-14 4.61972e-14 9.99896e-11 
9.27463e-06 5.41236e-05 0.0999932 
1.01356e-05 5.20172e-05 0.0999067 
-4.1497e-15 -3.32772e-14 9.98534e-11 
-5.18023e-05 8.55186e-07 0.099978 
-4.41431e-05 -5.08118e-06 0.0998697 
3.58502e-15 -1.00007e-15 9.98792e-11 
-5.5533e-05 -1.24286e-05 0.099958 
-3.91604e-05 -2.92381e-05 0.100026 
-1.13333e-14 -4.43145e-15 1.00036e-10 
-2.13064e-14 1.20842e-14 9.99287e-11 
-4.68848e-05 -3.02534e-05 0.099973 
6.62628e-05 -1.66144e-05 0.0999877 
5.54151e-05 1.87711e-07 0.0999804 
1.03205e-14 3.53759e-15 9.99384e-11 
3.91016e-15 5.5728e-15 1.00046e-10 
1.32158e-14 -1.81027e-16 1.00071e-10 
-1.79771e-15 -1.72541e-14 1.00092e-10 
3.8742e-05 -2.7704e-05 0.100041 
6.86288e-06 -1.25699e-05 0.0419077 
-4.6685e-05 2.01706e-05 0.0998478 
-2.93425e-05 1.29084e-05 0.0997196 
5.01193e-14 -2.05174e-14 1.00024e-10 
-6.52429e-05 2.03433e-05 0.09989 
-4.22746e-14 -7.23757e-14 1.00064e-10 
3.4004e-05 4.90207e-05 0.0999162 
2.00214e-05 6.22632e-05 0.0999638 
-4.93347e-15 2.78394e-14 1.00009e-10 
-9.11877e-15 -7.78679e-15 1.00089e-10 
-5.21181e-05 7.20726e-06 0.100023 
-4.55699e-05 -7.44938e-06 0.100018 
-1.64282e-05 -4.86123e-06 0.048807 
-4.41431e-05 -5.08118e-06 0.0998697 
3.58502e-15 -1.00007e-15 9.98792e-11 
2.94478e-14 -1.90864e-15 1.00231e-10 
-5.18023e-05 8.55186e-07 0.099978 
1.74347e-06 3.01473e-05 0.0497455 
-6.49698e-14 2.24098e-13 9.86873e-11 
1.2948e-05 -4.26274e-05 0.0996906 
-5.80946e-06 2.50368e-05 0.0497496 
1.14499e-14 4.89949e-15 1.00015e-10 
3.83034e-05 4.32617e-05 0.0999912 
4.24837e-05 3.40717e-05 0.100015 
4.69002e-14 3.47452e-14 1.00142e-10 
-9.7553e-15 -5.96936e-15 1.00065e-10 
-1.03997e-14 2.06657e-16 1.00061e-10 
5.62681e-17 -2.48705e-14 1.00032e-10 
-1.78398e-05 -3.9575e-05 0.100047 
-1.59438e-06 5.2946e-05 0.0496482 
-2.82911e-14 1.61892e-13 9.87878e-11 
-3.20611e-06 -1.55851e-05 0.0996728 
6.13684e-14 1.54122e-13 9.83801e-11 
1.07056e-14 5.51363e-15 9.99775e-11 
-4.21559e-15 -2.43751e-14 1.00017e-10 
-2.73231e-05 -6.16719e-05 0.0999002 
-2.95201e-05 -5.41367e-05 0.0999965 
-3.38167e-15 9.32939e-15 1.00138e-10 
1.54623e-14 -9.97011e-15 1.00131e-10 
-5.57768e-05 -1.71737e-05 0.0998385 
1.43704e-13 1.59844e-14 9.91815e-11 
-1.03997e-14 2.06657e-16 1.00061e-10 
-4.21559e-15 -2.43751e-14 1.00017e-10 
-2.95201e-05 -5.41367e-05 0.0999965 
-4.10081e-05 -4.21213e-05 0.0999941 
-5.05469e-05 3.1268e-05 0.099934 
1.61082e-13 -9.9211e-14 9.91473e-11 
-4.6685e-05 2.01706e-05 0.0998478 
-3.68981e-05 2.03293e-05 0.0997327 
-1.90366e-15 5.71259e-15 1.00062e-10 
-6.16076e-06 2.1223e-06 0.0497314 
-9.02066e-06 2.12991e-05 0.100059 
-7.83724e-06 8.35936e-06 0.0422734 
1.81506e-14 1.78058e-14 9.99388e-11 
2.64982e-05 -4.70564e-05 0.0999822 
1.72913e-05 -4.87396e-05 0.0999604 
-7.99092e-15 1.84356e-14 9.99278e-11 
3.50379e-07 1.46364e-05 0.10006 
2.35166e-06 5.1993e-06 0.10006 
7.06615e-07 -8.90303e-07 0.042266 
5.79011e-06 5.82395e-06 0.0438467 
-9.02066e-06 2.12991e-05 0.100059 
-1.97289e-05 1.78933e-05 0.100056 
-1.91968e-05 2.78376e-05 0.100051 
-7.83724e-06 8.35936e-06 0.0422734 
-2.56942e-14 9.5864e-15 9.98459e-11 
1.72913e-05 -4.87396e-05 0.0999604 
1.62911e-06 -6.71259e-05 0.0999911 
9.15213e-06 -3.90423e-05 0.0998458 
3.00055e-05 -9.69449e-06 0.100052 
6.6845e-06 -4.96604e-06 0.0451146 
2.12594e-05 -7.44716e-06 0.100055 
1.29182e-05 3.30709e-06 0.0441446 
-1.81272e-13 -7.90914e-14 9.84557e-11 
2.43334e-05 -8.1768e-06 0.0996381 
3.34416e-05 -1.79446e-05 0.0997097 
-3.7894e-05 -8.1622e-07 0.0496422 
8.84049e-06 -2.65822e-05 0.0497499 
1.21264e-05 -1.66583e-05 0.049745 
1.31259e-13 -1.70284e-13 9.92453e-11 
-2.42514e-05 2.85041e-05 0.0996595 
4.24837e-05 3.40717e-05 0.100015 
3.47362e-05 2.95918e-05 0.100047 
3.20001e-05 4.2529e-05 0.100026 
1.14499e-14 4.89949e-15 1.00015e-10 
-3.91604e-05 -2.92381e-05 0.100026 
-2.13064e-14 1.20842e-14 9.99287e-11 
-1.03997e-14 2.06657e-16 1.00061e-10 
-4.10081e-05 -4.21213e-05 0.0999941 
1.31259e-13 -1.70284e-13 9.92453e-11 
-3.09281e-05 3.29925e-05 0.0998453 
-2.42514e-05 2.85041e-05 0.0996595 
-3.68981e-05 2.03293e-05 0.0997327 
-2.74869e-05 6.00675e-06 0.0497077 
-3.84406e-05 3.15062e-07 0.0496692 
-2.45792e-13 7.56687e-14 9.92453e-11 
3.66889e-05 -2.47289e-05 0.099731 
2.9106e-06 4.29415e-05 0.0497165 
-6.49698e-14 2.24098e-13 9.86873e-11 
5.95926e-06 -1.57217e-05 0.0995966 
1.74347e-06 3.01473e-05 0.0497455 
-1.97289e-05 1.78933e-05 0.100056 
-6.16076e-06 2.1223e-06 0.0497314 
-1.85941e-05 7.45005e-06 0.100058 
-7.83724e-06 8.35936e-06 0.0422734 
1.49694e-05 3.83395e-07 0.100059 
6.6845e-06 -4.96604e-06 0.0451146 
5.79011e-06 5.82395e-06 0.0438467 
1.29182e-05 3.30709e-06 0.0441446 
3.4004e-05 4.90207e-05 0.0999162 
3.36434e-05 5.82349e-05 0.0999934 
2.00214e-05 6.22632e-05 0.0999638 
-4.93347e-15 2.78394e-14 1.00009e-10 
-9.02066e-06 2.12991e-05 0.100059 
-6.16076e-06 2.1223e-06 0.0497314 
-1.97289e-05 1.78933e-05 0.100056 
-7.83724e-06 8.35936e-06 0.0422734 
-6.49698e-14 2.24098e-13 9.86873e-11 
-1.95523e-14 1.01395e-13 9.92873e-11 
1.2948e-05 -4.26274e-05 0.0996906 
-5.80946e-06 2.50368e-05 0.0497496 
1.35497e-05 2.31328e-05 0.0496793 
-1.67321e-05 -2.50994e-05 0.0997157 
4.63256e-14 1.111e-13 9.90575e-11 
-1.93372e-05 -1.25182e-05 0.0997376 
-3.09281e-05 3.29925e-05 0.0998453 
1.61082e-13 -9.9211e-14 9.91473e-11 
-5.05469e-05 3.1268e-05 0.099934 
-3.68981e-05 2.03293e-05 0.0997327 
-4.71561e-05 9.26053e-07 0.0496718 
7.51463e-06 5.33769e-06 0.0995691 
3.22432e-05 1.66052e-05 0.0996986 
-8.99136e-14 2.78424e-14 9.93052e-11 
-2.80993e-05 -4.27404e-06 0.0497541 
-3.27931e-05 -1.77546e-06 0.0497296 
1.22695e-05 1.95146e-05 0.0996311 
-8.99136e-14 2.78424e-14 9.93052e-11 
4.83184e-05 -1.35016e-05 0.0999022 
-2.45792e-13 7.56687e-14 9.92453e-11 
-1.09657e-13 3.88004e-15 9.91894e-11 
3.66889e-05 -2.47289e-05 0.099731 
-4.04487e-05 -1.98403e-05 0.0997295 
1.33705e-13 1.62128e-13 9.87225e-11 
1.12486e-05 1.15947e-05 0.0497167 
-4.32109e-05 -1.97336e-05 0.0997364 
1.19414e-13 1.42617e-15 9.83977e-11 
1.73798e-13 -8.21038e-15 9.90431e-11 
5.25902e-05 4.55259e-06 0.0496468 
-9.09223e-06 6.55199e-06 0.099644 
2.12594e-05 -7.44716e-06 0.100055 
6.6845e-06 -4.96604e-06 0.0451146 
1.49694e-05 3.83395e-07 0.100059 
1.29182e-05 3.30709e-06 0.0441446 
4.63256e-14 1.111e-13 9.90575e-11 
1.65394e-05 2.59847e-05 0.0497484 
1.35497e-05 2.31328e-05 0.0496793 
-1.93372e-05 -1.25182e-05 0.0997376 
-3.11394e-05 5.56202e-05 0.0999841 
-1.14938e-14 -1.51858e-14 9.99295e-11 
1.20093e-14 -2.00789e-15 9.99872e-11 
-4.1319e-05 3.94485e-05 0.099967 
5.28136e-06 -5.4799e-05 0.100032 
1.68971e-05 -5.55476e-05 0.100016 
8.03027e-15 -3.81591e-15 1.00108e-10 
6.86288e-06 -1.25699e-05 0.0419077 
1.33705e-13 1.62128e-13 9.87225e-11 
1.12486e-05 1.15947e-05 0.0497167 
-1.93372e-05 -1.25182e-05 0.0997376 
-4.04487e-05 -1.98403e-05 0.0997295 
5.95926e-06 -1.57217e-05 0.0995966 
6.13684e-14 1.54122e-13 9.83801e-11 
-6.49698e-14 2.24098e-13 9.86873e-11 
2.9106e-06 4.29415e-05 0.0497165 
-1.79771e-15 -1.72541e-14 1.00092e-10 
1.27592e-15 -2.15176e-14 9.99158e-11 
2.53648e-05 -3.74752e-05 0.100032 
1.81506e-14 1.78058e-14 9.99388e-11 
-1.47066e-06 -3.52748e-05 0.0496919 
8.78564e-06 1.69935e-05 0.0996257 
3.87019e-06 -4.29402e-05 0.0496621 
-1.22774e-14 -1.8363e-13 9.91431e-11 
-7.99092e-15 1.84356e-14 9.99278e-11 
2.64982e-05 -4.70564e-05 0.0999822 
1.72913e-05 -4.87396e-05 0.0999604 
2.61482e-05 -3.81491e-05 0.0998688 
6.47688e-14 -1.18551e-14 1.00173e-10 
-2.45792e-13 7.56687e-14 9.92453e-11 
3.84617e-05 -2.06054e-05 0.0998836 
-5.76453e-14 8.63802e-14 9.89752e-11 
-1.14938e-14 -1.51858e-14 9.99295e-11 
-7.34016e-15 3.05353e-14 1.00374e-10 
-2.42004e-05 3.37462e-05 0.0998812 
-1.53002e-05 5.05967e-05 0.0999726 
-5.20386e-15 -4.54326e-17 9.9919e-11 
-5.53164e-05 1.49842e-05 0.0999735 
-4.53201e-05 8.48944e-06 0.0998868 
-5.18023e-05 8.55186e-07 0.099978 
-3.19851e-05 -2.71852e-05 0.100048 
-1.0664e-05 -1.1906e-05 0.0542056 
-1.19492e-14 -4.48993e-16 1.00054e-10 
-1.64282e-05 -4.86123e-06 0.048807 
-4.53201e-05 8.48944e-06 0.0998868 
-4.41431e-05 -5.08118e-06 0.0998697 
2.94478e-14 -1.90864e-15 1.00231e-10 
-5.18023e-05 8.55186e-07 0.099978 
1.54623e-14 -9.97011e-15 1.00131e-10 
-3.62094e-05 -2.04487e-05 0.0997118 
-5.57768e-05 -1.71737e-05 0.0998385 
1.43704e-13 1.59844e-14 9.91815e-11 
-2.42514e-05 2.85041e-05 0.0996595 
1.99166e-05 -1.45374e-05 0.0497707 
1.31259e-13 -1.70284e-13 9.92453e-11 
-3.68981e-05 2.03293e-05 0.0997327 
1.49694e-05 3.83395e-07 0.100059 
7.06615e-07 -8.90303e-07 0.042266 
1.12477e-05 1.12839e-05 0.100057 
5.79011e-06 5.82395e-06 0.0438467 
-1.32454e-05 3.75386e-05 0.0997356 
8.84049e-06 -2.65822e-05 0.0497499 
1.31259e-13 -1.70284e-13 9.92453e-11 
-2.42514e-05 2.85041e-05 0.0996595 
2.53648e-05 -3.74752e-05 0.100032 
4.37893e-05 -4.04e-05 0.100013 
1.27592e-15 -2.15176e-14 9.99158e-11 
-1.79771e-15 -1.72541e-14 1.00092e-10 
2.00214e-05 6.22632e-05 0.0999638 
2.40704e-05 6.30622e-05 0.0998557 
3.4004e-05 4.90207e-05 0.0999162 
-4.22746e-14 -7.23757e-14 1.00064e-10 
1.07056e-14 5.51363e-15 9.99775e-11 
-1.47519e-05 -6.37192e-05 0.0999789 
5.77214e-07 -5.68983e-05 0.0999051 
-2.56942e-14 9.5864e-15 9.98459e-11 
-2.53359e-14 6.01479e-14 1.004e-10 
5.95926e-06 -1.57217e-05 0.0995966 
6.13684e-14 1.54122e-13 9.83801e-11 
9.15213e-06 -3.90423e-05 0.0998458 
-1.14938e-14 -1.51858e-14 9.99295e-11 
-4.22245e-14 2.99316e-14 1.0014e-10 
-4.1319e-05 3.94485e-05 0.099967 
-2.83206e-05 4.36499e-05 0.099905 
-2.42004e-05 3.37462e-05 0.0998812 
5.28724e-14 -1.05075e-13 9.92899e-11 
-1.14938e-14 -1.51858e-14 9.99295e-11 
-2.83206e-05 4.36499e-05 0.099905 
-8.3941e-14 5.45272e-14 1.00435e-10 
1.03205e-14 3.53759e-15 9.99384e-11 
5.28329e-05 -8.39764e-06 0.0998817 
5.54151e-05 1.87711e-07 0.0999804 
3.73184e-14 1.34069e-13 9.90716e-11 
2.24762e-06 3.83007e-05 0.0497005 
-1.67321e-05 -2.50994e-05 0.0997157 
4.63256e-14 1.111e-13 9.90575e-11 
2.00884e-05 1.34031e-05 0.0997219 
2.60351e-05 3.02084e-05 0.0996995 
4.07218e-05 3.08412e-05 0.0999026 
-2.13175e-13 -1.27377e-13 9.91712e-11 
-2.42004e-05 3.37462e-05 0.0998812 
1.33584e-14 -1.74204e-13 9.88245e-11 
5.28724e-14 -1.05075e-13 9.92899e-11 
-1.80177e-05 3.27343e-05 0.0996951 
4.34401e-06 -4.13329e-05 0.100046 
1.65415e-05 -4.53499e-05 0.100038 
5.28136e-06 -5.4799e-05 0.100032 
6.86288e-06 -1.25699e-05 0.0419077 
-7.28806e-06 2.80644e-06 0.100059 
2.35166e-06 5.1993e-06 0.10006 
7.06615e-07 -8.90303e-07 0.042266 
-6.16076e-06 2.1223e-06 0.0497314 
-1.13333e-14 -4.43145e-15 1.00036e-10 
-4.55699e-05 -7.44938e-06 0.100018 
-4.58569e-05 -2.07977e-05 0.100003 
-1.64282e-05 -4.86123e-06 0.048807 
4.34401e-06 -4.13329e-05 0.100046 
6.86288e-06 -1.25699e-05 0.0419077 
5.28136e-06 -5.4799e-05 0.100032 
-7.79829e-08 -1.42251e-05 0.042739 
2.53648e-05 -3.74752e-05 0.100032 
-1.79771e-15 -1.72541e-14 1.00092e-10 
1.81506e-14 1.78058e-14 9.99388e-11 
6.86288e-06 -1.25699e-05 0.0419077 
1.65394e-05 2.59847e-05 0.0497484 
1.33705e-13 1.62128e-13 9.87225e-11 
1.12486e-05 1.15947e-05 0.0497167 
-1.93372e-05 -1.25182e-05 0.0997376 
-2.53359e-14 6.01479e-14 1.004e-10 
5.95926e-06 -1.57217e-05 0.0995966 
-3.20611e-06 -1.55851e-05 0.0996728 
6.13684e-14 1.54122e-13 9.83801e-11 
2.48484e-05 5.73161e-06 0.0497309 
1.12486e-05 1.15947e-05 0.0497167 
1.33705e-13 1.62128e-13 9.87225e-11 
-4.32109e-05 -1.97336e-05 0.0997364 
2.40704e-05 6.30622e-05 0.0998557 
1.01356e-05 5.20172e-05 0.0999067 
-1.22774e-14 -1.8363e-13 9.91431e-11 
1.93684e-14 4.61972e-14 9.99896e-11 
3.20001e-05 4.2529e-05 0.100026 
3.83034e-05 4.32617e-05 0.0999912 
4.24837e-05 3.40717e-05 0.100015 
1.14499e-14 4.89949e-15 1.00015e-10 
1.66274e-05 2.8631e-05 0.0996962 
-5.38823e-06 -2.35206e-05 0.0497229 
-1.56262e-05 -2.47047e-05 0.0497781 
-3.62927e-14 -9.28586e-14 9.89718e-11 
-2.45792e-13 7.56687e-14 9.92453e-11 
-2.74869e-05 6.00675e-06 0.0497077 
3.66889e-05 -2.47289e-05 0.099731 
-2.05397e-05 1.05369e-05 0.0497157 
-2.83206e-05 4.36499e-05 0.099905 
5.28724e-14 -1.05075e-13 9.92899e-11 
-4.22245e-14 2.99316e-14 1.0014e-10 
-3.09281e-05 3.29925e-05 0.0998453 
-2.16191e-14 -5.6382e-15 1.0009e-10 
-2.20173e-15 2.022e-14 9.99509e-11 
1.20093e-14 -2.00789e-15 9.99872e-11 
-3.80425e-05 4.46992e-05 0.100021 
3.87019e-06 -4.29402e-05 0.0496621 
8.49044e-06 3.37106e-05 0.0996727 
-2.41495e-06 -4.36617e-05 0.0496319 
-1.94651e-14 -2.24431e-13 9.83124e-11 
-6.49698e-14 2.24098e-13 9.86873e-11 
1.2948e-05 -4.26274e-05 0.0996906 
5.95926e-06 -1.57217e-05 0.0995966 
1.74347e-06 3.01473e-05 0.0497455 
2.00214e-05 6.22632e-05 0.0999638 
1.93684e-14 4.61972e-14 9.99896e-11 
-4.22746e-14 -7.23757e-14 1.00064e-10 
-4.93347e-15 2.78394e-14 1.00009e-10 
-2.83206e-05 4.36499e-05 0.099905 
-4.22245e-14 2.99316e-14 1.0014e-10 
-4.1319e-05 3.94485e-05 0.099967 
-3.09281e-05 3.29925e-05 0.0998453 
1.54212e-05 -3.3144e-05 0.100052 
1.35306e-05 -1.9621e-05 0.100056 
2.60305e-05 -2.07289e-05 0.100052 
6.6845e-06 -4.96604e-06 0.0451146 
5.28329e-05 -8.39764e-06 0.0998817 
6.68348e-05 5.86874e-06 0.0998683 
-8.3941e-14 5.45272e-14 1.00435e-10 
5.54151e-05 1.87711e-07 0.0999804 
1.14499e-14 4.89949e-15 1.00015e-10 
3.20001e-05 4.2529e-05 0.100026 
3.83034e-05 4.32617e-05 0.0999912 
-4.93347e-15 2.78394e-14 1.00009e-10 
-2.82911e-14 1.61892e-13 9.87878e-11 
3.73184e-14 1.34069e-13 9.90716e-11 
-4.52905e-06 5.09918e-05 0.0496652 
-1.83496e-05 -2.33838e-05 0.0996842 
-3.09281e-05 3.29925e-05 0.0998453 
-1.32454e-05 3.75386e-05 0.0997356 
1.31259e-13 -1.70284e-13 9.92453e-11 
-2.42514e-05 2.85041e-05 0.0996595 
1.35306e-05 -1.9621e-05 0.100056 
6.6845e-06 -4.96604e-06 0.0451146 
1.54212e-05 -3.3144e-05 0.100052 
-7.79829e-08 -1.42251e-05 0.042739 
1.76213e-15 -7.52097e-15 1.00075e-10 
1.14499e-14 4.89949e-15 1.00015e-10 
1.83156e-05 4.10816e-05 0.100047 
-4.3652e-15 1.63767e-14 1.00062e-10 
1.29394e-05 -3.06464e-05 0.0996941 
1.2948e-05 -4.26274e-05 0.0996906 
-1.95523e-14 1.01395e-13 9.92873e-11 
-5.80946e-06 2.50368e-05 0.0497496 
-2.64787e-05 -1.9666e-05 0.100054 
-3.19851e-05 -2.71852e-05 0.100048 
-3.75463e-05 -1.34821e-05 0.100053 
-1.0664e-05 -1.1906e-05 0.0542056 
-4.22245e-14 2.99316e-14 1.0014e-10 
-5.05469e-05 3.1268e-05 0.099934 
-4.1319e-05 3.94485e-05 0.099967 
-3.09281e-05 3.29925e-05 0.0998453 
-7.34016e-15 3.05353e-14 1.00374e-10 
-2.42004e-05 3.37462e-05 0.0998812 
-7.85929e-06 3.04787e-05 0.0998382 
-1.80177e-05 3.27343e-05 0.0996951 
3.58502e-15 -1.00007e-15 9.98792e-11 
-4.41431e-05 -5.08118e-06 0.0998697 
-3.38167e-15 9.32939e-15 1.00138e-10 
-5.5533e-05 -1.24286e-05 0.099958 
-5.05469e-05 3.1268e-05 0.099934 
1.61082e-13 -9.9211e-14 9.91473e-11 
-4.48517e-14 2.53872e-14 1.0007e-10 
-4.6685e-05 2.01706e-05 0.0998478 
-2.83206e-05 4.36499e-05 0.099905 
-1.32454e-05 3.75386e-05 0.0997356 
5.28724e-14 -1.05075e-13 9.92899e-11 
-3.09281e-05 3.29925e-05 0.0998453 
-9.02066e-06 2.12991e-05 0.100059 
-1.90366e-15 5.71259e-15 1.00062e-10 
-7.83724e-06 8.35936e-06 0.0422734 
2.59561e-06 1.31476e-05 0.0479705 
-6.49698e-14 2.24098e-13 9.86873e-11 
1.2948e-05 -4.26274e-05 0.0996906 
-1.95523e-14 1.01395e-13 9.92873e-11 
2.61482e-05 -3.81491e-05 0.0998688 
-9.11877e-15 -7.78679e-15 1.00089e-10 
-1.13333e-14 -4.43145e-15 1.00036e-10 
-4.55699e-05 -7.44938e-06 0.100018 
3.58502e-15 -1.00007e-15 9.98792e-11 
1.209e-13 8.08057e-14 9.88263e-11 
-3.62094e-05 -2.04487e-05 0.0997118 
-5.72968e-05 -2.22684e-05 0.0998967 
1.54623e-14 -9.97011e-15 1.00131e-10 
-1.09809e-13 -3.20527e-14 9.91347e-11 
-2.80993e-05 -4.27404e-06 0.0497541 
1.22695e-05 1.95146e-05 0.0996311 
-8.99136e-14 2.78424e-14 9.93052e-11 
-2.56942e-14 9.5864e-15 9.98459e-11 
1.72913e-05 -4.87396e-05 0.0999604 
1.81506e-14 1.78058e-14 9.99388e-11 
1.62911e-06 -6.71259e-05 0.0999911 
1.209e-13 8.08057e-14 9.88263e-11 
2.48484e-05 5.73161e-06 0.0497309 
1.33705e-13 1.62128e-13 9.87225e-11 
-4.32109e-05 -1.97336e-05 0.0997364 
-5.72968e-05 -2.22684e-05 0.0998967 
-3.62094e-05 -2.04487e-05 0.0997118 
1.209e-13 8.08057e-14 9.88263e-11 
-4.32109e-05 -1.97336e-05 0.0997364 
-5.05469e-05 3.1268e-05 0.099934 
-4.22245e-14 2.99316e-14 1.0014e-10 
1.61082e-13 -9.9211e-14 9.91473e-11 
-3.09281e-05 3.29925e-05 0.0998453 
7.24462e-15 2.46363e-14 1.00303e-10 
-1.22774e-14 -1.8363e-13 9.91431e-11 
1.01356e-05 5.20172e-05 0.0999067 
1.93684e-14 4.61972e-14 9.99896e-11 
-2.13175e-13 -1.27377e-13 9.91712e-11 
2.60351e-05 3.02084e-05 0.0996995 
4.93408e-05 2.06597e-05 0.0998533 
-1.09809e-13 -3.20527e-14 9.91347e-11 
6.09189e-05 7.92342e-06 0.100019 
1.2456e-14 1.15981e-15 1.0009e-10 
-1.50261e-14 8.49891e-15 9.99389e-11 
3.91016e-15 5.5728e-15 1.00046e-10 
3.58502e-15 -1.00007e-15 9.98792e-11 
-3.38167e-15 9.32939e-15 1.00138e-10 
1.54623e-14 -9.97011e-15 1.00131e-10 
-5.5533e-05 -1.24286e-05 0.099958 
2.24762e-06 3.83007e-05 0.0497005 
1.35497e-05 2.31328e-05 0.0496793 
-1.67321e-05 -2.50994e-05 0.0997157 
4.63256e-14 1.111e-13 9.90575e-11 
2.74067e-14 -4.32366e-14 1.00376e-10 
1.2948e-05 -4.26274e-05 0.0996906 
-6.49698e-14 2.24098e-13 9.86873e-11 
2.61482e-05 -3.81491e-05 0.0998688 
-8.12817e-15 7.77816e-15 1.00059e-10 
5.22154e-15 6.98438e-15 1.00058e-10 
-3.9052e-05 1.28844e-05 0.100048 
-7.83724e-06 8.35936e-06 0.0422734 
1.68971e-05 -5.55476e-05 0.100016 
1.81506e-14 1.78058e-14 9.99388e-11 
8.03027e-15 -3.81591e-15 1.00108e-10 
6.86288e-06 -1.25699e-05 0.0419077 
5.26181e-05 3.07291e-05 0.0999722 
4.93408e-05 2.06597e-05 0.0998533 
5.44003e-05 1.83981e-05 0.0999154 
-2.18983e-14 -3.17452e-14 1.00163e-10 
-1.22774e-14 -1.8363e-13 9.91431e-11 
-3.62927e-14 -9.28586e-14 9.89718e-11 
1.66274e-05 2.8631e-05 0.0996962 
-4.22746e-14 -7.23757e-14 1.00064e-10 
4.93408e-05 2.06597e-05 0.0998533 
4.07218e-05 3.08412e-05 0.0999026 
-2.13175e-13 -1.27377e-13 9.91712e-11 
4.69002e-14 3.47452e-14 1.00142e-10 
6.13684e-14 1.54122e-13 9.83801e-11 
5.95926e-06 -1.57217e-05 0.0995966 
-1.59438e-06 5.2946e-05 0.0496482 
2.9106e-06 4.29415e-05 0.0497165 
-7.99092e-15 1.84356e-14 9.99278e-11 
1.27592e-15 -2.15176e-14 9.99158e-11 
2.64982e-05 -4.70564e-05 0.0999822 
-4.49752e-14 2.33003e-14 1.00211e-10 
-2.48284e-05 -9.27827e-06 0.100057 
-1.05306e-05 -1.09753e-05 0.100059 
-3.24792e-06 -8.03112e-06 0.0486293 
-1.26546e-05 -2.02278e-06 0.0492153 
8.78564e-06 1.69935e-05 0.0996257 
8.49044e-06 3.37106e-05 0.0996727 
3.87019e-06 -4.29402e-05 0.0496621 
-1.22774e-14 -1.8363e-13 9.91431e-11 
-2.56942e-14 9.5864e-15 9.98459e-11 
5.77214e-07 -5.68983e-05 0.0999051 
-2.53359e-14 6.01479e-14 1.004e-10 
9.15213e-06 -3.90423e-05 0.0998458 
-4.71991e-05 -3.14745e-05 0.0998614 
-4.04487e-05 -1.98403e-05 0.0997295 
1.97502e-14 -6.55476e-14 1.00495e-10 
-3.50716e-05 -2.88763e-05 0.0999037 
-4.22611e-15 -7.24899e-15 9.99878e-11 
3.8742e-05 -2.7704e-05 0.100041 
1.32158e-14 -1.81027e-16 1.00071e-10 
-1.79771e-15 -1.72541e-14 1.00092e-10 
5.28724e-14 -1.05075e-13 9.92899e-11 
1.33584e-14 -1.74204e-13 9.88245e-11 
8.84049e-06 -2.65822e-05 0.0497499 
-1.80177e-05 3.27343e-05 0.0996951 
2.94478e-14 -1.90864e-15 1.00231e-10 
2.21216e-13 -1.59596e-14 9.84178e-11 
-4.41431e-05 -5.08118e-06 0.0998697 
-9.09223e-06 6.55199e-06 0.099644 
4.98407e-05 -5.16666e-06 0.0496913 
5.51545e-05 1.44284e-06 0.0496284 
-1.75227e-05 -1.27165e-05 0.0996616 
2.21216e-13 -1.59596e-14 9.84178e-11 
-2.56942e-14 9.5864e-15 9.98459e-11 
-1.47519e-05 -6.37192e-05 0.0999789 
5.77214e-07 -5.68983e-05 0.0999051 
1.62911e-06 -6.71259e-05 0.0999911 
6.62628e-05 -1.66144e-05 0.0999877 
1.03205e-14 3.53759e-15 9.99384e-11 
5.28329e-05 -8.39764e-06 0.0998817 
4.83184e-05 -1.35016e-05 0.0999022 
3.66889e-05 -2.47289e-05 0.099731 
2.5542e-05 -3.21784e-05 0.0997541 
-2.45792e-13 7.56687e-14 9.92453e-11 
-2.05397e-05 1.05369e-05 0.0497157 
3.84617e-05 -2.06054e-05 0.0998836 
4.71313e-05 -2.78628e-05 0.0999793 
6.47688e-14 -1.18551e-14 1.00173e-10 
3.75629e-05 -4.14227e-05 0.0999405 
-1.7716e-06 -4.07097e-06 0.10006 
-7.28806e-06 2.80644e-06 0.100059 
7.06615e-07 -8.90303e-07 0.042266 
-6.16076e-06 2.1223e-06 0.0497314 
-2.13064e-14 1.20842e-14 9.99287e-11 
4.80048e-14 6.40149e-14 9.94959e-11 
-3.11894e-05 -4.6494e-05 0.0999213 
-3.50716e-05 -2.88763e-05 0.0999037 
-4.71561e-05 9.26053e-07 0.0496718 
-4.60925e-05 6.56188e-07 0.0496463 
7.51463e-06 5.33769e-06 0.0995691 
-2.4093e-13 -5.18192e-15 9.8655e-11 
-2.13064e-14 1.20842e-14 9.99287e-11 
-3.11894e-05 -4.6494e-05 0.0999213 
-4.21559e-15 -2.43751e-14 1.00017e-10 
-4.10081e-05 -4.21213e-05 0.0999941 
5.77214e-07 -5.68983e-05 0.0999051 
-2.56942e-14 9.5864e-15 9.98459e-11 
1.62911e-06 -6.71259e-05 0.0999911 
9.15213e-06 -3.90423e-05 0.0998458 
-1.16305e-05 1.19241e-05 0.0996345 
1.61082e-13 -9.9211e-14 9.91473e-11 
1.99166e-05 -1.45374e-05 0.0497707 
-3.68981e-05 2.03293e-05 0.0997327 
-7.94525e-06 4.37477e-05 0.100042 
4.21492e-06 3.80124e-05 0.100047 
-7.26406e-06 2.94324e-05 0.100055 
2.59561e-06 1.31476e-05 0.0479705 
-5.55103e-06 -5.86472e-05 0.100019 
5.62681e-17 -2.48705e-14 1.00032e-10 
8.03027e-15 -3.81591e-15 1.00108e-10 
-2.56942e-14 9.5864e-15 9.98459e-11 
-4.48517e-14 2.53872e-14 1.0007e-10 
-5.05469e-05 3.1268e-05 0.099934 
-6.03446e-05 2.69656e-05 0.0999712 
-4.61568e-05 3.28924e-05 0.100003 
2.21216e-13 -1.59596e-14 9.84178e-11 
-1.75227e-05 -1.27165e-05 0.0996616 
-4.41431e-05 -5.08118e-06 0.0998697 
-9.09223e-06 6.55199e-06 0.099644 
-4.04487e-05 -1.98403e-05 0.0997295 
4.80048e-14 6.40149e-14 9.94959e-11 
1.33705e-13 1.62128e-13 9.87225e-11 
-3.50716e-05 -2.88763e-05 0.0999037 
-9.14808e-06 -3.27901e-05 0.0998338 
5.77214e-07 -5.68983e-05 0.0999051 
-3.20611e-06 -1.55851e-05 0.0996728 
-2.53359e-14 6.01479e-14 1.004e-10 
3.73184e-14 1.34069e-13 9.90716e-11 
2.24762e-06 3.83007e-05 0.0497005 
-4.52905e-06 5.09918e-05 0.0496652 
-1.83496e-05 -2.33838e-05 0.0996842 
1.07056e-14 5.51363e-15 9.99775e-11 
5.77214e-07 -5.68983e-05 0.0999051 
-9.14808e-06 -3.27901e-05 0.0998338 
-2.53359e-14 6.01479e-14 1.004e-10 
3.87019e-06 -4.29402e-05 0.0496621 
8.49044e-06 3.37106e-05 0.0996727 
-1.94651e-14 -2.24431e-13 9.83124e-11 
-1.22774e-14 -1.8363e-13 9.91431e-11 
-1.94651e-14 -2.24431e-13 9.83124e-11 
8.49044e-06 3.37106e-05 0.0996727 
1.85543e-06 3.15096e-05 0.0998219 
7.24462e-15 2.46363e-14 1.00303e-10 
6.96214e-14 -7.17407e-15 1.00033e-10 
-2.18983e-14 -3.17452e-14 1.00163e-10 
5.44003e-05 1.83981e-05 0.0999154 
-2.4093e-13 -5.18192e-15 9.8655e-11 
-3.83326e-05 2.73176e-05 0.100039 
5.22154e-15 6.98438e-15 1.00058e-10 
-2.16191e-14 -5.6382e-15 1.0009e-10 
-7.83724e-06 8.35936e-06 0.0422734 
-4.1497e-15 -3.32772e-14 9.98534e-11 
1.93684e-14 4.61972e-14 9.99896e-11 
9.27463e-06 5.41236e-05 0.0999932 
1.76213e-15 -7.52097e-15 1.00075e-10 
-5.38823e-06 -2.35206e-05 0.0497229 
1.66274e-05 2.8631e-05 0.0996962 
8.78564e-06 1.69935e-05 0.0996257 
-3.62927e-14 -9.28586e-14 9.89718e-11 
-3.20611e-06 -1.55851e-05 0.0996728 
5.95926e-06 -1.57217e-05 0.0995966 
-2.53359e-14 6.01479e-14 1.004e-10 
9.15213e-06 -3.90423e-05 0.0998458 
6.96214e-14 -7.17407e-15 1.00033e-10 
6.75354e-05 1.07688e-05 0.0999743 
-1.50261e-14 8.49891e-15 9.99389e-11 
3.91016e-15 5.5728e-15 1.00046e-10 
1.68971e-05 -5.55476e-05 0.100016 
2.64982e-05 -4.70564e-05 0.0999822 
1.72913e-05 -4.87396e-05 0.0999604 
1.81506e-14 1.78058e-14 9.99388e-11 
-1.16305e-05 1.19241e-05 0.0996345 
4.30101e-05 -4.0636e-06 0.0496601 
9.6062e-14 -3.64827e-14 9.93329e-11 
-2.93425e-05 1.29084e-05 0.0997196 
-1.22774e-14 -1.8363e-13 9.91431e-11 
1.01356e-05 5.20172e-05 0.0999067 
8.49044e-06 3.37106e-05 0.0996727 
7.24462e-15 2.46363e-14 1.00303e-10 
1.61082e-13 -9.9211e-14 9.91473e-11 
1.99166e-05 -1.45374e-05 0.0497707 
2.81748e-05 -1.02932e-05 0.0497687 
-1.16305e-05 1.19241e-05 0.0996345 
-7.28806e-06 2.80644e-06 0.100059 
2.35166e-06 5.1993e-06 0.10006 
-1.7716e-06 -4.07097e-06 0.10006 
7.06615e-07 -8.90303e-07 0.042266 
-9.09223e-06 6.55199e-06 0.099644 
1.73798e-13 -8.21038e-15 9.90431e-11 
-2.93425e-05 1.29084e-05 0.0997196 
-4.53201e-05 8.48944e-06 0.0998868 
2.94478e-14 -1.90864e-15 1.00231e-10 
1.73798e-13 -8.21038e-15 9.90431e-11 
-9.09223e-06 6.55199e-06 0.099644 
-4.53201e-05 8.48944e-06 0.0998868 
-4.1497e-15 -3.32772e-14 9.98534e-11 
6.82601e-06 4.55458e-05 0.100036 
1.32959e-14 2.16956e-14 1.00094e-10 
1.76213e-15 -7.52097e-15 1.00075e-10 
1.72913e-05 -4.87396e-05 0.0999604 
-2.56942e-14 9.5864e-15 9.98459e-11 
2.74067e-14 -4.32366e-14 1.00376e-10 
9.15213e-06 -3.90423e-05 0.0998458 
8.49044e-06 3.37106e-05 0.0996727 
2.40704e-05 6.30622e-05 0.0998557 
1.01356e-05 5.20172e-05 0.0999067 
-1.22774e-14 -1.8363e-13 9.91431e-11 
-1.85941e-05 7.45005e-06 0.100058 
-6.16076e-06 2.1223e-06 0.0497314 
-2.76725e-05 1.11363e-05 0.100056 
-7.83724e-06 8.35936e-06 0.0422734 
2.64982e-05 -4.70564e-05 0.0999822 
-7.99092e-15 1.84356e-14 9.99278e-11 
-4.49752e-14 2.33003e-14 1.00211e-10 
2.92333e-05 -3.40165e-05 0.099858 
-4.25119e-14 -1.00508e-13 9.93264e-11 
4.07218e-05 3.08412e-05 0.0999026 
3.4004e-05 4.90207e-05 0.0999162 
-4.93347e-15 2.78394e-14 1.00009e-10 
-3.62927e-14 -9.28586e-14 9.89718e-11 
1.66274e-05 2.8631e-05 0.0996962 
8.78564e-06 1.69935e-05 0.0996257 
-1.22774e-14 -1.8363e-13 9.91431e-11 
2.94478e-14 -1.90864e-15 1.00231e-10 
1.73798e-13 -8.21038e-15 9.90431e-11 
1.19414e-13 1.42617e-15 9.83977e-11 
-9.09223e-06 6.55199e-06 0.099644 
-7.34016e-15 3.05353e-14 1.00374e-10 
4.15969e-15 -2.14514e-13 9.8672e-11 
1.33584e-14 -1.74204e-13 9.88245e-11 
-7.85929e-06 3.04787e-05 0.0998382 
5.22154e-15 6.98438e-15 1.00058e-10 
-2.16191e-14 -5.6382e-15 1.0009e-10 
1.20093e-14 -2.00789e-15 9.99872e-11 
-3.83326e-05 2.73176e-05 0.100039 
2.92333e-05 -3.40165e-05 0.099858 
1.82823e-05 -2.44826e-05 0.0996838 
1.29394e-05 -3.06464e-05 0.0996941 
-1.32323e-13 1.27772e-13 9.89097e-11 
4.71313e-05 -2.78628e-05 0.0999793 
6.47688e-14 -1.18551e-14 1.00173e-10 
4.83184e-05 -1.35016e-05 0.0999022 
3.84617e-05 -2.06054e-05 0.0998836 
-2.93425e-05 1.29084e-05 0.0997196 
1.73798e-13 -8.21038e-15 9.90431e-11 
5.01193e-14 -2.05174e-14 1.00024e-10 
-4.53201e-05 8.48944e-06 0.0998868 
1.97502e-14 -6.55476e-14 1.00495e-10 
1.33705e-13 1.62128e-13 9.87225e-11 
4.80048e-14 6.40149e-14 9.94959e-11 
-3.50716e-05 -2.88763e-05 0.0999037 
-8.12817e-15 7.77816e-15 1.00059e-10 
5.22154e-15 6.98438e-15 1.00058e-10 
-9.11877e-15 -7.78679e-15 1.00089e-10 
-3.9052e-05 1.28844e-05 0.100048 
1.35306e-05 -1.9621e-05 0.100056 
-3.24792e-06 -8.03112e-06 0.0486293 
-2.63817e-07 -1.56048e-05 0.100058 
6.6845e-06 -4.96604e-06 0.0451146 
-4.3652e-15 1.63767e-14 1.00062e-10 
5.79011e-06 5.82395e-06 0.0438467 
2.29775e-05 2.79262e-05 0.10005 
2.59561e-06 1.31476e-05 0.0479705 
-2.42004e-05 3.37462e-05 0.0998812 
-7.34016e-15 3.05353e-14 1.00374e-10 
1.33584e-14 -1.74204e-13 9.88245e-11 
-1.80177e-05 3.27343e-05 0.0996951 
-2.76725e-05 1.11363e-05 0.100056 
-6.16076e-06 2.1223e-06 0.0497314 
-1.85941e-05 7.45005e-06 0.100058 
-1.26546e-05 -2.02278e-06 0.0492153 
1.27592e-15 -2.15176e-14 9.99158e-11 
3.75629e-05 -4.14227e-05 0.0999405 
2.64982e-05 -4.70564e-05 0.0999822 
-4.49752e-14 2.33003e-14 1.00211e-10 
-5.53164e-05 1.49842e-05 0.0999735 
5.01193e-14 -2.05174e-14 1.00024e-10 
-5.20386e-15 -4.54326e-17 9.9919e-11 
-4.53201e-05 8.48944e-06 0.0998868 
-5.38823e-06 -2.35206e-05 0.0497229 
8.78564e-06 1.69935e-05 0.0996257 
-1.47066e-06 -3.52748e-05 0.0496919 
-3.62927e-14 -9.28586e-14 9.89718e-11 
2.94478e-14 -1.90864e-15 1.00231e-10 
5.01193e-14 -2.05174e-14 1.00024e-10 
1.73798e-13 -8.21038e-15 9.90431e-11 
-4.53201e-05 8.48944e-06 0.0998868 
-2.82911e-14 1.61892e-13 9.87878e-11 
-9.14808e-06 -3.27901e-05 0.0998338 
3.73184e-14 1.34069e-13 9.90716e-11 
-1.83496e-05 -2.33838e-05 0.0996842 
3.50379e-07 1.46364e-05 0.10006 
8.51397e-06 2.01482e-05 0.100056 
1.12477e-05 1.12839e-05 0.100057 
5.79011e-06 5.82395e-06 0.0438467 
-7.99092e-15 1.84356e-14 9.99278e-11 
1.72913e-05 -4.87396e-05 0.0999604 
2.74067e-14 -4.32366e-14 1.00376e-10 
2.61482e-05 -3.81491e-05 0.0998688 
1.209e-13 8.08057e-14 9.88263e-11 
1.97502e-14 -6.55476e-14 1.00495e-10 
1.54623e-14 -9.97011e-15 1.00131e-10 
-4.71991e-05 -3.14745e-05 0.0998614 
-5.20386e-15 -4.54326e-17 9.9919e-11 
3.58502e-15 -1.00007e-15 9.98792e-11 
-9.11877e-15 -7.78679e-15 1.00089e-10 
-5.18023e-05 8.55186e-07 0.099978 
-7.81836e-06 1.54922e-05 0.0497067 
1.29394e-05 -3.06464e-05 0.0996941 
1.82823e-05 -2.44826e-05 0.0996838 
-1.32323e-13 1.27772e-13 9.89097e-11 
1.81046e-05 1.97682e-05 0.100053 
8.51397e-06 2.01482e-05 0.100056 
1.28013e-05 3.08063e-05 0.100052 
5.79011e-06 5.82395e-06 0.0438467 
-3.09281e-05 3.29925e-05 0.0998453 
1.31259e-13 -1.70284e-13 9.92453e-11 
1.61082e-13 -9.9211e-14 9.91473e-11 
-3.68981e-05 2.03293e-05 0.0997327 
-7.2269e-06 -4.35745e-05 0.0496755 
-1.16854e-06 -3.57773e-05 0.0497582 
1.33584e-14 -1.74204e-13 9.88245e-11 
-1.80177e-05 3.27343e-05 0.0996951 
-1.67321e-05 -2.50994e-05 0.0997157 
2.24762e-06 3.83007e-05 0.0497005 
3.73184e-14 1.34069e-13 9.90716e-11 
-1.83496e-05 -2.33838e-05 0.0996842 
1.31259e-13 -1.70284e-13 9.92453e-11 
1.21264e-05 -1.66583e-05 0.049745 
1.99166e-05 -1.45374e-05 0.0497707 
-2.42514e-05 2.85041e-05 0.0996595 
1.2948e-05 -4.26274e-05 0.0996906 
2.74067e-14 -4.32366e-14 1.00376e-10 
-6.49698e-14 2.24098e-13 9.86873e-11 
9.15213e-06 -3.90423e-05 0.0998458 
-1.56262e-05 -2.47047e-05 0.0497781 
-1.8358e-05 -1.22391e-05 0.0497344 
2.00884e-05 1.34031e-05 0.0997219 
-2.13175e-13 -1.27377e-13 9.91712e-11 
1.01356e-05 5.20172e-05 0.0999067 
2.22118e-06 3.85654e-05 0.0999452 
7.24462e-15 2.46363e-14 1.00303e-10 
-4.1497e-15 -3.32772e-14 9.98534e-11 
-4.25119e-14 -1.00508e-13 9.93264e-11 
1.66274e-05 2.8631e-05 0.0996962 
2.00884e-05 1.34031e-05 0.0997219 
-3.62927e-14 -9.28586e-14 9.89718e-11 
-7.85929e-06 3.04787e-05 0.0998382 
1.33584e-14 -1.74204e-13 9.88245e-11 
-7.34016e-15 3.05353e-14 1.00374e-10 
-1.80177e-05 3.27343e-05 0.0996951 
-4.25119e-14 -1.00508e-13 9.93264e-11 
3.4004e-05 4.90207e-05 0.0999162 
1.66274e-05 2.8631e-05 0.0996962 
-4.22746e-14 -7.23757e-14 1.00064e-10 
-2.93425e-05 1.29084e-05 0.0997196 
5.25902e-05 4.55259e-06 0.0496468 
1.73798e-13 -8.21038e-15 9.90431e-11 
-9.09223e-06 6.55199e-06 0.099644 
1.28013e-05 3.08063e-05 0.100052 
2.29775e-05 2.79262e-05 0.10005 
5.79011e-06 5.82395e-06 0.0438467 
2.59561e-06 1.31476e-05 0.0479705 
-1.97289e-05 1.78933e-05 0.100056 
-1.06686e-05 1.0435e-05 0.100058 
-1.85941e-05 7.45005e-06 0.100058 
-6.16076e-06 2.1223e-06 0.0497314 
-7.34016e-15 3.05353e-14 1.00374e-10 
4.15969e-15 -2.14514e-13 9.8672e-11 
1.85543e-06 3.15096e-05 0.0998219 
7.24462e-15 2.46363e-14 1.00303e-10 
-2.44229e-05 -3.80804e-08 0.100056 
-1.49658e-05 -5.09375e-07 0.100058 
-2.48284e-05 -9.27827e-06 0.100057 
-1.26546e-05 -2.02278e-06 0.0492153 
-1.81272e-13 -7.90914e-14 9.84557e-11 
-4.60925e-05 6.56188e-07 0.0496463 
2.43334e-05 -8.1768e-06 0.0996381 
-3.7894e-05 -8.1622e-07 0.0496422 
-4.71561e-05 9.26053e-07 0.0496718 
3.22432e-05 1.66052e-05 0.0996986 
-3.27931e-05 -1.77546e-06 0.0497296 
-8.99136e-14 2.78424e-14 9.93052e-11 
3.75629e-05 -4.14227e-05 0.0999405 
4.71313e-05 -2.78628e-05 0.0999793 
6.47688e-14 -1.18551e-14 1.00173e-10 
1.27592e-15 -2.15176e-14 9.99158e-11 
-7.81836e-06 1.54922e-05 0.0497067 
-5.80946e-06 2.50368e-05 0.0497496 
1.29394e-05 -3.06464e-05 0.0996941 
-1.32323e-13 1.27772e-13 9.89097e-11 
1.12477e-05 1.12839e-05 0.100057 
7.06615e-07 -8.90303e-07 0.042266 
2.35166e-06 5.1993e-06 0.10006 
5.79011e-06 5.82395e-06 0.0438467 
2.40704e-05 6.30622e-05 0.0998557 
2.00214e-05 6.22632e-05 0.0999638 
1.93684e-14 4.61972e-14 9.99896e-11 
-4.22746e-14 -7.23757e-14 1.00064e-10 
-4.93347e-15 2.78394e-14 1.00009e-10 
1.14499e-14 4.89949e-15 1.00015e-10 
3.20001e-05 4.2529e-05 0.100026 
1.76213e-15 -7.52097e-15 1.00075e-10 
-2.05397e-05 1.05369e-05 0.0497157 
2.5542e-05 -3.21784e-05 0.0997541 
-2.45792e-13 7.56687e-14 9.92453e-11 
-5.76453e-14 8.63802e-14 9.89752e-11 
2.21216e-13 -1.59596e-14 9.84178e-11 
-4.41431e-05 -5.08118e-06 0.0998697 
-3.38167e-15 9.32939e-15 1.00138e-10 
2.94478e-14 -1.90864e-15 1.00231e-10 
-4.68848e-05 -3.02534e-05 0.099973 
-1.13333e-14 -4.43145e-15 1.00036e-10 
-2.13064e-14 1.20842e-14 9.99287e-11 
1.54623e-14 -9.97011e-15 1.00131e-10 
-2.76725e-05 1.11363e-05 0.100056 
-8.12817e-15 7.77816e-15 1.00059e-10 
-7.83724e-06 8.35936e-06 0.0422734 
-1.26546e-05 -2.02278e-06 0.0492153 
1.03205e-14 3.53759e-15 9.99384e-11 
-8.3941e-14 5.45272e-14 1.00435e-10 
6.96214e-14 -7.17407e-15 1.00033e-10 
5.54151e-05 1.87711e-07 0.0999804 
2.74067e-14 -4.32366e-14 1.00376e-10 
1.81506e-14 1.78058e-14 9.99388e-11 
1.72913e-05 -4.87396e-05 0.0999604 
-7.99092e-15 1.84356e-14 9.99278e-11 
-4.49752e-14 2.33003e-14 1.00211e-10 
3.75629e-05 -4.14227e-05 0.0999405 
2.64982e-05 -4.70564e-05 0.0999822 
2.92333e-05 -3.40165e-05 0.099858 
5.44003e-05 1.83981e-05 0.0999154 
6.68348e-05 5.86874e-06 0.0998683 
6.96214e-14 -7.17407e-15 1.00033e-10 
-2.4093e-13 -5.18192e-15 9.8655e-11 
-3.62094e-05 -2.04487e-05 0.0997118 
2.48484e-05 5.73161e-06 0.0497309 
1.209e-13 8.08057e-14 9.88263e-11 
-4.32109e-05 -1.97336e-05 0.0997364 
-1.50261e-14 8.49891e-15 9.99389e-11 
5.26181e-05 3.07291e-05 0.0999722 
5.44003e-05 1.83981e-05 0.0999154 
-2.18983e-14 -3.17452e-14 1.00163e-10 
-4.68848e-05 -3.02534e-05 0.099973 
-2.13064e-14 1.20842e-14 9.99287e-11 
-4.10081e-05 -4.21213e-05 0.0999941 
-3.50716e-05 -2.88763e-05 0.0999037 
2.81748e-05 -1.02932e-05 0.0497687 
4.30101e-05 -4.0636e-06 0.0496601 
9.6062e-14 -3.64827e-14 9.93329e-11 
-1.16305e-05 1.19241e-05 0.0996345 
1.03205e-14 3.53759e-15 9.99384e-11 
5.28329e-05 -8.39764e-06 0.0998817 
5.54151e-05 1.87711e-07 0.0999804 
6.62628e-05 -1.66144e-05 0.0999877 
-1.47519e-05 -6.37192e-05 0.0999789 
5.77214e-07 -5.68983e-05 0.0999051 
-9.14808e-06 -3.27901e-05 0.0998338 
1.07056e-14 5.51363e-15 9.99775e-11 
-9.02739e-06 -2.23435e-05 0.100056 
-7.79829e-08 -1.42251e-05 0.042739 
-7.14711e-06 -3.47554e-05 0.100051 
-1.0664e-05 -1.1906e-05 0.0542056 
-9.02739e-06 -2.23435e-05 0.100056 
2.82143e-06 -2.87493e-05 0.100054 
-7.14711e-06 -3.47554e-05 0.100051 
-7.79829e-08 -1.42251e-05 0.042739 
-4.93347e-15 2.78394e-14 1.00009e-10 
4.07218e-05 3.08412e-05 0.0999026 
3.83034e-05 4.32617e-05 0.0999912 
4.69002e-14 3.47452e-14 1.00142e-10 
3.22432e-05 1.66052e-05 0.0996986 
1.22695e-05 1.95146e-05 0.0996311 
-3.27931e-05 -1.77546e-06 0.0497296 
-8.99136e-14 2.78424e-14 9.93052e-11 
2.94478e-14 -1.90864e-15 1.00231e-10 
-5.20386e-15 -4.54326e-17 9.9919e-11 
-4.53201e-05 8.48944e-06 0.0998868 
-5.18023e-05 8.55186e-07 0.099978 
6.68348e-05 5.86874e-06 0.0998683 
6.96214e-14 -7.17407e-15 1.00033e-10 
-8.3941e-14 5.45272e-14 1.00435e-10 
5.54151e-05 1.87711e-07 0.0999804 
3.91016e-15 5.5728e-15 1.00046e-10 
1.03205e-14 3.53759e-15 9.99384e-11 
6.62628e-05 -1.66144e-05 0.0999877 
-4.22611e-15 -7.24899e-15 9.99878e-11 
-2.73231e-05 -6.16719e-05 0.0999002 
-1.67321e-05 -2.50994e-05 0.0997157 
-3.69569e-16 6.88371e-14 1.0017e-10 
-1.83496e-05 -2.33838e-05 0.0996842 
4.83184e-05 -1.35016e-05 0.0999022 
-1.09657e-13 3.88004e-15 9.91894e-11 
3.34416e-05 -1.79446e-05 0.0997097 
3.66889e-05 -2.47289e-05 0.099731 
-1.47519e-05 -6.37192e-05 0.0999789 
-9.14808e-06 -3.27901e-05 0.0998338 
-2.73231e-05 -6.16719e-05 0.0999002 
1.07056e-14 5.51363e-15 9.99775e-11 
-1.53002e-05 5.05967e-05 0.0999726 
-7.34016e-15 3.05353e-14 1.00374e-10 
-2.42004e-05 3.37462e-05 0.0998812 
-7.85929e-06 3.04787e-05 0.0998382 
5.01193e-14 -2.05174e-14 1.00024e-10 
-4.48517e-14 2.53872e-14 1.0007e-10 
-4.6685e-05 2.01706e-05 0.0998478 
-6.03446e-05 2.69656e-05 0.0999712 
2.94478e-14 -1.90864e-15 1.00231e-10 
1.19414e-13 1.42617e-15 9.83977e-11 
2.21216e-13 -1.59596e-14 9.84178e-11 
-9.09223e-06 6.55199e-06 0.099644 
-6.49698e-14 2.24098e-13 9.86873e-11 
2.74067e-14 -4.32366e-14 1.00376e-10 
6.13684e-14 1.54122e-13 9.83801e-11 
9.15213e-06 -3.90423e-05 0.0998458 
-9.14808e-06 -3.27901e-05 0.0998338 
-2.82911e-14 1.61892e-13 9.87878e-11 
1.07056e-14 5.51363e-15 9.99775e-11 
-2.53359e-14 6.01479e-14 1.004e-10 
-2.82911e-14 1.61892e-13 9.87878e-11 
3.73184e-14 1.34069e-13 9.90716e-11 
-9.14808e-06 -3.27901e-05 0.0998338 
1.07056e-14 5.51363e-15 9.99775e-11 
-6.49698e-14 2.24098e-13 9.86873e-11 
-1.95523e-14 1.01395e-13 9.92873e-11 
2.74067e-14 -4.32366e-14 1.00376e-10 
2.61482e-05 -3.81491e-05 0.0998688 
2.00884e-05 1.34031e-05 0.0997219 
-1.56262e-05 -2.47047e-05 0.0497781 
-4.25119e-14 -1.00508e-13 9.93264e-11 
-3.62927e-14 -9.28586e-14 9.89718e-11 
-4.41431e-05 -5.08118e-06 0.0998697 
-5.57768e-05 -1.71737e-05 0.0998385 
-1.75227e-05 -1.27165e-05 0.0996616 
-3.38167e-15 9.32939e-15 1.00138e-10 
4.71313e-05 -2.78628e-05 0.0999793 
1.03205e-14 3.53759e-15 9.99384e-11 
6.47688e-14 -1.18551e-14 1.00173e-10 
-4.22611e-15 -7.24899e-15 9.99878e-11 
5.25902e-05 4.55259e-06 0.0496468 
5.51545e-05 1.44284e-06 0.0496284 
1.19414e-13 1.42617e-15 9.83977e-11 
-9.09223e-06 6.55199e-06 0.099644 
-4.21559e-15 -2.43751e-14 1.00017e-10 
5.62681e-17 -2.48705e-14 1.00032e-10 
-1.03997e-14 2.06657e-16 1.00061e-10 
-2.95201e-05 -5.41367e-05 0.0999965 
9.6062e-14 -3.64827e-14 9.93329e-11 
1.61082e-13 -9.9211e-14 9.91473e-11 
2.81748e-05 -1.02932e-05 0.0497687 
-1.16305e-05 1.19241e-05 0.0996345 
2.60351e-05 3.02084e-05 0.0996995 
-2.80993e-05 -4.27404e-06 0.0497541 
1.22695e-05 1.95146e-05 0.0996311 
-1.09809e-13 -3.20527e-14 9.91347e-11 
-2.4093e-13 -5.18192e-15 9.8655e-11 
7.51463e-06 5.33769e-06 0.0995691 
2.43334e-05 -8.1768e-06 0.0996381 
-1.81272e-13 -7.90914e-14 9.84557e-11 
2.60351e-05 3.02084e-05 0.0996995 
2.00884e-05 1.34031e-05 0.0997219 
-1.8358e-05 -1.22391e-05 0.0497344 
-2.13175e-13 -1.27377e-13 9.91712e-11 
-7.2269e-06 -4.35745e-05 0.0496755 
4.15969e-15 -2.14514e-13 9.8672e-11 
-2.41495e-06 -4.36617e-05 0.0496319 
-8.05101e-06 2.79562e-05 0.0996153 
-2.13064e-14 1.20842e-14 9.99287e-11 
-4.68848e-05 -3.02534e-05 0.099973 
1.97502e-14 -6.55476e-14 1.00495e-10 
-3.50716e-05 -2.88763e-05 0.0999037 
-1.32454e-05 3.75386e-05 0.0997356 
1.31259e-13 -1.70284e-13 9.92453e-11 
5.28724e-14 -1.05075e-13 9.92899e-11 
-3.09281e-05 3.29925e-05 0.0998453 
1.61082e-13 -9.9211e-14 9.91473e-11 
1.31259e-13 -1.70284e-13 9.92453e-11 
1.99166e-05 -1.45374e-05 0.0497707 
-3.68981e-05 2.03293e-05 0.0997327 
-4.48517e-14 2.53872e-14 1.0007e-10 
-5.20386e-15 -4.54326e-17 9.9919e-11 
5.22154e-15 6.98438e-15 1.00058e-10 
-6.03446e-05 2.69656e-05 0.0999712 
-2.82911e-14 1.61892e-13 9.87878e-11 
-4.52905e-06 5.09918e-05 0.0496652 
-1.59438e-06 5.2946e-05 0.0496482 
-3.20611e-06 -1.55851e-05 0.0996728 
-4.21559e-15 -2.43751e-14 1.00017e-10 
-3.11894e-05 -4.6494e-05 0.0999213 
-2.73231e-05 -6.16719e-05 0.0999002 
-2.95201e-05 -5.41367e-05 0.0999965 
1.81506e-14 1.78058e-14 9.99388e-11 
1.72913e-05 -4.87396e-05 0.0999604 
-2.56942e-14 9.5864e-15 9.98459e-11 
2.74067e-14 -4.32366e-14 1.00376e-10 
-2.95201e-05 -5.41367e-05 0.0999965 
-4.21559e-15 -2.43751e-14 1.00017e-10 
-3.11894e-05 -4.6494e-05 0.0999213 
-4.10081e-05 -4.21213e-05 0.0999941 
4.98407e-05 -5.16666e-06 0.0496913 
-1.75227e-05 -1.27165e-05 0.0996616 
1.43704e-13 1.59844e-14 9.91815e-11 
2.21216e-13 -1.59596e-14 9.84178e-11 
-1.09657e-13 3.88004e-15 9.91894e-11 
6.47688e-14 -1.18551e-14 1.00173e-10 
-2.45792e-13 7.56687e-14 9.92453e-11 
4.83184e-05 -1.35016e-05 0.0999022 
-1.95758e-05 -2.81997e-05 0.100051 
-9.02739e-06 -2.23435e-05 0.100056 
-7.14711e-06 -3.47554e-05 0.100051 
-1.0664e-05 -1.1906e-05 0.0542056 
-4.48517e-14 2.53872e-14 1.0007e-10 
1.20093e-14 -2.00789e-15 9.99872e-11 
-4.22245e-14 2.99316e-14 1.0014e-10 
-5.05469e-05 3.1268e-05 0.099934 
-4.3652e-15 1.63767e-14 1.00062e-10 
1.14499e-14 4.89949e-15 1.00015e-10 
3.47362e-05 2.95918e-05 0.100047 
1.2456e-14 1.15981e-15 1.0009e-10 
-2.53359e-14 6.01479e-14 1.004e-10 
1.07056e-14 5.51363e-15 9.99775e-11 
5.77214e-07 -5.68983e-05 0.0999051 
-2.56942e-14 9.5864e-15 9.98459e-11 
8.78564e-06 1.69935e-05 0.0996257 
-1.47066e-06 -3.52748e-05 0.0496919 
-3.62927e-14 -9.28586e-14 9.89718e-11 
-1.22774e-14 -1.8363e-13 9.91431e-11 
1.03205e-14 3.53759e-15 9.99384e-11 
-1.09657e-13 3.88004e-15 9.91894e-11 
5.28329e-05 -8.39764e-06 0.0998817 
4.83184e-05 -1.35016e-05 0.0999022 
-1.67321e-05 -2.50994e-05 0.0997157 
1.35497e-05 2.31328e-05 0.0496793 
-1.94144e-05 -5.22873e-05 0.0994215 
-1.93372e-05 -1.25182e-05 0.0997376 
2.92333e-05 -3.40165e-05 0.099858 
1.29394e-05 -3.06464e-05 0.0996941 
-1.95523e-14 1.01395e-13 9.92873e-11 
-1.32323e-13 1.27772e-13 9.89097e-11 
-5.06565e-06 5.53661e-05 0.100018 
1.32959e-14 2.16956e-14 1.00094e-10 
-2.20173e-15 2.022e-14 9.99509e-11 
-4.1497e-15 -3.32772e-14 9.98534e-11 
-3.38167e-15 9.32939e-15 1.00138e-10 
-1.75227e-05 -1.27165e-05 0.0996616 
-4.41431e-05 -5.08118e-06 0.0998697 
2.21216e-13 -1.59596e-14 9.84178e-11 
3.4004e-05 4.90207e-05 0.0999162 
3.83034e-05 4.32617e-05 0.0999912 
3.36434e-05 5.82349e-05 0.0999934 
-4.93347e-15 2.78394e-14 1.00009e-10 
-1.32454e-05 3.75386e-05 0.0997356 
5.28724e-14 -1.05075e-13 9.92899e-11 
8.84049e-06 -2.65822e-05 0.0497499 
-1.80177e-05 3.27343e-05 0.0996951 
-1.13333e-14 -4.43145e-15 1.00036e-10 
-2.13064e-14 1.20842e-14 9.99287e-11 
-1.03997e-14 2.06657e-16 1.00061e-10 
-3.91604e-05 -2.92381e-05 0.100026 
-5.20386e-15 -4.54326e-17 9.9919e-11 
2.94478e-14 -1.90864e-15 1.00231e-10 
3.58502e-15 -1.00007e-15 9.98792e-11 
-5.18023e-05 8.55186e-07 0.099978 
-4.22245e-14 2.99316e-14 1.0014e-10 
5.28724e-14 -1.05075e-13 9.92899e-11 
1.31259e-13 -1.70284e-13 9.92453e-11 
-3.09281e-05 3.29925e-05 0.0998453 
4.30101e-05 -4.0636e-06 0.0496601 
5.25902e-05 4.55259e-06 0.0496468 
1.73798e-13 -8.21038e-15 9.90431e-11 
-2.93425e-05 1.29084e-05 0.0997196 
-1.14938e-14 -1.51858e-14 9.99295e-11 
1.20093e-14 -2.00789e-15 9.99872e-11 
-2.20173e-15 2.022e-14 9.99509e-11 
-3.11394e-05 5.56202e-05 0.0999841 
2.53648e-05 -3.74752e-05 0.100032 
3.8742e-05 -2.7704e-05 0.100041 
-1.79771e-15 -1.72541e-14 1.00092e-10 
6.86288e-06 -1.25699e-05 0.0419077 
4.07218e-05 3.08412e-05 0.0999026 
2.00884e-05 1.34031e-05 0.0997219 
-2.13175e-13 -1.27377e-13 9.91712e-11 
-4.25119e-14 -1.00508e-13 9.93264e-11 
2.60351e-05 3.02084e-05 0.0996995 
1.22695e-05 1.95146e-05 0.0996311 
4.93408e-05 2.06597e-05 0.0998533 
-1.09809e-13 -3.20527e-14 9.91347e-11 
1.35497e-05 2.31328e-05 0.0496793 
1.65394e-05 2.59847e-05 0.0497484 
-1.94144e-05 -5.22873e-05 0.0994215 
-1.93372e-05 -1.25182e-05 0.0997376 
-3.20611e-06 -1.55851e-05 0.0996728 
-2.82911e-14 1.61892e-13 9.87878e-11 
-9.14808e-06 -3.27901e-05 0.0998338 
-2.53359e-14 6.01479e-14 1.004e-10 
1.66274e-05 2.8631e-05 0.0996962 
2.40704e-05 6.30622e-05 0.0998557 
-1.22774e-14 -1.8363e-13 9.91431e-11 
-4.22746e-14 -7.23757e-14 1.00064e-10 
2.43334e-05 -8.1768e-06 0.0996381 
-2.4093e-13 -5.18192e-15 9.8655e-11 
-1.81272e-13 -7.90914e-14 9.84557e-11 
-8.3941e-14 5.45272e-14 1.00435e-10 
1.209e-13 8.08057e-14 9.88263e-11 
2.48484e-05 5.73161e-06 0.0497309 
-3.62094e-05 -2.04487e-05 0.0997118 
1.43704e-13 1.59844e-14 9.91815e-11 
4.80048e-14 6.40149e-14 9.94959e-11 
-3.11894e-05 -4.6494e-05 0.0999213 
-1.67321e-05 -2.50994e-05 0.0997157 
-3.69569e-16 6.88371e-14 1.0017e-10 
1.54623e-14 -9.97011e-15 1.00131e-10 
1.209e-13 8.08057e-14 9.88263e-11 
-3.62094e-05 -2.04487e-05 0.0997118 
1.43704e-13 1.59844e-14 9.91815e-11 
-9.7553e-15 -5.96936e-15 1.00065e-10 
-1.78398e-05 -3.9575e-05 0.100047 
-7.79829e-08 -1.42251e-05 0.042739 
-1.0664e-05 -1.1906e-05 0.0542056 
-1.09809e-13 -3.20527e-14 9.91347e-11 
4.93408e-05 2.06597e-05 0.0998533 
-2.13175e-13 -1.27377e-13 9.91712e-11 
4.69002e-14 3.47452e-14 1.00142e-10 
5.22154e-15 6.98438e-15 1.00058e-10 
-5.20386e-15 -4.54326e-17 9.9919e-11 
-9.11877e-15 -7.78679e-15 1.00089e-10 
-5.21181e-05 7.20726e-06 0.100023 
5.28329e-05 -8.39764e-06 0.0998817 
-1.09657e-13 3.88004e-15 9.91894e-11 
3.34416e-05 -1.79446e-05 0.0997097 
4.83184e-05 -1.35016e-05 0.0999022 
1.2456e-14 1.15981e-15 1.0009e-10 
1.14499e-14 4.89949e-15 1.00015e-10 
4.82396e-05 1.7431e-05 0.100035 
-1.50261e-14 8.49891e-15 9.99389e-11 
-2.48284e-05 -9.27827e-06 0.100057 
-3.24792e-06 -8.03112e-06 0.0486293 
-1.05306e-05 -1.09753e-05 0.100059 
-1.0664e-05 -1.1906e-05 0.0542056 
2.35166e-06 5.1993e-06 0.10006 
6.64819e-06 -2.61503e-06 0.100059 
-1.7716e-06 -4.07097e-06 0.10006 
7.06615e-07 -8.90303e-07 0.042266 
-4.48517e-14 2.53872e-14 1.0007e-10 
5.22154e-15 6.98438e-15 1.00058e-10 
1.20093e-14 -2.00789e-15 9.99872e-11 
-4.61568e-05 3.28924e-05 0.100003 
5.28724e-14 -1.05075e-13 9.92899e-11 
-7.34016e-15 3.05353e-14 1.00374e-10 
1.33584e-14 -1.74204e-13 9.88245e-11 
-2.42004e-05 3.37462e-05 0.0998812 
-1.95523e-14 1.01395e-13 9.92873e-11 
1.29394e-05 -3.06464e-05 0.0996941 
-5.80946e-06 2.50368e-05 0.0497496 
-1.32323e-13 1.27772e-13 9.89097e-11 
-2.18983e-14 -3.17452e-14 1.00163e-10 
3.22432e-05 1.66052e-05 0.0996986 
5.44003e-05 1.83981e-05 0.0999154 
-2.4093e-13 -5.18192e-15 9.8655e-11 
-2.18983e-14 -3.17452e-14 1.00163e-10 
5.26181e-05 3.07291e-05 0.0999722 
4.93408e-05 2.06597e-05 0.0998533 
4.69002e-14 3.47452e-14 1.00142e-10 
-3.62927e-14 -9.28586e-14 9.89718e-11 
-4.25119e-14 -1.00508e-13 9.93264e-11 
1.66274e-05 2.8631e-05 0.0996962 
-4.22746e-14 -7.23757e-14 1.00064e-10 
1.29394e-05 -3.06464e-05 0.0996941 
-1.95523e-14 1.01395e-13 9.92873e-11 
1.2948e-05 -4.26274e-05 0.0996906 
2.61482e-05 -3.81491e-05 0.0998688 
-2.53359e-14 6.01479e-14 1.004e-10 
5.77214e-07 -5.68983e-05 0.0999051 
-3.20611e-06 -1.55851e-05 0.0996728 
9.15213e-06 -3.90423e-05 0.0998458 
-1.47519e-05 -6.37192e-05 0.0999789 
1.07056e-14 5.51363e-15 9.99775e-11 
5.62681e-17 -2.48705e-14 1.00032e-10 
-2.56942e-14 9.5864e-15 9.98459e-11 
-2.76725e-05 1.11363e-05 0.100056 
-7.83724e-06 8.35936e-06 0.0422734 
-6.16076e-06 2.1223e-06 0.0497314 
-1.26546e-05 -2.02278e-06 0.0492153 
-1.83496e-05 -2.33838e-05 0.0996842 
-4.52905e-06 5.09918e-05 0.0496652 
-2.82911e-14 1.61892e-13 9.87878e-11 
-3.20611e-06 -1.55851e-05 0.0996728 
1.82823e-05 -2.44826e-05 0.0996838 
-2.05397e-05 1.05369e-05 0.0497157 
-1.32323e-13 1.27772e-13 9.89097e-11 
-5.76453e-14 8.63802e-14 9.89752e-11 
-1.32454e-05 3.75386e-05 0.0997356 
-2.42004e-05 3.37462e-05 0.0998812 
5.28724e-14 -1.05075e-13 9.92899e-11 
-1.80177e-05 3.27343e-05 0.0996951 
-1.75227e-05 -1.27165e-05 0.0996616 
3.64098e-05 -4.38168e-06 0.0496378 
4.98407e-05 -5.16666e-06 0.0496913 
1.43704e-13 1.59844e-14 9.91815e-11 
1.49694e-05 3.83395e-07 0.100059 
2.12594e-05 -7.44716e-06 0.100055 
1.0665e-05 -1.07206e-05 0.100056 
6.6845e-06 -4.96604e-06 0.0451146 
7.51463e-06 5.33769e-06 0.0995691 
3.22432e-05 1.66052e-05 0.0996986 
-8.99136e-14 2.78424e-14 9.93052e-11 
-2.4093e-13 -5.18192e-15 9.8655e-11 
-2.73231e-05 -6.16719e-05 0.0999002 
-1.67321e-05 -2.50994e-05 0.0997157 
-3.11894e-05 -4.6494e-05 0.0999213 
-3.69569e-16 6.88371e-14 1.0017e-10 
-4.22611e-15 -7.24899e-15 9.99878e-11 
6.47688e-14 -1.18551e-14 1.00173e-10 
4.71313e-05 -2.78628e-05 0.0999793 
1.27592e-15 -2.15176e-14 9.99158e-11 
1.29394e-05 -3.06464e-05 0.0996941 
2.7688e-05 -6.24404e-05 0.0994051 
1.2948e-05 -4.26274e-05 0.0996906 
-5.80946e-06 2.50368e-05 0.0497496 
1.27592e-15 -2.15176e-14 9.99158e-11 
4.37893e-05 -4.04e-05 0.100013 
-4.22611e-15 -7.24899e-15 9.99878e-11 
-1.79771e-15 -1.72541e-14 1.00092e-10 
1.49694e-05 3.83395e-07 0.100059 
6.64819e-06 -2.61503e-06 0.100059 
7.06615e-07 -8.90303e-07 0.042266 
6.6845e-06 -4.96604e-06 0.0451146 
-7.34016e-15 3.05353e-14 1.00374e-10 
-1.14938e-14 -1.51858e-14 9.99295e-11 
-2.20173e-15 2.022e-14 9.99509e-11 
-1.53002e-05 5.05967e-05 0.0999726 
-4.48517e-14 2.53872e-14 1.0007e-10 
5.01193e-14 -2.05174e-14 1.00024e-10 
-5.20386e-15 -4.54326e-17 9.9919e-11 
-6.03446e-05 2.69656e-05 0.0999712 
5.28724e-14 -1.05075e-13 9.92899e-11 
-2.42004e-05 3.37462e-05 0.0998812 
-1.32454e-05 3.75386e-05 0.0997356 
-2.83206e-05 4.36499e-05 0.099905 
-3.75463e-05 -1.34821e-05 0.100053 
-1.0664e-05 -1.1906e-05 0.0542056 
-3.19851e-05 -2.71852e-05 0.100048 
-1.64282e-05 -4.86123e-06 0.048807 
-4.68848e-05 -3.02534e-05 0.099973 
-2.13064e-14 1.20842e-14 9.99287e-11 
1.97502e-14 -6.55476e-14 1.00495e-10 
1.54623e-14 -9.97011e-15 1.00131e-10 
-1.53002e-05 5.05967e-05 0.0999726 
-2.20173e-15 2.022e-14 9.99509e-11 
-7.34016e-15 3.05353e-14 1.00374e-10 
-4.1497e-15 -3.32772e-14 9.98534e-11 
-1.7716e-06 -4.07097e-06 0.10006 
7.06615e-07 -8.90303e-07 0.042266 
-2.63817e-07 -1.56048e-05 0.100058 
-3.24792e-06 -8.03112e-06 0.0486293 
1.21264e-05 -1.66583e-05 0.049745 
1.31259e-13 -1.70284e-13 9.92453e-11 
-4.13486e-14 2.81772e-14 1.01086e-10 
8.84049e-06 -2.65822e-05 0.0497499 
5.01193e-14 -2.05174e-14 1.00024e-10 
9.6062e-14 -3.64827e-14 9.93329e-11 
-2.93425e-05 1.29084e-05 0.0997196 
-4.6685e-05 2.01706e-05 0.0998478 
4.80048e-14 6.40149e-14 9.94959e-11 
1.65394e-05 2.59847e-05 0.0497484 
4.63256e-14 1.111e-13 9.90575e-11 
-1.93372e-05 -1.25182e-05 0.0997376 
-1.09657e-13 3.88004e-15 9.91894e-11 
-1.81272e-13 -7.90914e-14 9.84557e-11 
3.34416e-05 -1.79446e-05 0.0997097 
-3.84406e-05 3.15062e-07 0.0496692 
1.22695e-05 1.95146e-05 0.0996311 
3.22432e-05 1.66052e-05 0.0996986 
-1.09809e-13 -3.20527e-14 9.91347e-11 
-8.99136e-14 2.78424e-14 9.93052e-11 
2.48484e-05 5.73161e-06 0.0497309 
3.64098e-05 -4.38168e-06 0.0496378 
-3.62094e-05 -2.04487e-05 0.0997118 
1.43704e-13 1.59844e-14 9.91815e-11 
-3.84406e-05 3.15062e-07 0.0496692 
-2.74869e-05 6.00675e-06 0.0497077 
6.40586e-05 -3.56762e-05 0.0993838 
3.66889e-05 -2.47289e-05 0.099731 
9.6062e-14 -3.64827e-14 9.93329e-11 
-4.48517e-14 2.53872e-14 1.0007e-10 
1.61082e-13 -9.9211e-14 9.91473e-11 
-4.6685e-05 2.01706e-05 0.0998478 
-2.05397e-05 1.05369e-05 0.0497157 
-7.81836e-06 1.54922e-05 0.0497067 
1.82823e-05 -2.44826e-05 0.0996838 
-1.32323e-13 1.27772e-13 9.89097e-11 
1.81506e-14 1.78058e-14 9.99388e-11 
1.27592e-15 -2.15176e-14 9.99158e-11 
2.64982e-05 -4.70564e-05 0.0999822 
-7.99092e-15 1.84356e-14 9.99278e-11 
1.12486e-05 1.15947e-05 0.0497167 
-4.81035e-05 -2.4711e-05 0.0994534 
-1.93372e-05 -1.25182e-05 0.0997376 
-4.04487e-05 -1.98403e-05 0.0997295 
5.18791e-05 -3.71255e-05 0.099447 
3.66889e-05 -2.47289e-05 0.099731 
-2.74869e-05 6.00675e-06 0.0497077 
-2.05397e-05 1.05369e-05 0.0497157 
1.66274e-05 2.8631e-05 0.0996962 
2.40704e-05 6.30622e-05 0.0998557 
8.78564e-06 1.69935e-05 0.0996257 
-1.22774e-14 -1.8363e-13 9.91431e-11 
2.60305e-05 -2.07289e-05 0.100052 
2.53441e-05 -3.40384e-05 0.100044 
1.54212e-05 -3.3144e-05 0.100052 
6.86288e-06 -1.25699e-05 0.0419077 
1.73798e-13 -8.21038e-15 9.90431e-11 
9.6062e-14 -3.64827e-14 9.93329e-11 
4.30101e-05 -4.0636e-06 0.0496601 
-2.93425e-05 1.29084e-05 0.0997196 
8.84049e-06 -2.65822e-05 0.0497499 
1.31259e-13 -1.70284e-13 9.92453e-11 
5.28724e-14 -1.05075e-13 9.92899e-11 
-1.32454e-05 3.75386e-05 0.0997356 
-3.69569e-16 6.88371e-14 1.0017e-10 
-1.67321e-05 -2.50994e-05 0.0997157 
3.73184e-14 1.34069e-13 9.90716e-11 
-1.83496e-05 -2.33838e-05 0.0996842 
4.80048e-14 6.40149e-14 9.94959e-11 
1.33705e-13 1.62128e-13 9.87225e-11 
1.65394e-05 2.59847e-05 0.0497484 
-1.93372e-05 -1.25182e-05 0.0997376 
-4.04487e-05 -1.98403e-05 0.0997295 
-1.93372e-05 -1.25182e-05 0.0997376 
4.80048e-14 6.40149e-14 9.94959e-11 
-3.50716e-05 -2.88763e-05 0.0999037 
-4.22245e-14 2.99316e-14 1.0014e-10 
-1.14938e-14 -1.51858e-14 9.99295e-11 
5.28724e-14 -1.05075e-13 9.92899e-11 
-2.83206e-05 4.36499e-05 0.099905 
-1.90366e-15 5.71259e-15 1.00062e-10 
1.32959e-14 2.16956e-14 1.00094e-10 
-7.83724e-06 8.35936e-06 0.0422734 
2.59561e-06 1.31476e-05 0.0479705 
6.40586e-05 -3.56762e-05 0.0993838 
3.34416e-05 -1.79446e-05 0.0997097 
-3.84406e-05 3.15062e-07 0.0496692 
3.66889e-05 -2.47289e-05 0.099731 
4.37893e-05 -4.04e-05 0.100013 
3.75629e-05 -4.14227e-05 0.0999405 
2.64982e-05 -4.70564e-05 0.0999822 
1.27592e-15 -2.15176e-14 9.99158e-11 
-1.67321e-05 -2.50994e-05 0.0997157 
4.63256e-14 1.111e-13 9.90575e-11 
4.80048e-14 6.40149e-14 9.94959e-11 
-3.69569e-16 6.88371e-14 1.0017e-10 
2.60305e-05 -2.07289e-05 0.100052 
1.54212e-05 -3.3144e-05 0.100052 
6.6845e-06 -4.96604e-06 0.0451146 
6.86288e-06 -1.25699e-05 0.0419077 
1.74347e-06 3.01473e-05 0.0497455 
1.2948e-05 -4.26274e-05 0.0996906 
2.7688e-05 -6.24404e-05 0.0994051 
-5.80946e-06 2.50368e-05 0.0497496 
2.00884e-05 1.34031e-05 0.0997219 
4.07218e-05 3.08412e-05 0.0999026 
3.4004e-05 4.90207e-05 0.0999162 
-4.25119e-14 -1.00508e-13 9.93264e-11 
3.4004e-05 4.90207e-05 0.0999162 
1.66274e-05 2.8631e-05 0.0996962 
2.00884e-05 1.34031e-05 0.0997219 
-4.25119e-14 -1.00508e-13 9.93264e-11 
8.84049e-06 -2.65822e-05 0.0497499 
-1.16854e-06 -3.57773e-05 0.0497582 
-3.15693e-05 5.56619e-05 0.0994092 
-1.80177e-05 3.27343e-05 0.0996951 
-4.81035e-05 -2.4711e-05 0.0994534 
1.65394e-05 2.59847e-05 0.0497484 
1.12486e-05 1.15947e-05 0.0497167 
-1.93372e-05 -1.25182e-05 0.0997376 
3.58502e-15 -1.00007e-15 9.98792e-11 
-3.38167e-15 9.32939e-15 1.00138e-10 
-4.41431e-05 -5.08118e-06 0.0998697 
2.94478e-14 -1.90864e-15 1.00231e-10 
-2.80993e-05 -4.27404e-06 0.0497541 
2.60351e-05 3.02084e-05 0.0996995 
-2.13175e-13 -1.27377e-13 9.91712e-11 
-1.09809e-13 -3.20527e-14 9.91347e-11 
6.96214e-14 -7.17407e-15 1.00033e-10 
1.03205e-14 3.53759e-15 9.99384e-11 
5.54151e-05 1.87711e-07 0.0999804 
3.91016e-15 5.5728e-15 1.00046e-10 
3.4004e-05 4.90207e-05 0.0999162 
2.40704e-05 6.30622e-05 0.0998557 
1.66274e-05 2.8631e-05 0.0996962 
-4.22746e-14 -7.23757e-14 1.00064e-10 
8.49044e-06 3.37106e-05 0.0996727 
1.01356e-05 5.20172e-05 0.0999067 
1.85543e-06 3.15096e-05 0.0998219 
7.24462e-15 2.46363e-14 1.00303e-10 
-4.04487e-05 -1.98403e-05 0.0997295 
1.12486e-05 1.15947e-05 0.0497167 
-4.54472e-05 -4.4511e-05 0.0994697 
-4.32109e-05 -1.97336e-05 0.0997364 
7.24462e-15 2.46363e-14 1.00303e-10 
2.22118e-06 3.85654e-05 0.0999452 
-7.34016e-15 3.05353e-14 1.00374e-10 
-4.1497e-15 -3.32772e-14 9.98534e-11 
4.80048e-14 6.40149e-14 9.94959e-11 
-1.67321e-05 -2.50994e-05 0.0997157 
-3.11894e-05 -4.6494e-05 0.0999213 
-1.93372e-05 -1.25182e-05 0.0997376 
1.2456e-14 1.15981e-15 1.0009e-10 
1.32158e-14 -1.81027e-16 1.00071e-10 
3.91016e-15 5.5728e-15 1.00046e-10 
1.29182e-05 3.30709e-06 0.0441446 
1.31259e-13 -1.70284e-13 9.92453e-11 
1.61082e-13 -9.9211e-14 9.91473e-11 
-4.22245e-14 2.99316e-14 1.0014e-10 
-3.09281e-05 3.29925e-05 0.0998453 
-1.16854e-06 -3.57773e-05 0.0497582 
-1.12847e-15 1.64752e-14 1.0115e-10 
1.33584e-14 -1.74204e-13 9.88245e-11 
8.84049e-06 -2.65822e-05 0.0497499 
-2.80993e-05 -4.27404e-06 0.0497541 
2.60351e-05 3.02084e-05 0.0996995 
-1.8358e-05 -1.22391e-05 0.0497344 
-2.13175e-13 -1.27377e-13 9.91712e-11 
-7.14711e-06 -3.47554e-05 0.100051 
4.34401e-06 -4.13329e-05 0.100046 
-6.2081e-06 -4.67449e-05 0.100043 
-7.79829e-08 -1.42251e-05 0.042739 
4.63256e-14 1.111e-13 9.90575e-11 
-1.67321e-05 -2.50994e-05 0.0997157 
3.73184e-14 1.34069e-13 9.90716e-11 
-3.69569e-16 6.88371e-14 1.0017e-10 
5.44003e-05 1.83981e-05 0.0999154 
6.68348e-05 5.86874e-06 0.0998683 
6.75354e-05 1.07688e-05 0.0999743 
6.96214e-14 -7.17407e-15 1.00033e-10 
2.42034e-05 7.68226e-06 0.100055 
3.39295e-05 4.54892e-07 0.100049 
2.12594e-05 -7.44716e-06 0.100055 
1.29182e-05 3.30709e-06 0.0441446 
3.22432e-05 1.66052e-05 0.0996986 
6.68348e-05 5.86874e-06 0.0998683 
5.44003e-05 1.83981e-05 0.0999154 
-2.4093e-13 -5.18192e-15 9.8655e-11 
2.74067e-14 -4.32366e-14 1.00376e-10 
-2.56942e-14 9.5864e-15 9.98459e-11 
-2.53359e-14 6.01479e-14 1.004e-10 
9.15213e-06 -3.90423e-05 0.0998458 
-4.48517e-14 2.53872e-14 1.0007e-10 
-5.05469e-05 3.1268e-05 0.099934 
-4.6685e-05 2.01706e-05 0.0998478 
-6.03446e-05 2.69656e-05 0.0999712 
6.96214e-14 -7.17407e-15 1.00033e-10 
6.68348e-05 5.86874e-06 0.0998683 
6.75354e-05 1.07688e-05 0.0999743 
5.54151e-05 1.87711e-07 0.0999804 
2.48484e-05 5.73161e-06 0.0497309 
-4.54472e-05 -4.4511e-05 0.0994697 
1.12486e-05 1.15947e-05 0.0497167 
-4.32109e-05 -1.97336e-05 0.0997364 
1.22695e-05 1.95146e-05 0.0996311 
3.22432e-05 1.66052e-05 0.0996986 
4.93408e-05 2.06597e-05 0.0998533 
-1.09809e-13 -3.20527e-14 9.91347e-11 
2.42034e-05 7.68226e-06 0.100055 
1.12477e-05 1.12839e-05 0.100057 
1.81046e-05 1.97682e-05 0.100053 
5.79011e-06 5.82395e-06 0.0438467 
-2.80993e-05 -4.27404e-06 0.0497541 
-2.70348e-14 8.67388e-15 1.01223e-10 
-3.27931e-05 -1.77546e-06 0.0497296 
-8.99136e-14 2.78424e-14 9.93052e-11 
1.43704e-13 1.59844e-14 9.91815e-11 
-1.75227e-05 -1.27165e-05 0.0996616 
-3.38167e-15 9.32939e-15 1.00138e-10 
2.21216e-13 -1.59596e-14 9.84178e-11 
1.74347e-06 3.01473e-05 0.0497455 
2.62369e-14 -2.84769e-14 1.01226e-10 
-6.49698e-14 2.24098e-13 9.86873e-11 
-5.80946e-06 2.50368e-05 0.0497496 
-1.83496e-05 -2.33838e-05 0.0996842 
-2.82911e-14 1.61892e-13 9.87878e-11 
-9.14808e-06 -3.27901e-05 0.0998338 
-3.20611e-06 -1.55851e-05 0.0996728 
-1.67321e-05 -2.50994e-05 0.0997157 
1.35497e-05 2.31328e-05 0.0496793 
2.24762e-06 3.83007e-05 0.0497005 
-2.86777e-05 -5.59701e-05 0.0993943 
3.73184e-14 1.34069e-13 9.90716e-11 
-1.08259e-14 -1.47997e-14 1.01339e-10 
2.24762e-06 3.83007e-05 0.0497005 
4.63256e-14 1.111e-13 9.90575e-11 
5.44003e-05 1.83981e-05 0.0999154 
-1.50261e-14 8.49891e-15 9.99389e-11 
-2.18983e-14 -3.17452e-14 1.00163e-10 
6.96214e-14 -7.17407e-15 1.00033e-10 
-1.14938e-14 -1.51858e-14 9.99295e-11 
-4.22245e-14 2.99316e-14 1.0014e-10 
1.20093e-14 -2.00789e-15 9.99872e-11 
-4.1319e-05 3.94485e-05 0.099967 
-7.99092e-15 1.84356e-14 9.99278e-11 
2.64982e-05 -4.70564e-05 0.0999822 
2.61482e-05 -3.81491e-05 0.0998688 
2.92333e-05 -3.40165e-05 0.099858 
-6.16076e-06 2.1223e-06 0.0497314 
-3.24792e-06 -8.03112e-06 0.0486293 
-1.05306e-05 -1.09753e-05 0.100059 
-1.26546e-05 -2.02278e-06 0.0492153 
-4.48517e-14 2.53872e-14 1.0007e-10 
-4.22245e-14 2.99316e-14 1.0014e-10 
1.61082e-13 -9.9211e-14 9.91473e-11 
-5.05469e-05 3.1268e-05 0.099934 
-3.7894e-05 -8.1622e-07 0.0496422 
-1.81272e-13 -7.90914e-14 9.84557e-11 
-1.82536e-14 -4.33386e-17 1.01533e-10 
-3.84406e-05 3.15062e-07 0.0496692 
3.26229e-05 5.59097e-05 0.0994266 
1.66274e-05 2.8631e-05 0.0996962 
-5.38823e-06 -2.35206e-05 0.0497229 
-1.56262e-05 -2.47047e-05 0.0497781 
8.49044e-06 3.37106e-05 0.0996727 
-1.94651e-14 -2.24431e-13 9.83124e-11 
-1.22774e-14 -1.8363e-13 9.91431e-11 
7.24462e-15 2.46363e-14 1.00303e-10 
-1.32323e-13 1.27772e-13 9.89097e-11 
-4.49752e-14 2.33003e-14 1.00211e-10 
1.82823e-05 -2.44826e-05 0.0996838 
-5.76453e-14 8.63802e-14 9.89752e-11 
1.66274e-05 2.8631e-05 0.0996962 
3.26229e-05 5.59097e-05 0.0994266 
2.00884e-05 1.34031e-05 0.0997219 
-1.56262e-05 -2.47047e-05 0.0497781 
3.22432e-05 1.66052e-05 0.0996986 
-2.18983e-14 -3.17452e-14 1.00163e-10 
-8.99136e-14 2.78424e-14 9.93052e-11 
-2.4093e-13 -5.18192e-15 9.8655e-11 
-4.93347e-15 2.78394e-14 1.00009e-10 
-4.25119e-14 -1.00508e-13 9.93264e-11 
4.07218e-05 3.08412e-05 0.0999026 
4.69002e-14 3.47452e-14 1.00142e-10 
-3.20611e-06 -1.55851e-05 0.0996728 
-2.82911e-14 1.61892e-13 9.87878e-11 
-2.53359e-14 6.01479e-14 1.004e-10 
6.13684e-14 1.54122e-13 9.83801e-11 
2.5542e-05 -3.21784e-05 0.0997541 
3.66889e-05 -2.47289e-05 0.099731 
5.18791e-05 -3.71255e-05 0.099447 
-2.05397e-05 1.05369e-05 0.0497157 
1.12486e-05 1.15947e-05 0.0497167 
1.33705e-13 1.62128e-13 9.87225e-11 
-4.15581e-14 -3.64937e-14 1.01553e-10 
2.48484e-05 5.73161e-06 0.0497309 
2.82143e-06 -2.87493e-05 0.100054 
-9.02739e-06 -2.23435e-05 0.100056 
-2.63817e-07 -1.56048e-05 0.100058 
-3.24792e-06 -8.03112e-06 0.0486293 
3.73184e-14 1.34069e-13 9.90716e-11 
-4.52905e-06 5.09918e-05 0.0496652 
-1.99199e-14 3.37393e-16 1.01299e-10 
-2.82911e-14 1.61892e-13 9.87878e-11 
-4.52905e-06 5.09918e-05 0.0496652 
-1.99199e-14 3.37393e-16 1.01299e-10 
2.24762e-06 3.83007e-05 0.0497005 
3.73184e-14 1.34069e-13 9.90716e-11 
-1.95523e-14 1.01395e-13 9.92873e-11 
-7.99092e-15 1.84356e-14 9.99278e-11 
2.61482e-05 -3.81491e-05 0.0998688 
2.92333e-05 -3.40165e-05 0.099858 
-1.7716e-06 -4.07097e-06 0.10006 
-2.63817e-07 -1.56048e-05 0.100058 
-1.05306e-05 -1.09753e-05 0.100059 
-3.24792e-06 -8.03112e-06 0.0486293 
2.00884e-05 1.34031e-05 0.0997219 
-1.56262e-05 -2.47047e-05 0.0497781 
-2.13175e-13 -1.27377e-13 9.91712e-11 
-4.25119e-14 -1.00508e-13 9.93264e-11 
9.6062e-14 -3.64827e-14 9.93329e-11 
-1.16305e-05 1.19241e-05 0.0996345 
-2.93425e-05 1.29084e-05 0.0997196 
-4.6685e-05 2.01706e-05 0.0998478 
3.87019e-06 -4.29402e-05 0.0496621 
1.51844e-05 4.87235e-05 0.0993034 
8.78564e-06 1.69935e-05 0.0996257 
-1.47066e-06 -3.52748e-05 0.0496919 
1.35497e-05 2.31328e-05 0.0496793 
2.24762e-06 3.83007e-05 0.0497005 
-1.08259e-14 -1.47997e-14 1.01339e-10 
4.63256e-14 1.111e-13 9.90575e-11 
2.24762e-06 3.83007e-05 0.0497005 
-1.67321e-05 -2.50994e-05 0.0997157 
-2.86777e-05 -5.59701e-05 0.0993943 
-1.83496e-05 -2.33838e-05 0.0996842 
-7.34016e-15 3.05353e-14 1.00374e-10 
5.28724e-14 -1.05075e-13 9.92899e-11 
-1.14938e-14 -1.51858e-14 9.99295e-11 
-2.42004e-05 3.37462e-05 0.0998812 
-4.21559e-15 -2.43751e-14 1.00017e-10 
-2.73231e-05 -6.16719e-05 0.0999002 
-3.11894e-05 -4.6494e-05 0.0999213 
-3.69569e-16 6.88371e-14 1.0017e-10 
4.80048e-14 6.40149e-14 9.94959e-11 
4.63256e-14 1.111e-13 9.90575e-11 
-1.67321e-05 -2.50994e-05 0.0997157 
-1.93372e-05 -1.25182e-05 0.0997376 
8.78564e-06 1.69935e-05 0.0996257 
2.40704e-05 6.30622e-05 0.0998557 
8.49044e-06 3.37106e-05 0.0996727 
-1.22774e-14 -1.8363e-13 9.91431e-11 
-4.21559e-15 -2.43751e-14 1.00017e-10 
4.80048e-14 6.40149e-14 9.94959e-11 
-3.11894e-05 -4.6494e-05 0.0999213 
-2.13064e-14 1.20842e-14 9.99287e-11 
1.01356e-05 5.20172e-05 0.0999067 
7.24462e-15 2.46363e-14 1.00303e-10 
1.93684e-14 4.61972e-14 9.99896e-11 
-4.1497e-15 -3.32772e-14 9.98534e-11 
-1.7716e-06 -4.07097e-06 0.10006 
-6.16076e-06 2.1223e-06 0.0497314 
7.06615e-07 -8.90303e-07 0.042266 
-3.24792e-06 -8.03112e-06 0.0486293 
-1.93372e-05 -1.25182e-05 0.0997376 
4.80048e-14 6.40149e-14 9.94959e-11 
1.33705e-13 1.62128e-13 9.87225e-11 
-4.04487e-05 -1.98403e-05 0.0997295 
-1.32454e-05 3.75386e-05 0.0997356 
8.84049e-06 -2.65822e-05 0.0497499 
-3.15693e-05 5.56619e-05 0.0994092 
-1.80177e-05 3.27343e-05 0.0996951 
2.12594e-05 -7.44716e-06 0.100055 
3.00055e-05 -9.69449e-06 0.100052 
2.60305e-05 -2.07289e-05 0.100052 
6.6845e-06 -4.96604e-06 0.0451146 
5.01193e-14 -2.05174e-14 1.00024e-10 
9.6062e-14 -3.64827e-14 9.93329e-11 
1.73798e-13 -8.21038e-15 9.90431e-11 
-2.93425e-05 1.29084e-05 0.0997196 
1.99166e-05 -1.45374e-05 0.0497707 
-2.64123e-14 -4.40119e-15 1.01054e-10 
1.61082e-13 -9.9211e-14 9.91473e-11 
2.81748e-05 -1.02932e-05 0.0497687 
-2.18983e-14 -3.17452e-14 1.00163e-10 
4.93408e-05 2.06597e-05 0.0998533 
3.22432e-05 1.66052e-05 0.0996986 
-1.09809e-13 -3.20527e-14 9.91347e-11 
-1.19492e-14 -4.48993e-16 1.00054e-10 
-1.13333e-14 -4.43145e-15 1.00036e-10 
-1.03997e-14 2.06657e-16 1.00061e-10 
-1.64282e-05 -4.86123e-06 0.048807 
-5.6851e-05 2.21249e-05 0.0993001 
5.25902e-05 4.55259e-06 0.0496468 
4.30101e-05 -4.0636e-06 0.0496601 
-2.93425e-05 1.29084e-05 0.0997196 
-1.09809e-13 -3.20527e-14 9.91347e-11 
3.22432e-05 1.66052e-05 0.0996986 
-2.18983e-14 -3.17452e-14 1.00163e-10 
-8.99136e-14 2.78424e-14 9.93052e-11 
2.48484e-05 5.73161e-06 0.0497309 
1.33705e-13 1.62128e-13 9.87225e-11 
-4.15581e-14 -3.64937e-14 1.01553e-10 
1.209e-13 8.08057e-14 9.88263e-11 
5.28136e-06 -5.4799e-05 0.100032 
6.86288e-06 -1.25699e-05 0.0419077 
8.03027e-15 -3.81591e-15 1.00108e-10 
-7.79829e-08 -1.42251e-05 0.042739 
1.01356e-05 5.20172e-05 0.0999067 
2.40704e-05 6.30622e-05 0.0998557 
2.00214e-05 6.22632e-05 0.0999638 
1.93684e-14 4.61972e-14 9.99896e-11 
-2.4093e-13 -5.18192e-15 9.8655e-11 
2.43334e-05 -8.1768e-06 0.0996381 
6.68348e-05 5.86874e-06 0.0998683 
-8.3941e-14 5.45272e-14 1.00435e-10 
-1.95523e-14 1.01395e-13 9.92873e-11 
-7.99092e-15 1.84356e-14 9.99278e-11 
2.74067e-14 -4.32366e-14 1.00376e-10 
2.61482e-05 -3.81491e-05 0.0998688 
4.30101e-05 -4.0636e-06 0.0496601 
9.6062e-14 -3.64827e-14 9.93329e-11 
-5.29329e-15 2.07018e-14 1.00995e-10 
2.81748e-05 -1.02932e-05 0.0497687 
3.22432e-05 1.66052e-05 0.0996986 
7.51463e-06 5.33769e-06 0.0995691 
6.68348e-05 5.86874e-06 0.0998683 
-2.4093e-13 -5.18192e-15 9.8655e-11 
-3.84406e-05 3.15062e-07 0.0496692 
-2.45792e-13 7.56687e-14 9.92453e-11 
3.9014e-14 -2.13088e-14 1.00941e-10 
-2.74869e-05 6.00675e-06 0.0497077 
-4.21559e-15 -2.43751e-14 1.00017e-10 
-1.03997e-14 2.06657e-16 1.00061e-10 
-2.13064e-14 1.20842e-14 9.99287e-11 
-4.10081e-05 -4.21213e-05 0.0999941 
-1.75227e-05 -1.27165e-05 0.0996616 
-3.62094e-05 -2.04487e-05 0.0997118 
3.64098e-05 -4.38168e-06 0.0496378 
1.43704e-13 1.59844e-14 9.91815e-11 
-2.74869e-05 6.00675e-06 0.0497077 
-2.45792e-13 7.56687e-14 9.92453e-11 
4.1358e-14 -2.67502e-14 1.01418e-10 
-2.05397e-05 1.05369e-05 0.0497157 
-3.7894e-05 -8.1622e-07 0.0496422 
6.09116e-05 -1.2572e-05 0.0993208 
3.34416e-05 -1.79446e-05 0.0997097 
-3.84406e-05 3.15062e-07 0.0496692 
2.56339e-14 3.31272e-14 1.01021e-10 
-1.8358e-05 -1.22391e-05 0.0497344 
-1.56262e-05 -2.47047e-05 0.0497781 
-2.13175e-13 -1.27377e-13 9.91712e-11 
-3.69569e-16 6.88371e-14 1.0017e-10 
-4.21559e-15 -2.43751e-14 1.00017e-10 
-2.73231e-05 -6.16719e-05 0.0999002 
1.07056e-14 5.51363e-15 9.99775e-11 
7.51463e-06 5.33769e-06 0.0995691 
3.22432e-05 1.66052e-05 0.0996986 
5.94503e-05 2.75417e-05 0.0993018 
-4.71561e-05 9.26053e-07 0.0496718 
2.5542e-05 -3.21784e-05 0.0997541 
1.82823e-05 -2.44826e-05 0.0996838 
-4.49752e-14 2.33003e-14 1.00211e-10 
-5.76453e-14 8.63802e-14 9.89752e-11 
8.49044e-06 3.37106e-05 0.0996727 
1.51844e-05 4.87235e-05 0.0993034 
8.78564e-06 1.69935e-05 0.0996257 
3.87019e-06 -4.29402e-05 0.0496621 
2.42034e-05 7.68226e-06 0.100055 
5.79011e-06 5.82395e-06 0.0438467 
2.72112e-05 1.86924e-05 0.100053 
1.29182e-05 3.30709e-06 0.0441446 
6.68348e-05 5.86874e-06 0.0998683 
7.51463e-06 5.33769e-06 0.0995691 
2.43334e-05 -8.1768e-06 0.0996381 
-2.4093e-13 -5.18192e-15 9.8655e-11 
-2.70348e-14 8.67388e-15 1.01223e-10 
-2.80993e-05 -4.27404e-06 0.0497541 
-1.09809e-13 -3.20527e-14 9.91347e-11 
-8.99136e-14 2.78424e-14 9.93052e-11 
-1.93372e-05 -1.25182e-05 0.0997376 
-3.11894e-05 -4.6494e-05 0.0999213 
4.80048e-14 6.40149e-14 9.94959e-11 
-3.50716e-05 -2.88763e-05 0.0999037 
-9.09223e-06 6.55199e-06 0.099644 
-4.41431e-05 -5.08118e-06 0.0998697 
2.94478e-14 -1.90864e-15 1.00231e-10 
-4.53201e-05 8.48944e-06 0.0998868 
-1.09657e-13 3.88004e-15 9.91894e-11 
1.03205e-14 3.53759e-15 9.99384e-11 
6.47688e-14 -1.18551e-14 1.00173e-10 
4.83184e-05 -1.35016e-05 0.0999022 
4.07218e-05 3.08412e-05 0.0999026 
4.93408e-05 2.06597e-05 0.0998533 
5.26181e-05 3.07291e-05 0.0999722 
4.69002e-14 3.47452e-14 1.00142e-10 
-8.05101e-06 2.79562e-05 0.0996153 
-2.90284e-05 5.86642e-05 0.099313 
-7.2269e-06 -4.35745e-05 0.0496755 
-1.80177e-05 3.27343e-05 0.0996951 
6.09116e-05 -1.2572e-05 0.0993208 
3.34416e-05 -1.79446e-05 0.0997097 
2.43334e-05 -8.1768e-06 0.0996381 
-3.7894e-05 -8.1622e-07 0.0496422 
4.93408e-05 2.06597e-05 0.0998533 
3.22432e-05 1.66052e-05 0.0996986 
5.44003e-05 1.83981e-05 0.0999154 
-2.18983e-14 -3.17452e-14 1.00163e-10 
9.15213e-06 -3.90423e-05 0.0998458 
2.74067e-14 -4.32366e-14 1.00376e-10 
1.72913e-05 -4.87396e-05 0.0999604 
2.61482e-05 -3.81491e-05 0.0998688 
3.83034e-05 4.32617e-05 0.0999912 
1.14499e-14 4.89949e-15 1.00015e-10 
-4.93347e-15 2.78394e-14 1.00009e-10 
4.69002e-14 3.47452e-14 1.00142e-10 
1.2948e-05 -4.26274e-05 0.0996906 
2.74067e-14 -4.32366e-14 1.00376e-10 
9.15213e-06 -3.90423e-05 0.0998458 
2.61482e-05 -3.81491e-05 0.0998688 
2.62369e-14 -2.84769e-14 1.01226e-10 
-1.95523e-14 1.01395e-13 9.92873e-11 
-6.49698e-14 2.24098e-13 9.86873e-11 
-5.80946e-06 2.50368e-05 0.0497496 
1.31259e-13 -1.70284e-13 9.92453e-11 
5.28724e-14 -1.05075e-13 9.92899e-11 
-4.13486e-14 2.81772e-14 1.01086e-10 
8.84049e-06 -2.65822e-05 0.0497499 
-1.16305e-05 1.19241e-05 0.0996345 
1.99166e-05 -1.45374e-05 0.0497707 
-2.93616e-05 3.27868e-05 0.0994386 
-3.68981e-05 2.03293e-05 0.0997327 
-2.18983e-14 -3.17452e-14 1.00163e-10 
-1.50261e-14 8.49891e-15 9.99389e-11 
5.26181e-05 3.07291e-05 0.0999722 
4.69002e-14 3.47452e-14 1.00142e-10 
-4.25119e-14 -1.00508e-13 9.93264e-11 
-2.13175e-13 -1.27377e-13 9.91712e-11 
4.07218e-05 3.08412e-05 0.0999026 
4.69002e-14 3.47452e-14 1.00142e-10 
-8.3941e-14 5.45272e-14 1.00435e-10 
2.43334e-05 -8.1768e-06 0.0996381 
6.68348e-05 5.86874e-06 0.0998683 
5.28329e-05 -8.39764e-06 0.0998817 
2.92333e-05 -3.40165e-05 0.099858 
-1.95523e-14 1.01395e-13 9.92873e-11 
-4.49752e-14 2.33003e-14 1.00211e-10 
-1.32323e-13 1.27772e-13 9.89097e-11 
2.81748e-05 -1.02932e-05 0.0497687 
1.99166e-05 -1.45374e-05 0.0497707 
-2.93616e-05 3.27868e-05 0.0994386 
-1.16305e-05 1.19241e-05 0.0996345 
4.07218e-05 3.08412e-05 0.0999026 
5.26181e-05 3.07291e-05 0.0999722 
3.83034e-05 4.32617e-05 0.0999912 
4.69002e-14 3.47452e-14 1.00142e-10 
-2.93425e-05 1.29084e-05 0.0997196 
-5.6851e-05 2.21249e-05 0.0993001 
5.25902e-05 4.55259e-06 0.0496468 
-9.09223e-06 6.55199e-06 0.099644 
3.64098e-05 -4.38168e-06 0.0496378 
-3.62094e-05 -2.04487e-05 0.0997118 
-5.8719e-05 -3.32163e-05 0.0994073 
2.48484e-05 5.73161e-06 0.0497309 
2.48484e-05 5.73161e-06 0.0497309 
6.50973e-16 -3.68787e-14 1.01181e-10 
3.64098e-05 -4.38168e-06 0.0496378 
1.43704e-13 1.59844e-14 9.91815e-11 
2.17741e-14 -1.66107e-14 1.01412e-10 
-5.80946e-06 2.50368e-05 0.0497496 
-7.81836e-06 1.54922e-05 0.0497067 
-1.32323e-13 1.27772e-13 9.89097e-11 
-9.02739e-06 -2.23435e-05 0.100056 
-3.24792e-06 -8.03112e-06 0.0486293 
2.82143e-06 -2.87493e-05 0.100054 
-7.79829e-08 -1.42251e-05 0.042739 
1.93684e-14 4.61972e-14 9.99896e-11 
-1.22774e-14 -1.8363e-13 9.91431e-11 
2.40704e-05 6.30622e-05 0.0998557 
-4.22746e-14 -7.23757e-14 1.00064e-10 
1.54212e-05 -3.3144e-05 0.100052 
6.6845e-06 -4.96604e-06 0.0451146 
6.86288e-06 -1.25699e-05 0.0419077 
-7.79829e-08 -1.42251e-05 0.042739 
2.5542e-05 -3.21784e-05 0.0997541 
3.75629e-05 -4.14227e-05 0.0999405 
-4.49752e-14 2.33003e-14 1.00211e-10 
2.92333e-05 -3.40165e-05 0.099858 
2.82143e-06 -2.87493e-05 0.100054 
1.54212e-05 -3.3144e-05 0.100052 
4.34401e-06 -4.13329e-05 0.100046 
-7.79829e-08 -1.42251e-05 0.042739 
5.62681e-17 -2.48705e-14 1.00032e-10 
8.03027e-15 -3.81591e-15 1.00108e-10 
-9.7553e-15 -5.96936e-15 1.00065e-10 
-7.79829e-08 -1.42251e-05 0.042739 
-4.49752e-14 2.33003e-14 1.00211e-10 
1.82823e-05 -2.44826e-05 0.0996838 
2.5542e-05 -3.21784e-05 0.0997541 
2.92333e-05 -3.40165e-05 0.099858 
-1.8358e-05 -1.22391e-05 0.0497344 
2.00884e-05 1.34031e-05 0.0997219 
4.43e-05 3.0154e-05 0.099453 
-1.56262e-05 -2.47047e-05 0.0497781 
4.80048e-14 6.40149e-14 9.94959e-11 
-2.13064e-14 1.20842e-14 9.99287e-11 
1.97502e-14 -6.55476e-14 1.00495e-10 
-3.50716e-05 -2.88763e-05 0.0999037 
-2.05397e-05 1.05369e-05 0.0497157 
-2.45792e-13 7.56687e-14 9.92453e-11 
4.1358e-14 -2.67502e-14 1.01418e-10 
-5.76453e-14 8.63802e-14 9.89752e-11 
6.13684e-14 1.54122e-13 9.83801e-11 
2.74067e-14 -4.32366e-14 1.00376e-10 
-2.53359e-14 6.01479e-14 1.004e-10 
9.15213e-06 -3.90423e-05 0.0998458 
-1.8358e-05 -1.22391e-05 0.0497344 
5.42673e-14 2.16331e-14 1.01297e-10 
-2.80993e-05 -4.27404e-06 0.0497541 
-2.13175e-13 -1.27377e-13 9.91712e-11 
-4.46115e-14 5.88351e-14 1.01349e-10 
1.31259e-13 -1.70284e-13 9.92453e-11 
1.21264e-05 -1.66583e-05 0.049745 
1.99166e-05 -1.45374e-05 0.0497707 
-2.90284e-05 5.86642e-05 0.099313 
-1.16854e-06 -3.57773e-05 0.0497582 
-7.2269e-06 -4.35745e-05 0.0496755 
-1.80177e-05 3.27343e-05 0.0996951 
-4.22746e-14 -7.23757e-14 1.00064e-10 
-4.25119e-14 -1.00508e-13 9.93264e-11 
3.4004e-05 4.90207e-05 0.0999162 
-4.93347e-15 2.78394e-14 1.00009e-10 
-1.09657e-13 3.88004e-15 9.91894e-11 
-8.3941e-14 5.45272e-14 1.00435e-10 
1.03205e-14 3.53759e-15 9.99384e-11 
5.28329e-05 -8.39764e-06 0.0998817 
-9.02739e-06 -2.23435e-05 0.100056 
-3.24792e-06 -8.03112e-06 0.0486293 
-7.79829e-08 -1.42251e-05 0.042739 
-1.0664e-05 -1.1906e-05 0.0542056 
-1.09809e-13 -3.20527e-14 9.91347e-11 
-2.18983e-14 -3.17452e-14 1.00163e-10 
4.93408e-05 2.06597e-05 0.0998533 
4.69002e-14 3.47452e-14 1.00142e-10 
-5.38823e-06 -2.35206e-05 0.0497229 
-1.47066e-06 -3.52748e-05 0.0496919 
-8.5813e-15 1.67556e-14 1.0139e-10 
-3.62927e-14 -9.28586e-14 9.89718e-11 
1.31491e-14 -3.38272e-14 1.01753e-10 
-7.81836e-06 1.54922e-05 0.0497067 
-2.05397e-05 1.05369e-05 0.0497157 
-1.32323e-13 1.27772e-13 9.89097e-11 
-3.27931e-05 -1.77546e-06 0.0497296 
1.22695e-05 1.95146e-05 0.0996311 
4.36038e-05 1.97496e-05 0.0993876 
-2.80993e-05 -4.27404e-06 0.0497541 
5.95926e-06 -1.57217e-05 0.0995966 
2.84555e-05 -3.35713e-05 0.0993456 
2.9106e-06 4.29415e-05 0.0497165 
1.74347e-06 3.01473e-05 0.0497455 
2.61482e-05 -3.81491e-05 0.0998688 
1.29394e-05 -3.06464e-05 0.0996941 
-1.95523e-14 1.01395e-13 9.92873e-11 
2.92333e-05 -3.40165e-05 0.099858 
2.48484e-05 5.73161e-06 0.0497309 
-3.62094e-05 -2.04487e-05 0.0997118 
-5.8719e-05 -3.32163e-05 0.0994073 
-4.32109e-05 -1.97336e-05 0.0997364 
-2.64123e-14 -4.40119e-15 1.01054e-10 
9.6062e-14 -3.64827e-14 9.93329e-11 
1.61082e-13 -9.9211e-14 9.91473e-11 
2.81748e-05 -1.02932e-05 0.0497687 
-8.05101e-06 2.79562e-05 0.0996153 
-2.41495e-06 -4.36617e-05 0.0496319 
8.62244e-07 6.50106e-05 0.0992098 
8.49044e-06 3.37106e-05 0.0996727 
5.01193e-14 -2.05174e-14 1.00024e-10 
2.94478e-14 -1.90864e-15 1.00231e-10 
-5.20386e-15 -4.54326e-17 9.9919e-11 
-4.53201e-05 8.48944e-06 0.0998868 
-2.42514e-05 2.85041e-05 0.0996595 
-4.01072e-05 3.93274e-05 0.099455 
1.99166e-05 -1.45374e-05 0.0497707 
-3.68981e-05 2.03293e-05 0.0997327 
8.84049e-06 -2.65822e-05 0.0497499 
-3.32263e-05 4.86029e-05 0.0994415 
1.21264e-05 -1.66583e-05 0.049745 
-2.42514e-05 2.85041e-05 0.0996595 
1.99166e-05 -1.45374e-05 0.0497707 
1.21264e-05 -1.66583e-05 0.049745 
-4.01072e-05 3.93274e-05 0.099455 
-2.42514e-05 2.85041e-05 0.0996595 
-4.14534e-05 2.0604e-05 0.0993809 
4.30101e-05 -4.0636e-06 0.0496601 
2.81748e-05 -1.02932e-05 0.0497687 
-1.16305e-05 1.19241e-05 0.0996345 
-2.05397e-05 1.05369e-05 0.0497157 
1.82823e-05 -2.44826e-05 0.0996838 
2.5542e-05 -3.21784e-05 0.0997541 
-5.76453e-14 8.63802e-14 9.89752e-11 
-2.82911e-14 1.61892e-13 9.87878e-11 
-1.59438e-06 5.2946e-05 0.0496482 
6.52437e-15 -7.93415e-15 1.02988e-10 
6.13684e-14 1.54122e-13 9.83801e-11 
6.50973e-16 -3.68787e-14 1.01181e-10 
2.48484e-05 5.73161e-06 0.0497309 
1.209e-13 8.08057e-14 9.88263e-11 
1.43704e-13 1.59844e-14 9.91815e-11 
-1.12847e-15 1.64752e-14 1.0115e-10 
5.28724e-14 -1.05075e-13 9.92899e-11 
1.33584e-14 -1.74204e-13 9.88245e-11 
8.84049e-06 -2.65822e-05 0.0497499 
-1.91968e-05 2.78376e-05 0.100051 
-2.89866e-05 2.38834e-05 0.100048 
-2.47137e-05 3.8935e-05 0.10004 
-7.83724e-06 8.35936e-06 0.0422734 
-1.32323e-13 1.27772e-13 9.89097e-11 
-2.05397e-05 1.05369e-05 0.0497157 
1.31491e-14 -3.38272e-14 1.01753e-10 
-5.76453e-14 8.63802e-14 9.89752e-11 
4.56621e-05 3.1971e-06 0.100042 
3.39295e-05 4.54892e-07 0.100049 
3.71413e-05 1.30871e-05 0.100046 
1.29182e-05 3.30709e-06 0.0441446 
-1.56262e-05 -2.47047e-05 0.0497781 
-5.38823e-06 -2.35206e-05 0.0497229 
-5.44325e-16 -1.00679e-14 1.01355e-10 
-3.62927e-14 -9.28586e-14 9.89718e-11 
4.88867e-14 4.05381e-14 1.03047e-10 
-4.60925e-05 6.56188e-07 0.0496463 
-2.4093e-13 -5.18192e-15 9.8655e-11 
-1.81272e-13 -7.90914e-14 9.84557e-11 
5.01193e-14 -2.05174e-14 1.00024e-10 
-4.48517e-14 2.53872e-14 1.0007e-10 
9.6062e-14 -3.64827e-14 9.93329e-11 
-4.6685e-05 2.01706e-05 0.0998478 
-1.16305e-05 1.19241e-05 0.0996345 
-4.14534e-05 2.0604e-05 0.0993809 
4.30101e-05 -4.0636e-06 0.0496601 
-2.93425e-05 1.29084e-05 0.0997196 
2.92333e-05 -3.40165e-05 0.099858 
-4.49752e-14 2.33003e-14 1.00211e-10 
1.82823e-05 -2.44826e-05 0.0996838 
-1.32323e-13 1.27772e-13 9.89097e-11 
-3.32413e-05 -3.38461e-07 0.100054 
-2.76725e-05 1.11363e-05 0.100056 
-2.44229e-05 -3.80804e-08 0.100056 
-1.26546e-05 -2.02278e-06 0.0492153 
-3.27931e-05 -1.77546e-06 0.0497296 
5.94503e-05 2.75417e-05 0.0993018 
3.22432e-05 1.66052e-05 0.0996986 
-4.71561e-05 9.26053e-07 0.0496718 
-4.71561e-05 9.26053e-07 0.0496718 
-3.27931e-05 -1.77546e-06 0.0497296 
1.68345e-14 -1.25721e-14 1.0124e-10 
-8.99136e-14 2.78424e-14 9.93052e-11 
1.81046e-05 1.97682e-05 0.100053 
1.12477e-05 1.12839e-05 0.100057 
8.51397e-06 2.01482e-05 0.100056 
5.79011e-06 5.82395e-06 0.0438467 
1.29394e-05 -3.06464e-05 0.0996941 
-5.80946e-06 2.50368e-05 0.0497496 
-7.81836e-06 1.54922e-05 0.0497067 
3.77479e-05 -3.7668e-05 0.09946 
-1.95523e-14 1.01395e-13 9.92873e-11 
-4.49752e-14 2.33003e-14 1.00211e-10 
-7.99092e-15 1.84356e-14 9.99278e-11 
2.92333e-05 -3.40165e-05 0.099858 
6.47688e-14 -1.18551e-14 1.00173e-10 
3.75629e-05 -4.14227e-05 0.0999405 
1.27592e-15 -2.15176e-14 9.99158e-11 
-4.49752e-14 2.33003e-14 1.00211e-10 
-4.27965e-05 -3.45967e-05 0.0993173 
-1.75227e-05 -1.27165e-05 0.0996616 
3.64098e-05 -4.38168e-06 0.0496378 
4.98407e-05 -5.16666e-06 0.0496913 
1.43704e-13 1.59844e-14 9.91815e-11 
-1.92926e-14 9.47497e-15 1.01586e-10 
4.98407e-05 -5.16666e-06 0.0496913 
2.21216e-13 -1.59596e-14 9.84178e-11 
9.6062e-14 -3.64827e-14 9.93329e-11 
-5.29329e-15 2.07018e-14 1.00995e-10 
1.73798e-13 -8.21038e-15 9.90431e-11 
4.30101e-05 -4.0636e-06 0.0496601 
1.83156e-05 4.10816e-05 0.100047 
1.28013e-05 3.08063e-05 0.100052 
4.21492e-06 3.80124e-05 0.100047 
2.59561e-06 1.31476e-05 0.0479705 
2.00884e-05 1.34031e-05 0.0997219 
4.43e-05 3.0154e-05 0.099453 
2.60351e-05 3.02084e-05 0.0996995 
-1.8358e-05 -1.22391e-05 0.0497344 
-4.21559e-15 -2.43751e-14 1.00017e-10 
-3.11894e-05 -4.6494e-05 0.0999213 
4.80048e-14 6.40149e-14 9.94959e-11 
-3.69569e-16 6.88371e-14 1.0017e-10 
2.84555e-05 -3.35713e-05 0.0993456 
5.95926e-06 -1.57217e-05 0.0995966 
1.2948e-05 -4.26274e-05 0.0996906 
1.74347e-06 3.01473e-05 0.0497455 
-5.80946e-06 2.50368e-05 0.0497496 
2.17741e-14 -1.66107e-14 1.01412e-10 
-1.95523e-14 1.01395e-13 9.92873e-11 
-1.32323e-13 1.27772e-13 9.89097e-11 
-4.58566e-05 -1.82272e-05 0.100034 
-3.75463e-05 -1.34821e-05 0.100053 
-3.19851e-05 -2.71852e-05 0.100048 
-1.64282e-05 -4.86123e-06 0.048807 
6.99016e-15 -3.08914e-14 1.01113e-10 
1.33705e-13 1.62128e-13 9.87225e-11 
1.12486e-05 1.15947e-05 0.0497167 
1.65394e-05 2.59847e-05 0.0497484 
-2.76725e-05 1.11363e-05 0.100056 
-2.89866e-05 2.38834e-05 0.100048 
-1.97289e-05 1.78933e-05 0.100056 
-7.83724e-06 8.35936e-06 0.0422734 
1.28013e-05 3.08063e-05 0.100052 
8.51397e-06 2.01482e-05 0.100056 
2.04377e-06 2.70331e-05 0.100055 
2.59561e-06 1.31476e-05 0.0479705 
-1.90366e-15 5.71259e-15 1.00062e-10 
1.32959e-14 2.16956e-14 1.00094e-10 
-2.16191e-14 -5.6382e-15 1.0009e-10 
-7.83724e-06 8.35936e-06 0.0422734 
-3.32263e-05 4.86029e-05 0.0994415 
8.84049e-06 -2.65822e-05 0.0497499 
-1.32454e-05 3.75386e-05 0.0997356 
-2.42514e-05 2.85041e-05 0.0996595 
-1.02752e-14 2.80217e-14 1.01015e-10 
1.65394e-05 2.59847e-05 0.0497484 
1.35497e-05 2.31328e-05 0.0496793 
4.63256e-14 1.111e-13 9.90575e-11 
-2.48284e-05 -9.27827e-06 0.100057 
-1.26546e-05 -2.02278e-06 0.0492153 
-3.24792e-06 -8.03112e-06 0.0486293 
-1.0664e-05 -1.1906e-05 0.0542056 
-7.81836e-06 1.54922e-05 0.0497067 
1.82823e-05 -2.44826e-05 0.0996838 
1.29394e-05 -3.06464e-05 0.0996941 
3.77479e-05 -3.7668e-05 0.09946 
1.68345e-14 -1.25721e-14 1.0124e-10 
-4.71561e-05 9.26053e-07 0.0496718 
-8.99136e-14 2.78424e-14 9.93052e-11 
-2.4093e-13 -5.18192e-15 9.8655e-11 
-1.47066e-06 -3.52748e-05 0.0496919 
2.98249e-05 3.3154e-05 0.0994139 
8.78564e-06 1.69935e-05 0.0996257 
-5.38823e-06 -2.35206e-05 0.0497229 
2.9106e-06 4.29415e-05 0.0497165 
-9.60727e-15 -3.08225e-14 1.02061e-10 
-6.49698e-14 2.24098e-13 9.86873e-11 
1.74347e-06 3.01473e-05 0.0497455 
1.76213e-15 -7.52097e-15 1.00075e-10 
1.32959e-14 2.16956e-14 1.00094e-10 
-4.3652e-15 1.63767e-14 1.00062e-10 
2.59561e-06 1.31476e-05 0.0479705 
-3.20611e-06 -1.55851e-05 0.0996728 
-8.07286e-06 -5.53572e-05 0.0992049 
-1.59438e-06 5.2946e-05 0.0496482 
5.95926e-06 -1.57217e-05 0.0995966 
5.42673e-14 2.16331e-14 1.01297e-10 
-2.80993e-05 -4.27404e-06 0.0497541 
-2.13175e-13 -1.27377e-13 9.91712e-11 
-1.09809e-13 -3.20527e-14 9.91347e-11 
4.98407e-05 -5.16666e-06 0.0496913 
3.64098e-05 -4.38168e-06 0.0496378 
-1.92926e-14 9.47497e-15 1.01586e-10 
1.43704e-13 1.59844e-14 9.91815e-11 
4.88867e-14 4.05381e-14 1.03047e-10 
-4.60925e-05 6.56188e-07 0.0496463 
-4.71561e-05 9.26053e-07 0.0496718 
-2.4093e-13 -5.18192e-15 9.8655e-11 
7.06615e-07 -8.90303e-07 0.042266 
-3.24792e-06 -8.03112e-06 0.0486293 
6.79104e-15 -1.57266e-14 1.00047e-10 
6.6845e-06 -4.96604e-06 0.0451146 
1.73798e-13 -8.21038e-15 9.90431e-11 
3.75826e-15 2.8614e-14 1.01717e-10 
1.19414e-13 1.42617e-15 9.83977e-11 
5.25902e-05 4.55259e-06 0.0496468 
-3.62927e-14 -9.28586e-14 9.89718e-11 
-1.47066e-06 -3.52748e-05 0.0496919 
-8.5813e-15 1.67556e-14 1.0139e-10 
-1.22774e-14 -1.8363e-13 9.91431e-11 
-9.7553e-15 -5.96936e-15 1.00065e-10 
-1.19492e-14 -4.48993e-16 1.00054e-10 
-1.03997e-14 2.06657e-16 1.00061e-10 
-1.0664e-05 -1.1906e-05 0.0542056 
-1.75227e-05 -1.27165e-05 0.0996616 
5.51545e-05 1.44284e-06 0.0496284 
-5.21443e-05 9.30975e-06 0.0991933 
-9.09223e-06 6.55199e-06 0.099644 
-6.49698e-14 2.24098e-13 9.86873e-11 
6.13684e-14 1.54122e-13 9.83801e-11 
-9.60727e-15 -3.08225e-14 1.02061e-10 
2.9106e-06 4.29415e-05 0.0497165 
-1.81185e-05 -1.82362e-05 0.100055 
-2.64787e-05 -1.9666e-05 0.100054 
-2.48284e-05 -9.27827e-06 0.100057 
-1.0664e-05 -1.1906e-05 0.0542056 
-3.75463e-05 -1.34821e-05 0.100053 
-1.26546e-05 -2.02278e-06 0.0492153 
-2.64787e-05 -1.9666e-05 0.100054 
-1.0664e-05 -1.1906e-05 0.0542056 
1.66274e-05 2.8631e-05 0.0996962 
8.78564e-06 1.69935e-05 0.0996257 
2.98249e-05 3.3154e-05 0.0994139 
-5.38823e-06 -2.35206e-05 0.0497229 
-1.49658e-05 -5.09375e-07 0.100058 
-1.85941e-05 7.45005e-06 0.100058 
-1.06686e-05 1.0435e-05 0.100058 
-6.16076e-06 2.1223e-06 0.0497314 
-1.90366e-15 5.71259e-15 1.00062e-10 
7.06615e-07 -8.90303e-07 0.042266 
5.79011e-06 5.82395e-06 0.0438467 
-6.16076e-06 2.1223e-06 0.0497314 
8.49044e-06 3.37106e-05 0.0996727 
-2.41495e-06 -4.36617e-05 0.0496319 
8.62244e-07 6.50106e-05 0.0992098 
3.87019e-06 -4.29402e-05 0.0496621 
3.9014e-14 -2.13088e-14 1.00941e-10 
-1.09657e-13 3.88004e-15 9.91894e-11 
-2.45792e-13 7.56687e-14 9.92453e-11 
-3.84406e-05 3.15062e-07 0.0496692 
-2.80993e-05 -4.27404e-06 0.0497541 
1.22695e-05 1.95146e-05 0.0996311 
4.79964e-05 4.43546e-05 0.0994337 
2.60351e-05 3.02084e-05 0.0996995 
1.65415e-05 -4.53499e-05 0.100038 
2.53441e-05 -3.40384e-05 0.100044 
2.53648e-05 -3.74752e-05 0.100032 
6.86288e-06 -1.25699e-05 0.0419077 
1.65415e-05 -4.53499e-05 0.100038 
4.34401e-06 -4.13329e-05 0.100046 
1.54212e-05 -3.3144e-05 0.100052 
6.86288e-06 -1.25699e-05 0.0419077 
1.28013e-05 3.08063e-05 0.100052 
5.79011e-06 5.82395e-06 0.0438467 
8.51397e-06 2.01482e-05 0.100056 
2.59561e-06 1.31476e-05 0.0479705 
-4.52905e-06 5.09918e-05 0.0496652 
2.24762e-06 3.83007e-05 0.0497005 
-2.62635e-05 -5.66648e-05 0.0993014 
-1.83496e-05 -2.33838e-05 0.0996842 
-5.95978e-15 5.59653e-14 1.03473e-10 
-2.41495e-06 -4.36617e-05 0.0496319 
4.15969e-15 -2.14514e-13 9.8672e-11 
-1.94651e-14 -2.24431e-13 9.83124e-11 
2.21216e-13 -1.59596e-14 9.84178e-11 
-1.68046e-14 -2.00372e-14 1.03774e-10 
5.51545e-05 1.44284e-06 0.0496284 
1.19414e-13 1.42617e-15 9.83977e-11 
-2.13175e-13 -1.27377e-13 9.91712e-11 
-1.56262e-05 -2.47047e-05 0.0497781 
2.56339e-14 3.31272e-14 1.01021e-10 
-4.25119e-14 -1.00508e-13 9.93264e-11 
-1.09657e-13 3.88004e-15 9.91894e-11 
-1.82536e-14 -4.33386e-17 1.01533e-10 
-1.81272e-13 -7.90914e-14 9.84557e-11 
-3.84406e-05 3.15062e-07 0.0496692 
-2.48284e-05 -9.27827e-06 0.100057 
-2.64787e-05 -1.9666e-05 0.100054 
-3.75463e-05 -1.34821e-05 0.100053 
-1.26546e-05 -2.02278e-06 0.0492153 
-1.75227e-05 -1.27165e-05 0.0996616 
-5.21443e-05 9.30975e-06 0.0991933 
5.51545e-05 1.44284e-06 0.0496284 
4.98407e-05 -5.16666e-06 0.0496913 
4.79964e-05 4.43546e-05 0.0994337 
-2.80993e-05 -4.27404e-06 0.0497541 
2.60351e-05 3.02084e-05 0.0996995 
-1.8358e-05 -1.22391e-05 0.0497344 
1.32158e-14 -1.81027e-16 1.00071e-10 
6.6845e-06 -4.96604e-06 0.0451146 
6.79104e-15 -1.57266e-14 1.00047e-10 
6.86288e-06 -1.25699e-05 0.0419077 
1.31259e-13 -1.70284e-13 9.92453e-11 
-4.46115e-14 5.88351e-14 1.01349e-10 
1.61082e-13 -9.9211e-14 9.91473e-11 
1.99166e-05 -1.45374e-05 0.0497707 
6.68348e-05 5.86874e-06 0.0998683 
6.96214e-14 -7.17407e-15 1.00033e-10 
-2.4093e-13 -5.18192e-15 9.8655e-11 
-8.3941e-14 5.45272e-14 1.00435e-10 
-1.16854e-06 -3.57773e-05 0.0497582 
1.33584e-14 -1.74204e-13 9.88245e-11 
-3.14807e-14 3.37585e-14 1.01597e-10 
-7.2269e-06 -4.35745e-05 0.0496755 
4.36038e-05 1.97496e-05 0.0993876 
3.22432e-05 1.66052e-05 0.0996986 
1.22695e-05 1.95146e-05 0.0996311 
-3.27931e-05 -1.77546e-06 0.0497296 
5.25902e-05 4.55259e-06 0.0496468 
1.73798e-13 -8.21038e-15 9.90431e-11 
3.75826e-15 2.8614e-14 1.01717e-10 
4.30101e-05 -4.0636e-06 0.0496601 
-4.52905e-06 5.09918e-05 0.0496652 
-1.59438e-06 5.2946e-05 0.0496482 
6.52437e-15 -7.93415e-15 1.02988e-10 
-2.82911e-14 1.61892e-13 9.87878e-11 
1.33584e-14 -1.74204e-13 9.88245e-11 
4.15969e-15 -2.14514e-13 9.8672e-11 
-3.14807e-14 3.37585e-14 1.01597e-10 
-7.2269e-06 -4.35745e-05 0.0496755 
-3.75463e-05 -1.34821e-05 0.100053 
-1.26546e-05 -2.02278e-06 0.0492153 
-1.0664e-05 -1.1906e-05 0.0542056 
-1.64282e-05 -4.86123e-06 0.048807 
2.43334e-05 -8.1768e-06 0.0996381 
5.7718e-05 -5.2275e-06 0.0992211 
-4.60925e-05 6.56188e-07 0.0496463 
7.51463e-06 5.33769e-06 0.0995691 
-4.52905e-06 5.09918e-05 0.0496652 
-8.07286e-06 -5.53572e-05 0.0992049 
-1.59438e-06 5.2946e-05 0.0496482 
-3.20611e-06 -1.55851e-05 0.0996728 
2.60305e-05 -2.07289e-05 0.100052 
1.35306e-05 -1.9621e-05 0.100056 
2.12594e-05 -7.44716e-06 0.100055 
6.6845e-06 -4.96604e-06 0.0451146 
-4.25119e-14 -1.00508e-13 9.93264e-11 
-1.56262e-05 -2.47047e-05 0.0497781 
-5.44325e-16 -1.00679e-14 1.01355e-10 
-3.62927e-14 -9.28586e-14 9.89718e-11 
-4.27965e-05 -3.45967e-05 0.0993173 
-1.75227e-05 -1.27165e-05 0.0996616 
-3.62094e-05 -2.04487e-05 0.0997118 
3.64098e-05 -4.38168e-06 0.0496378 
-1.79771e-15 -1.72541e-14 1.00092e-10 
8.03027e-15 -3.81591e-15 1.00108e-10 
1.81506e-14 1.78058e-14 9.99388e-11 
6.86288e-06 -1.25699e-05 0.0419077 
6.99016e-15 -3.08914e-14 1.01113e-10 
1.33705e-13 1.62128e-13 9.87225e-11 
1.65394e-05 2.59847e-05 0.0497484 
4.80048e-14 6.40149e-14 9.94959e-11 
-1.49658e-05 -5.09375e-07 0.100058 
-1.06686e-05 1.0435e-05 0.100058 
-7.28806e-06 2.80644e-06 0.100059 
-6.16076e-06 2.1223e-06 0.0497314 
-1.83496e-05 -2.33838e-05 0.0996842 
-2.62635e-05 -5.66648e-05 0.0993014 
-4.52905e-06 5.09918e-05 0.0496652 
-3.20611e-06 -1.55851e-05 0.0996728 
-4.69423e-05 -3.81554e-06 0.100041 
-4.58566e-05 -1.82272e-05 0.100034 
-4.55699e-05 -7.44938e-06 0.100018 
-1.64282e-05 -4.86123e-06 0.048807 
9.11742e-15 2.00061e-15 1.00067e-10 
7.06615e-07 -8.90303e-07 0.042266 
6.79104e-15 -1.57266e-14 1.00047e-10 
6.6845e-06 -4.96604e-06 0.0451146 
-1.02752e-14 2.80217e-14 1.01015e-10 
1.65394e-05 2.59847e-05 0.0497484 
4.63256e-14 1.111e-13 9.90575e-11 
4.80048e-14 6.40149e-14 9.94959e-11 
1.54212e-05 -3.3144e-05 0.100052 
6.86288e-06 -1.25699e-05 0.0419077 
4.34401e-06 -4.13329e-05 0.100046 
-7.79829e-08 -1.42251e-05 0.042739 
1.82823e-05 -2.44826e-05 0.0996838 
3.71701e-05 -3.97997e-05 0.0994666 
-7.81836e-06 1.54922e-05 0.0497067 
-2.05397e-05 1.05369e-05 0.0497157 
-1.81185e-05 -1.82362e-05 0.100055 
-9.02739e-06 -2.23435e-05 0.100056 
-1.95758e-05 -2.81997e-05 0.100051 
-1.0664e-05 -1.1906e-05 0.0542056 
3.71413e-05 1.30871e-05 0.100046 
2.42034e-05 7.68226e-06 0.100055 
2.72112e-05 1.86924e-05 0.100053 
1.29182e-05 3.30709e-06 0.0441446 
2.43334e-05 -8.1768e-06 0.0996381 
-4.60925e-05 6.56188e-07 0.0496463 
5.7718e-05 -5.2275e-06 0.0992211 
-3.7894e-05 -8.1622e-07 0.0496422 
6.79104e-15 -1.57266e-14 1.00047e-10 
-3.24792e-06 -8.03112e-06 0.0486293 
-9.7553e-15 -5.96936e-15 1.00065e-10 
-7.79829e-08 -1.42251e-05 0.042739 
6.13684e-14 1.54122e-13 9.83801e-11 
-1.59438e-06 5.2946e-05 0.0496482 
6.52437e-15 -7.93415e-15 1.02988e-10 
2.9106e-06 4.29415e-05 0.0497165 
-1.97289e-05 1.78933e-05 0.100056 
-2.89866e-05 2.38834e-05 0.100048 
-1.91968e-05 2.78376e-05 0.100051 
-7.83724e-06 8.35936e-06 0.0422734 
5.25902e-05 4.55259e-06 0.0496468 
-5.21443e-05 9.30975e-06 0.0991933 
5.51545e-05 1.44284e-06 0.0496284 
-9.09223e-06 6.55199e-06 0.099644 
4.34401e-06 -4.13329e-05 0.100046 
-7.14711e-06 -3.47554e-05 0.100051 
2.82143e-06 -2.87493e-05 0.100054 
-7.79829e-08 -1.42251e-05 0.042739 
-4.69423e-05 -3.81554e-06 0.100041 
-3.32413e-05 -3.38461e-07 0.100054 
-3.75463e-05 -1.34821e-05 0.100053 
-1.64282e-05 -4.86123e-06 0.048807 
6.79104e-15 -1.57266e-14 1.00047e-10 
7.06615e-07 -8.90303e-07 0.042266 
-2.79976e-15 -4.42758e-15 1.00084e-10 
-3.24792e-06 -8.03112e-06 0.0486293 
4.15969e-15 -2.14514e-13 9.8672e-11 
-2.41495e-06 -4.36617e-05 0.0496319 
-5.95978e-15 5.59653e-14 1.03473e-10 
-7.2269e-06 -4.35745e-05 0.0496755 
9.11742e-15 2.00061e-15 1.00067e-10 
-4.3652e-15 1.63767e-14 1.00062e-10 
5.79011e-06 5.82395e-06 0.0438467 
1.29182e-05 3.30709e-06 0.0441446 
-1.68046e-14 -2.00372e-14 1.03774e-10 
5.51545e-05 1.44284e-06 0.0496284 
4.98407e-05 -5.16666e-06 0.0496913 
2.21216e-13 -1.59596e-14 9.84178e-11 
1.0665e-05 -1.07206e-05 0.100056 
2.12594e-05 -7.44716e-06 0.100055 
1.35306e-05 -1.9621e-05 0.100056 
6.6845e-06 -4.96604e-06 0.0451146 
9.11742e-15 2.00061e-15 1.00067e-10 
5.79011e-06 5.82395e-06 0.0438467 
7.06615e-07 -8.90303e-07 0.042266 
6.6845e-06 -4.96604e-06 0.0451146 
-2.63817e-07 -1.56048e-05 0.100058 
-9.02739e-06 -2.23435e-05 0.100056 
-1.05306e-05 -1.09753e-05 0.100059 
-3.24792e-06 -8.03112e-06 0.0486293 
-2.64787e-05 -1.9666e-05 0.100054 
-1.26546e-05 -2.02278e-06 0.0492153 
-2.48284e-05 -9.27827e-06 0.100057 
-1.0664e-05 -1.1906e-05 0.0542056 
-2.64787e-05 -1.9666e-05 0.100054 
-1.95758e-05 -2.81997e-05 0.100051 
-3.19851e-05 -2.71852e-05 0.100048 
-1.0664e-05 -1.1906e-05 0.0542056 
-8.12817e-15 7.77816e-15 1.00059e-10 
-2.79976e-15 -4.42758e-15 1.00084e-10 
-1.90366e-15 5.71259e-15 1.00062e-10 
-6.16076e-06 2.1223e-06 0.0497314 
-2.79976e-15 -4.42758e-15 1.00084e-10 
9.11742e-15 2.00061e-15 1.00067e-10 
-1.90366e-15 5.71259e-15 1.00062e-10 
7.06615e-07 -8.90303e-07 0.042266 
-1.90366e-15 5.71259e-15 1.00062e-10 
9.11742e-15 2.00061e-15 1.00067e-10 
-4.3652e-15 1.63767e-14 1.00062e-10 
5.79011e-06 5.82395e-06 0.0438467 
5.79011e-06 5.82395e-06 0.0438467 
6.6845e-06 -4.96604e-06 0.0451146 
9.11742e-15 2.00061e-15 1.00067e-10 
1.29182e-05 3.30709e-06 0.0441446 
1.32158e-14 -1.81027e-16 1.00071e-10 
6.79104e-15 -1.57266e-14 1.00047e-10 
-1.79771e-15 -1.72541e-14 1.00092e-10 
6.86288e-06 -1.25699e-05 0.0419077 
-9.7553e-15 -5.96936e-15 1.00065e-10 
-2.79976e-15 -4.42758e-15 1.00084e-10 
-1.19492e-14 -4.48993e-16 1.00054e-10 
-1.0664e-05 -1.1906e-05 0.0542056 
-9.7553e-15 -5.96936e-15 1.00065e-10 
6.79104e-15 -1.57266e-14 1.00047e-10 
-2.79976e-15 -4.42758e-15 1.00084e-10 
-3.24792e-06 -8.03112e-06 0.0486293 
-2.79976e-15 -4.42758e-15 1.00084e-10 
6.79104e-15 -1.57266e-14 1.00047e-10 
9.11742e-15 2.00061e-15 1.00067e-10 
7.06615e-07 -8.90303e-07 0.042266 
-1.19492e-14 -4.48993e-16 1.00054e-10 
-1.26546e-05 -2.02278e-06 0.0492153 
-8.12817e-15 7.77816e-15 1.00059e-10 
-1.64282e-05 -4.86123e-06 0.048807 
-2.16191e-14 -5.6382e-15 1.0009e-10 
-8.12817e-15 7.77816e-15 1.00059e-10 
-1.90366e-15 5.71259e-15 1.00062e-10 
-7.83724e-06 8.35936e-06 0.0422734 
5.95926e-06 -1.57217e-05 0.0995966 
-8.07286e-06 -5.53572e-05 0.0992049 
-1.59438e-06 5.2946e-05 0.0496482 
2.9106e-06 4.29415e-05 0.0497165 
5.22154e-15 6.98438e-15 1.00058e-10 
-8.12817e-15 7.77816e-15 1.00059e-10 
-2.16191e-14 -5.6382e-15 1.0009e-10 
-7.83724e-06 8.35936e-06 0.0422734 
-7.2269e-06 -4.35745e-05 0.0496755 
-2.41495e-06 -4.36617e-05 0.0496319 
8.62244e-07 6.50106e-05 0.0992098 
-8.05101e-06 2.79562e-05 0.0996153 
-1.19492e-14 -4.48993e-16 1.00054e-10 
-8.12817e-15 7.77816e-15 1.00059e-10 
-9.11877e-15 -7.78679e-15 1.00089e-10 
-1.64282e-05 -4.86123e-06 0.048807 
-1.90366e-15 5.71259e-15 1.00062e-10 
-4.3652e-15 1.63767e-14 1.00062e-10 
1.32959e-14 2.16956e-14 1.00094e-10 
2.59561e-06 1.31476e-05 0.0479705 
-1.19492e-14 -4.48993e-16 1.00054e-10 
-2.79976e-15 -4.42758e-15 1.00084e-10 
-8.12817e-15 7.77816e-15 1.00059e-10 
-1.26546e-05 -2.02278e-06 0.0492153 
4.21492e-06 3.80124e-05 0.100047 
2.04377e-06 2.70331e-05 0.100055 
-7.26406e-06 2.94324e-05 0.100055 
2.59561e-06 1.31476e-05 0.0479705 
6.79104e-15 -1.57266e-14 1.00047e-10 
-9.7553e-15 -5.96936e-15 1.00065e-10 
8.03027e-15 -3.81591e-15 1.00108e-10 
-7.79829e-08 -1.42251e-05 0.042739 
-9.7553e-15 -5.96936e-15 1.00065e-10 
-3.24792e-06 -8.03112e-06 0.0486293 
-2.79976e-15 -4.42758e-15 1.00084e-10 
-1.0664e-05 -1.1906e-05 0.0542056 
-6.16076e-06 2.1223e-06 0.0497314 
-7.83724e-06 8.35936e-06 0.0422734 
-8.12817e-15 7.77816e-15 1.00059e-10 
-1.26546e-05 -2.02278e-06 0.0492153 
9.11742e-15 2.00061e-15 1.00067e-10 
1.2456e-14 1.15981e-15 1.0009e-10 
-4.3652e-15 1.63767e-14 1.00062e-10 
1.29182e-05 3.30709e-06 0.0441446 
3.71701e-05 -3.97997e-05 0.0994666 
1.82823e-05 -2.44826e-05 0.0996838 
2.5542e-05 -3.21784e-05 0.0997541 
-2.05397e-05 1.05369e-05 0.0497157 
1.54212e-05 -3.3144e-05 0.100052 
2.53441e-05 -3.40384e-05 0.100044 
1.65415e-05 -4.53499e-05 0.100038 
6.86288e-06 -1.25699e-05 0.0419077 
6.79104e-15 -1.57266e-14 1.00047e-10 
1.32158e-14 -1.81027e-16 1.00071e-10 
9.11742e-15 2.00061e-15 1.00067e-10 
6.6845e-06 -4.96604e-06 0.0451146 
-3.32413e-05 -3.38461e-07 0.100054 
-1.26546e-05 -2.02278e-06 0.0492153 
-3.75463e-05 -1.34821e-05 0.100053 
-1.64282e-05 -4.86123e-06 0.048807 
9.11742e-15 2.00061e-15 1.00067e-10 
1.32158e-14 -1.81027e-16 1.00071e-10 
1.2456e-14 1.15981e-15 1.0009e-10 
1.29182e-05 3.30709e-06 0.0441446 
-2.41495e-06 -4.36617e-05 0.0496319 
-5.95978e-15 5.59653e-14 1.03473e-10 
3.87019e-06 -4.29402e-05 0.0496621 
-1.94651e-14 -2.24431e-13 9.83124e-11 
-1.19492e-14 -4.48993e-16 1.00054e-10 
-2.79976e-15 -4.42758e-15 1.00084e-10 
-1.26546e-05 -2.02278e-06 0.0492153 
-1.0664e-05 -1.1906e-05 0.0542056 
-1.79771e-15 -1.72541e-14 1.00092e-10 
6.79104e-15 -1.57266e-14 1.00047e-10 
8.03027e-15 -3.81591e-15 1.00108e-10 
6.86288e-06 -1.25699e-05 0.0419077 
9.11742e-15 2.00061e-15 1.00067e-10 
6.6845e-06 -4.96604e-06 0.0451146 
1.32158e-14 -1.81027e-16 1.00071e-10 
1.29182e-05 3.30709e-06 0.0441446 
-2.79976e-15 -4.42758e-15 1.00084e-10 
7.06615e-07 -8.90303e-07 0.042266 
-1.90366e-15 5.71259e-15 1.00062e-10 
-6.16076e-06 2.1223e-06 0.0497314 
4.88867e-14 4.05381e-14 1.03047e-10 
-4.60925e-05 6.56188e-07 0.0496463 
-1.81272e-13 -7.90914e-14 9.84557e-11 
-3.7894e-05 -8.1622e-07 0.0496422 
-8.12817e-15 7.77816e-15 1.00059e-10 
-6.16076e-06 2.1223e-06 0.0497314 
-1.90366e-15 5.71259e-15 1.00062e-10 
-7.83724e-06 8.35936e-06 0.0422734 
7.51463e-06 5.33769e-06 0.0995691 
5.7718e-05 -5.2275e-06 0.0992211 
-4.60925e-05 6.56188e-07 0.0496463 
-4.71561e-05 9.26053e-07 0.0496718 
-2.79976e-15 -4.42758e-15 1.00084e-10 
-6.16076e-06 2.1223e-06 0.0497314 
-8.12817e-15 7.77816e-15 1.00059e-10 
-1.26546e-05 -2.02278e-06 0.0492153 
-1.90366e-15 5.71259e-15 1.00062e-10 
7.06615e-07 -8.90303e-07 0.042266 
9.11742e-15 2.00061e-15 1.00067e-10 
5.79011e-06 5.82395e-06 0.0438467 
-4.71561e-05 9.26053e-07 0.0496718 
1.68345e-14 -1.25721e-14 1.0124e-10 
4.88867e-14 4.05381e-14 1.03047e-10 
-2.4093e-13 -5.18192e-15 9.8655e-11 
3.71413e-05 1.30871e-05 0.100046 
3.39295e-05 4.54892e-07 0.100049 
2.42034e-05 7.68226e-06 0.100055 
1.29182e-05 3.30709e-06 0.0441446 
1.19414e-13 1.42617e-15 9.83977e-11 
-1.68046e-14 -2.00372e-14 1.03774e-10 
5.51545e-05 1.44284e-06 0.0496284 
5.25902e-05 4.55259e-06 0.0496468 
-4.52905e-06 5.09918e-05 0.0496652 
6.52437e-15 -7.93415e-15 1.02988e-10 
-1.99199e-14 3.37393e-16 1.01299e-10 
-2.82911e-14 1.61892e-13 9.87878e-11 
-2.62635e-05 -5.66648e-05 0.0993014 
-8.07286e-06 -5.53572e-05 0.0992049 
-4.52905e-06 5.09918e-05 0.0496652 
-3.20611e-06 -1.55851e-05 0.0996728 
-3.24792e-06 -8.03112e-06 0.0486293 
-1.26546e-05 -2.02278e-06 0.0492153 
-2.79976e-15 -4.42758e-15 1.00084e-10 
-1.0664e-05 -1.1906e-05 0.0542056 
-2.79976e-15 -4.42758e-15 1.00084e-10 
-3.24792e-06 -8.03112e-06 0.0486293 
-6.16076e-06 2.1223e-06 0.0497314 
-1.26546e-05 -2.02278e-06 0.0492153 
-9.11877e-15 -7.78679e-15 1.00089e-10 
-1.13333e-14 -4.43145e-15 1.00036e-10 
-1.19492e-14 -4.48993e-16 1.00054e-10 
-1.64282e-05 -4.86123e-06 0.048807 
8.62244e-07 6.50106e-05 0.0992098 
1.51844e-05 4.87235e-05 0.0993034 
8.49044e-06 3.37106e-05 0.0996727 
3.87019e-06 -4.29402e-05 0.0496621 
-3.32413e-05 -3.38461e-07 0.100054 
-2.48284e-05 -9.27827e-06 0.100057 
-3.75463e-05 -1.34821e-05 0.100053 
-1.26546e-05 -2.02278e-06 0.0492153 
-1.90366e-15 5.71259e-15 1.00062e-10 
5.79011e-06 5.82395e-06 0.0438467 
-4.3652e-15 1.63767e-14 1.00062e-10 
2.59561e-06 1.31476e-05 0.0479705 
6.79104e-15 -1.57266e-14 1.00047e-10 
6.6845e-06 -4.96604e-06 0.0451146 
-3.24792e-06 -8.03112e-06 0.0486293 
-7.79829e-08 -1.42251e-05 0.042739 
6.09116e-05 -1.2572e-05 0.0993208 
2.43334e-05 -8.1768e-06 0.0996381 
5.7718e-05 -5.2275e-06 0.0992211 
-3.7894e-05 -8.1622e-07 0.0496422 
-5.6851e-05 2.21249e-05 0.0993001 
-5.21443e-05 9.30975e-06 0.0991933 
5.25902e-05 4.55259e-06 0.0496468 
-9.09223e-06 6.55199e-06 0.099644 
2.48484e-05 5.73161e-06 0.0497309 
-4.15581e-14 -3.64937e-14 1.01553e-10 
6.50973e-16 -3.68787e-14 1.01181e-10 
1.209e-13 8.08057e-14 9.88263e-11 
-9.7553e-15 -5.96936e-15 1.00065e-10 
-7.79829e-08 -1.42251e-05 0.042739 
-3.24792e-06 -8.03112e-06 0.0486293 
-1.0664e-05 -1.1906e-05 0.0542056 
-1.75227e-05 -1.27165e-05 0.0996616 
-4.27965e-05 -3.45967e-05 0.0993173 
-5.21443e-05 9.30975e-06 0.0991933 
4.98407e-05 -5.16666e-06 0.0496913 
4.15969e-15 -2.14514e-13 9.8672e-11 
-5.95978e-15 5.59653e-14 1.03473e-10 
-3.14807e-14 3.37585e-14 1.01597e-10 
-7.2269e-06 -4.35745e-05 0.0496755 
-4.14534e-05 2.0604e-05 0.0993809 
-5.6851e-05 2.21249e-05 0.0993001 
4.30101e-05 -4.0636e-06 0.0496601 
-2.93425e-05 1.29084e-05 0.0997196 
-3.84406e-05 3.15062e-07 0.0496692 
6.09116e-05 -1.2572e-05 0.0993208 
3.34416e-05 -1.79446e-05 0.0997097 
6.40586e-05 -3.56762e-05 0.0993838 
1.65394e-05 2.59847e-05 0.0497484 
-1.02752e-14 2.80217e-14 1.01015e-10 
6.99016e-15 -3.08914e-14 1.01113e-10 
4.80048e-14 6.40149e-14 9.94959e-11 
-4.81035e-05 -2.4711e-05 0.0994534 
-1.94144e-05 -5.22873e-05 0.0994215 
1.65394e-05 2.59847e-05 0.0497484 
-1.93372e-05 -1.25182e-05 0.0997376 
-1.19492e-14 -4.48993e-16 1.00054e-10 
-1.0664e-05 -1.1906e-05 0.0542056 
-1.26546e-05 -2.02278e-06 0.0492153 
-1.64282e-05 -4.86123e-06 0.048807 
4.98407e-05 -5.16666e-06 0.0496913 
-1.92926e-14 9.47497e-15 1.01586e-10 
-1.68046e-14 -2.00372e-14 1.03774e-10 
2.21216e-13 -1.59596e-14 9.84178e-11 
5.18791e-05 -3.71255e-05 0.099447 
3.71701e-05 -3.97997e-05 0.0994666 
2.5542e-05 -3.21784e-05 0.0997541 
-2.05397e-05 1.05369e-05 0.0497157 
-2.64123e-14 -4.40119e-15 1.01054e-10 
-5.29329e-15 2.07018e-14 1.00995e-10 
9.6062e-14 -3.64827e-14 9.93329e-11 
2.81748e-05 -1.02932e-05 0.0497687 
-1.67321e-05 -2.50994e-05 0.0997157 
-1.94144e-05 -5.22873e-05 0.0994215 
1.35497e-05 2.31328e-05 0.0496793 
-2.86777e-05 -5.59701e-05 0.0993943 
-2.44229e-05 -3.80804e-08 0.100056 
-2.48284e-05 -9.27827e-06 0.100057 
-3.32413e-05 -3.38461e-07 0.100054 
-1.26546e-05 -2.02278e-06 0.0492153 
1.28013e-05 3.08063e-05 0.100052 
2.04377e-06 2.70331e-05 0.100055 
4.21492e-06 3.80124e-05 0.100047 
2.59561e-06 1.31476e-05 0.0479705 
6.52437e-15 -7.93415e-15 1.02988e-10 
-9.60727e-15 -3.08225e-14 1.02061e-10 
6.13684e-14 1.54122e-13 9.83801e-11 
2.9106e-06 4.29415e-05 0.0497165 
-2.74869e-05 6.00675e-06 0.0497077 
6.40586e-05 -3.56762e-05 0.0993838 
3.66889e-05 -2.47289e-05 0.099731 
5.18791e-05 -3.71255e-05 0.099447 
2.62369e-14 -2.84769e-14 1.01226e-10 
2.17741e-14 -1.66107e-14 1.01412e-10 
-1.95523e-14 1.01395e-13 9.92873e-11 
-5.80946e-06 2.50368e-05 0.0497496 
-2.80993e-05 -4.27404e-06 0.0497541 
5.42673e-14 2.16331e-14 1.01297e-10 
-2.70348e-14 8.67388e-15 1.01223e-10 
-1.09809e-13 -3.20527e-14 9.91347e-11 
4.97976e-14 4.5972e-14 1.01608e-10 
-8.5813e-15 1.67556e-14 1.0139e-10 
-1.47066e-06 -3.52748e-05 0.0496919 
-1.22774e-14 -1.8363e-13 9.91431e-11 
-3.75463e-05 -1.34821e-05 0.100053 
-4.58566e-05 -1.82272e-05 0.100034 
-4.69423e-05 -3.81554e-06 0.100041 
-1.64282e-05 -4.86123e-06 0.048807 
-4.81035e-05 -2.4711e-05 0.0994534 
1.12486e-05 1.15947e-05 0.0497167 
-4.54472e-05 -4.4511e-05 0.0994697 
-4.04487e-05 -1.98403e-05 0.0997295 
-3.15693e-05 5.56619e-05 0.0994092 
-3.32263e-05 4.86029e-05 0.0994415 
8.84049e-06 -2.65822e-05 0.0497499 
-1.32454e-05 3.75386e-05 0.0997356 
6.79104e-15 -1.57266e-14 1.00047e-10 
6.86288e-06 -1.25699e-05 0.0419077 
6.6845e-06 -4.96604e-06 0.0451146 
-7.79829e-08 -1.42251e-05 0.042739 
-4.01072e-05 3.93274e-05 0.099455 
-2.93616e-05 3.27868e-05 0.0994386 
1.99166e-05 -1.45374e-05 0.0497707 
-3.68981e-05 2.03293e-05 0.0997327 
-3.62094e-05 -2.04487e-05 0.0997118 
-5.8719e-05 -3.32163e-05 0.0994073 
-4.27965e-05 -3.45967e-05 0.0993173 
3.64098e-05 -4.38168e-06 0.0496378 
2.48484e-05 5.73161e-06 0.0497309 
-5.8719e-05 -3.32163e-05 0.0994073 
-4.54472e-05 -4.4511e-05 0.0994697 
-4.32109e-05 -1.97336e-05 0.0997364 
-1.99199e-14 3.37393e-16 1.01299e-10 
-1.08259e-14 -1.47997e-14 1.01339e-10 
2.24762e-06 3.83007e-05 0.0497005 
3.73184e-14 1.34069e-13 9.90716e-11 
-1.09657e-13 3.88004e-15 9.91894e-11 
3.9014e-14 -2.13088e-14 1.00941e-10 
-1.82536e-14 -4.33386e-17 1.01533e-10 
-3.84406e-05 3.15062e-07 0.0496692 
-7.2269e-06 -4.35745e-05 0.0496755 
8.62244e-07 6.50106e-05 0.0992098 
-2.90284e-05 5.86642e-05 0.099313 
-8.05101e-06 2.79562e-05 0.0996153 
-5.44325e-16 -1.00679e-14 1.01355e-10 
2.56339e-14 3.31272e-14 1.01021e-10 
-1.56262e-05 -2.47047e-05 0.0497781 
-4.25119e-14 -1.00508e-13 9.93264e-11 
5.28724e-14 -1.05075e-13 9.92899e-11 
-1.12847e-15 1.64752e-14 1.0115e-10 
-4.13486e-14 2.81772e-14 1.01086e-10 
8.84049e-06 -2.65822e-05 0.0497499 
2.84555e-05 -3.35713e-05 0.0993456 
1.2948e-05 -4.26274e-05 0.0996906 
2.7688e-05 -6.24404e-05 0.0994051 
1.74347e-06 3.01473e-05 0.0497455 
-4.46115e-14 5.88351e-14 1.01349e-10 
-2.64123e-14 -4.40119e-15 1.01054e-10 
1.61082e-13 -9.9211e-14 9.91473e-11 
1.99166e-05 -1.45374e-05 0.0497707 
4.36038e-05 1.97496e-05 0.0993876 
5.94503e-05 2.75417e-05 0.0993018 
3.22432e-05 1.66052e-05 0.0996986 
-3.27931e-05 -1.77546e-06 0.0497296 
1.73798e-13 -8.21038e-15 9.90431e-11 
-5.29329e-15 2.07018e-14 1.00995e-10 
3.75826e-15 2.8614e-14 1.01717e-10 
4.30101e-05 -4.0636e-06 0.0496601 
6.79104e-15 -1.57266e-14 1.00047e-10 
8.03027e-15 -3.81591e-15 1.00108e-10 
6.86288e-06 -1.25699e-05 0.0419077 
-7.79829e-08 -1.42251e-05 0.042739 
-2.90284e-05 5.86642e-05 0.099313 
-3.15693e-05 5.56619e-05 0.0994092 
-1.16854e-06 -3.57773e-05 0.0497582 
-1.80177e-05 3.27343e-05 0.0996951 
3.87019e-06 -4.29402e-05 0.0496621 
-5.95978e-15 5.59653e-14 1.03473e-10 
4.97976e-14 4.5972e-14 1.01608e-10 
-1.94651e-14 -2.24431e-13 9.83124e-11 
2.00884e-05 1.34031e-05 0.0997219 
3.26229e-05 5.59097e-05 0.0994266 
4.43e-05 3.0154e-05 0.099453 
-1.56262e-05 -2.47047e-05 0.0497781 
1.19414e-13 1.42617e-15 9.83977e-11 
3.75826e-15 2.8614e-14 1.01717e-10 
-1.68046e-14 -2.00372e-14 1.03774e-10 
5.25902e-05 4.55259e-06 0.0496468 
-8.07286e-06 -5.53572e-05 0.0992049 
5.95926e-06 -1.57217e-05 0.0995966 
2.84555e-05 -3.35713e-05 0.0993456 
2.9106e-06 4.29415e-05 0.0497165 
7.51463e-06 5.33769e-06 0.0995691 
5.94503e-05 2.75417e-05 0.0993018 
5.7718e-05 -5.2275e-06 0.0992211 
-4.71561e-05 9.26053e-07 0.0496718 
-2.62635e-05 -5.66648e-05 0.0993014 
2.24762e-06 3.83007e-05 0.0497005 
-2.86777e-05 -5.59701e-05 0.0993943 
-1.83496e-05 -2.33838e-05 0.0996842 
-1.95758e-05 -2.81997e-05 0.100051 
-2.64787e-05 -1.9666e-05 0.100054 
-1.81185e-05 -1.82362e-05 0.100055 
-1.0664e-05 -1.1906e-05 0.0542056 
1.66274e-05 2.8631e-05 0.0996962 
2.98249e-05 3.3154e-05 0.0994139 
3.26229e-05 5.59097e-05 0.0994266 
-5.38823e-06 -2.35206e-05 0.0497229 
-5.80946e-06 2.50368e-05 0.0497496 
1.29394e-05 -3.06464e-05 0.0996941 
2.7688e-05 -6.24404e-05 0.0994051 
3.77479e-05 -3.7668e-05 0.09946 
2.60351e-05 3.02084e-05 0.0996995 
4.43e-05 3.0154e-05 0.099453 
4.79964e-05 4.43546e-05 0.0994337 
-1.8358e-05 -1.22391e-05 0.0497344 
-2.05397e-05 1.05369e-05 0.0497157 
4.1358e-14 -2.67502e-14 1.01418e-10 
1.31491e-14 -3.38272e-14 1.01753e-10 
-5.76453e-14 8.63802e-14 9.89752e-11 
-2.70348e-14 8.67388e-15 1.01223e-10 
1.68345e-14 -1.25721e-14 1.0124e-10 
-3.27931e-05 -1.77546e-06 0.0497296 
-8.99136e-14 2.78424e-14 9.93052e-11 
-1.81272e-13 -7.90914e-14 9.84557e-11 
-1.82536e-14 -4.33386e-17 1.01533e-10 
4.88867e-14 4.05381e-14 1.03047e-10 
-3.7894e-05 -8.1622e-07 0.0496422 
1.31259e-13 -1.70284e-13 9.92453e-11 
-4.13486e-14 2.81772e-14 1.01086e-10 
-4.46115e-14 5.88351e-14 1.01349e-10 
1.21264e-05 -1.66583e-05 0.049745 
-9.60727e-15 -3.08225e-14 1.02061e-10 
2.62369e-14 -2.84769e-14 1.01226e-10 
-6.49698e-14 2.24098e-13 9.86873e-11 
1.74347e-06 3.01473e-05 0.0497455 
6.50973e-16 -3.68787e-14 1.01181e-10 
-1.92926e-14 9.47497e-15 1.01586e-10 
3.64098e-05 -4.38168e-06 0.0496378 
1.43704e-13 1.59844e-14 9.91815e-11 
7.06615e-07 -8.90303e-07 0.042266 
-6.16076e-06 2.1223e-06 0.0497314 
-2.79976e-15 -4.42758e-15 1.00084e-10 
-3.24792e-06 -8.03112e-06 0.0486293 
-3.14807e-14 3.37585e-14 1.01597e-10 
-1.12847e-15 1.64752e-14 1.0115e-10 
1.33584e-14 -1.74204e-13 9.88245e-11 
-1.16854e-06 -3.57773e-05 0.0497582 
3.71701e-05 -3.97997e-05 0.0994666 
1.82823e-05 -2.44826e-05 0.0996838 
-7.81836e-06 1.54922e-05 0.0497067 
3.77479e-05 -3.7668e-05 0.09946 
8.78564e-06 1.69935e-05 0.0996257 
1.51844e-05 4.87235e-05 0.0993034 
2.98249e-05 3.3154e-05 0.0994139 
-1.47066e-06 -3.52748e-05 0.0496919 
-2.45792e-13 7.56687e-14 9.92453e-11 
4.1358e-14 -2.67502e-14 1.01418e-10 
3.9014e-14 -2.13088e-14 1.00941e-10 
-2.74869e-05 6.00675e-06 0.0497077 
-1.8358e-05 -1.22391e-05 0.0497344 
2.56339e-14 3.31272e-14 1.01021e-10 
5.42673e-14 2.16331e-14 1.01297e-10 
-2.13175e-13 -1.27377e-13 9.91712e-11 
4.79964e-05 4.43546e-05 0.0994337 
4.36038e-05 1.97496e-05 0.0993876 
1.22695e-05 1.95146e-05 0.0996311 
-2.80993e-05 -4.27404e-06 0.0497541 
-7.81836e-06 1.54922e-05 0.0497067 
1.31491e-14 -3.38272e-14 1.01753e-10 
2.17741e-14 -1.66107e-14 1.01412e-10 
-1.32323e-13 1.27772e-13 9.89097e-11 
2.81748e-05 -1.02932e-05 0.0497687 
-2.93616e-05 3.27868e-05 0.0994386 
-4.14534e-05 2.0604e-05 0.0993809 
-1.16305e-05 1.19241e-05 0.0996345 
1.33705e-13 1.62128e-13 9.87225e-11 
-4.15581e-14 -3.64937e-14 1.01553e-10 
6.99016e-15 -3.08914e-14 1.01113e-10 
1.12486e-05 1.15947e-05 0.0497167 
1.35497e-05 2.31328e-05 0.0496793 
-1.08259e-14 -1.47997e-14 1.01339e-10 
-1.02752e-14 2.80217e-14 1.01015e-10 
4.63256e-14 1.111e-13 9.90575e-11 
1.21264e-05 -1.66583e-05 0.049745 
-3.32263e-05 4.86029e-05 0.0994415 
-4.01072e-05 3.93274e-05 0.099455 
-2.42514e-05 2.85041e-05 0.0996595 
-8.5813e-15 1.67556e-14 1.0139e-10 
-5.44325e-16 -1.00679e-14 1.01355e-10 
-5.38823e-06 -2.35206e-05 0.0497229 
-3.62927e-14 -9.28586e-14 9.89718e-11 
3.91016e-15 5.5728e-15 1.00046e-10 
4.09096e-05 -1.10796e-05 0.100043 
-4.22611e-15 -7.24899e-15 9.99878e-11 
6.05317e-05 -7.46322e-06 0.100022 
3.91016e-15 5.5728e-15 1.00046e-10 
-4.22611e-15 -7.24899e-15 9.99878e-11 
4.09096e-05 -1.10796e-05 0.100043 
1.32158e-14 -1.81027e-16 1.00071e-10 
3.58502e-15 -1.00007e-15 9.98792e-11 
-4.58569e-05 -2.07977e-05 0.100003 
1.54623e-14 -9.97011e-15 1.00131e-10 
-1.13333e-14 -4.43145e-15 1.00036e-10 
1.54623e-14 -9.97011e-15 1.00131e-10 
-4.58569e-05 -2.07977e-05 0.100003 
3.58502e-15 -1.00007e-15 9.98792e-11 
-5.5533e-05 -1.24286e-05 0.099958 
-2.95201e-05 -5.41367e-05 0.0999965 
1.07056e-14 5.51363e-15 9.99775e-11 
5.62681e-17 -2.48705e-14 1.00032e-10 
-1.47519e-05 -6.37192e-05 0.0999789 
-2.95201e-05 -5.41367e-05 0.0999965 
5.62681e-17 -2.48705e-14 1.00032e-10 
1.07056e-14 5.51363e-15 9.99775e-11 
-4.21559e-15 -2.43751e-14 1.00017e-10 
8.03027e-15 -3.81591e-15 1.00108e-10 
1.62911e-06 -6.71259e-05 0.0999911 
-5.55103e-06 -5.86472e-05 0.100019 
-2.56942e-14 9.5864e-15 9.98459e-11 
-5.55103e-06 -5.86472e-05 0.100019 
1.62911e-06 -6.71259e-05 0.0999911 
8.03027e-15 -3.81591e-15 1.00108e-10 
5.28136e-06 -5.4799e-05 0.100032 
-1.64282e-05 -4.86123e-06 0.048807 
-3.32413e-05 -3.38461e-07 0.100054 
-3.9052e-05 1.28844e-05 0.100048 
-4.69423e-05 -3.81554e-06 0.100041 
-1.64282e-05 -4.86123e-06 0.048807 
-3.9052e-05 1.28844e-05 0.100048 
-3.32413e-05 -3.38461e-07 0.100054 
-1.26546e-05 -2.02278e-06 0.0492153 
-1.64282e-05 -4.86123e-06 0.048807 
-5.21181e-05 7.20726e-06 0.100023 
-3.9052e-05 1.28844e-05 0.100048 
-9.11877e-15 -7.78679e-15 1.00089e-10 
-1.64282e-05 -4.86123e-06 0.048807 
-3.9052e-05 1.28844e-05 0.100048 
-5.21181e-05 7.20726e-06 0.100023 
-4.69423e-05 -3.81554e-06 0.100041 
-5.76453e-14 8.63802e-14 9.89752e-11 
3.84617e-05 -2.06054e-05 0.0998836 
-4.49752e-14 2.33003e-14 1.00211e-10 
2.5542e-05 -3.21784e-05 0.0997541 
-5.76453e-14 8.63802e-14 9.89752e-11 
-4.49752e-14 2.33003e-14 1.00211e-10 
3.84617e-05 -2.06054e-05 0.0998836 
6.47688e-14 -1.18551e-14 1.00173e-10 
4.69002e-14 3.47452e-14 1.00142e-10 
4.24837e-05 3.40717e-05 0.100015 
-1.50261e-14 8.49891e-15 9.99389e-11 
5.26181e-05 3.07291e-05 0.0999722 
4.69002e-14 3.47452e-14 1.00142e-10 
-1.50261e-14 8.49891e-15 9.99389e-11 
4.24837e-05 3.40717e-05 0.100015 
1.14499e-14 4.89949e-15 1.00015e-10 
1.81506e-14 1.78058e-14 9.99388e-11 
1.62911e-06 -6.71259e-05 0.0999911 
8.03027e-15 -3.81591e-15 1.00108e-10 
-2.56942e-14 9.5864e-15 9.98459e-11 
8.03027e-15 -3.81591e-15 1.00108e-10 
1.62911e-06 -6.71259e-05 0.0999911 
1.81506e-14 1.78058e-14 9.99388e-11 
1.68971e-05 -5.55476e-05 0.100016 
2.59561e-06 1.31476e-05 0.0479705 
8.51397e-06 2.01482e-05 0.100056 
3.50379e-07 1.46364e-05 0.10006 
5.79011e-06 5.82395e-06 0.0438467 
2.59561e-06 1.31476e-05 0.0479705 
3.50379e-07 1.46364e-05 0.10006 
8.51397e-06 2.01482e-05 0.100056 
2.04377e-06 2.70331e-05 0.100055 
-1.05306e-05 -1.09753e-05 0.100059 
-1.0664e-05 -1.1906e-05 0.0542056 
-9.02739e-06 -2.23435e-05 0.100056 
-1.81185e-05 -1.82362e-05 0.100055 
-9.02739e-06 -2.23435e-05 0.100056 
-1.0664e-05 -1.1906e-05 0.0542056 
-1.05306e-05 -1.09753e-05 0.100059 
-3.24792e-06 -8.03112e-06 0.0486293 
5.95926e-06 -1.57217e-05 0.0995966 
-6.49698e-14 2.24098e-13 9.86873e-11 
9.15213e-06 -3.90423e-05 0.0998458 
1.2948e-05 -4.26274e-05 0.0996906 
9.15213e-06 -3.90423e-05 0.0998458 
-6.49698e-14 2.24098e-13 9.86873e-11 
5.95926e-06 -1.57217e-05 0.0995966 
6.13684e-14 1.54122e-13 9.83801e-11 
2.00214e-05 6.22632e-05 0.0999638 
-4.93347e-15 2.78394e-14 1.00009e-10 
1.76213e-15 -7.52097e-15 1.00075e-10 
1.93684e-14 4.61972e-14 9.99896e-11 
1.76213e-15 -7.52097e-15 1.00075e-10 
-4.93347e-15 2.78394e-14 1.00009e-10 
2.00214e-05 6.22632e-05 0.0999638 
3.36434e-05 5.82349e-05 0.0999934 
7.06615e-07 -8.90303e-07 0.042266 
6.6845e-06 -4.96604e-06 0.0451146 
-2.63817e-07 -1.56048e-05 0.100058 
-3.24792e-06 -8.03112e-06 0.0486293 
-1.85941e-05 7.45005e-06 0.100058 
-1.26546e-05 -2.02278e-06 0.0492153 
-1.49658e-05 -5.09375e-07 0.100058 
-2.44229e-05 -3.80804e-08 0.100056 
-1.49658e-05 -5.09375e-07 0.100058 
-1.26546e-05 -2.02278e-06 0.0492153 
-1.85941e-05 7.45005e-06 0.100058 
-6.16076e-06 2.1223e-06 0.0497314 
-7.79829e-08 -1.42251e-05 0.042739 
1.35306e-05 -1.9621e-05 0.100056 
-3.24792e-06 -8.03112e-06 0.0486293 
2.82143e-06 -2.87493e-05 0.100054 
-7.79829e-08 -1.42251e-05 0.042739 
-3.24792e-06 -8.03112e-06 0.0486293 
1.35306e-05 -1.9621e-05 0.100056 
6.6845e-06 -4.96604e-06 0.0451146 
-8.05101e-06 2.79562e-05 0.0996153 
-1.94651e-14 -2.24431e-13 9.83124e-11 
1.85543e-06 3.15096e-05 0.0998219 
4.15969e-15 -2.14514e-13 9.8672e-11 
1.85543e-06 3.15096e-05 0.0998219 
-1.94651e-14 -2.24431e-13 9.83124e-11 
-8.05101e-06 2.79562e-05 0.0996153 
8.49044e-06 3.37106e-05 0.0996727 
-1.80177e-05 3.27343e-05 0.0996951 
4.15969e-15 -2.14514e-13 9.8672e-11 
-7.2269e-06 -4.35745e-05 0.0496755 
-8.05101e-06 2.79562e-05 0.0996153 
-1.80177e-05 3.27343e-05 0.0996951 
-7.2269e-06 -4.35745e-05 0.0496755 
4.15969e-15 -2.14514e-13 9.8672e-11 
1.33584e-14 -1.74204e-13 9.88245e-11 
-5.57768e-05 -1.71737e-05 0.0998385 
1.43704e-13 1.59844e-14 9.91815e-11 
-1.75227e-05 -1.27165e-05 0.0996616 
-3.38167e-15 9.32939e-15 1.00138e-10 
-1.75227e-05 -1.27165e-05 0.0996616 
1.43704e-13 1.59844e-14 9.91815e-11 
-5.57768e-05 -1.71737e-05 0.0998385 
-3.62094e-05 -2.04487e-05 0.0997118 
-4.58569e-05 -2.07977e-05 0.100003 
-1.64282e-05 -4.86123e-06 0.048807 
-3.91604e-05 -2.92381e-05 0.100026 
-1.13333e-14 -4.43145e-15 1.00036e-10 
-3.91604e-05 -2.92381e-05 0.100026 
-1.64282e-05 -4.86123e-06 0.048807 
-4.58569e-05 -2.07977e-05 0.100003 
-4.58566e-05 -1.82272e-05 0.100034 
-2.45792e-13 7.56687e-14 9.92453e-11 
3.84617e-05 -2.06054e-05 0.0998836 
4.83184e-05 -1.35016e-05 0.0999022 
6.47688e-14 -1.18551e-14 1.00173e-10 
4.83184e-05 -1.35016e-05 0.0999022 
3.84617e-05 -2.06054e-05 0.0998836 
-2.45792e-13 7.56687e-14 9.92453e-11 
3.66889e-05 -2.47289e-05 0.099731 
-1.22774e-14 -1.8363e-13 9.91431e-11 
3.87019e-06 -4.29402e-05 0.0496621 
4.97976e-14 4.5972e-14 1.01608e-10 
-1.94651e-14 -2.24431e-13 9.83124e-11 
-1.22774e-14 -1.8363e-13 9.91431e-11 
4.97976e-14 4.5972e-14 1.01608e-10 
3.87019e-06 -4.29402e-05 0.0496621 
-1.47066e-06 -3.52748e-05 0.0496919 
-1.83496e-05 -2.33838e-05 0.0996842 
-3.69569e-16 6.88371e-14 1.0017e-10 
-9.14808e-06 -3.27901e-05 0.0998338 
3.73184e-14 1.34069e-13 9.90716e-11 
-1.83496e-05 -2.33838e-05 0.0996842 
-9.14808e-06 -3.27901e-05 0.0998338 
-3.69569e-16 6.88371e-14 1.0017e-10 
-2.73231e-05 -6.16719e-05 0.0999002 
1.07056e-14 5.51363e-15 9.99775e-11 
-9.14808e-06 -3.27901e-05 0.0998338 
-3.69569e-16 6.88371e-14 1.0017e-10 
3.73184e-14 1.34069e-13 9.90716e-11 
1.07056e-14 5.51363e-15 9.99775e-11 
-3.69569e-16 6.88371e-14 1.0017e-10 
-9.14808e-06 -3.27901e-05 0.0998338 
-2.73231e-05 -6.16719e-05 0.0999002 
-4.71991e-05 -3.14745e-05 0.0998614 
-4.32109e-05 -1.97336e-05 0.0997364 
1.97502e-14 -6.55476e-14 1.00495e-10 
-4.04487e-05 -1.98403e-05 0.0997295 
-4.71991e-05 -3.14745e-05 0.0998614 
1.97502e-14 -6.55476e-14 1.00495e-10 
-4.32109e-05 -1.97336e-05 0.0997364 
1.209e-13 8.08057e-14 9.88263e-11 
1.33705e-13 1.62128e-13 9.87225e-11 
1.97502e-14 -6.55476e-14 1.00495e-10 
-4.32109e-05 -1.97336e-05 0.0997364 
-4.04487e-05 -1.98403e-05 0.0997295 
1.33705e-13 1.62128e-13 9.87225e-11 
-4.32109e-05 -1.97336e-05 0.0997364 
1.97502e-14 -6.55476e-14 1.00495e-10 
1.209e-13 8.08057e-14 9.88263e-11 
-1.16305e-05 1.19241e-05 0.0996345 
1.61082e-13 -9.9211e-14 9.91473e-11 
-4.6685e-05 2.01706e-05 0.0998478 
9.6062e-14 -3.64827e-14 9.93329e-11 
-4.6685e-05 2.01706e-05 0.0998478 
1.61082e-13 -9.9211e-14 9.91473e-11 
-1.16305e-05 1.19241e-05 0.0996345 
-3.68981e-05 2.03293e-05 0.0997327 
3.66889e-05 -2.47289e-05 0.099731 
-1.09657e-13 3.88004e-15 9.91894e-11 
-3.84406e-05 3.15062e-07 0.0496692 
-2.45792e-13 7.56687e-14 9.92453e-11 
3.66889e-05 -2.47289e-05 0.099731 
-3.84406e-05 3.15062e-07 0.0496692 
-1.09657e-13 3.88004e-15 9.91894e-11 
3.34416e-05 -1.79446e-05 0.0997097 
6.6845e-06 -4.96604e-06 0.0451146 
6.64819e-06 -2.61503e-06 0.100059 
-2.63817e-07 -1.56048e-05 0.100058 
1.0665e-05 -1.07206e-05 0.100056 
6.6845e-06 -4.96604e-06 0.0451146 
-2.63817e-07 -1.56048e-05 0.100058 
6.64819e-06 -2.61503e-06 0.100059 
7.06615e-07 -8.90303e-07 0.042266 
3.34416e-05 -1.79446e-05 0.0997097 
-1.81272e-13 -7.90914e-14 9.84557e-11 
-8.3941e-14 5.45272e-14 1.00435e-10 
2.43334e-05 -8.1768e-06 0.0996381 
-8.3941e-14 5.45272e-14 1.00435e-10 
-1.81272e-13 -7.90914e-14 9.84557e-11 
3.34416e-05 -1.79446e-05 0.0997097 
-1.09657e-13 3.88004e-15 9.91894e-11 
-8.3941e-14 5.45272e-14 1.00435e-10 
5.28329e-05 -8.39764e-06 0.0998817 
3.34416e-05 -1.79446e-05 0.0997097 
2.43334e-05 -8.1768e-06 0.0996381 
3.34416e-05 -1.79446e-05 0.0997097 
5.28329e-05 -8.39764e-06 0.0998817 
-8.3941e-14 5.45272e-14 1.00435e-10 
-1.09657e-13 3.88004e-15 9.91894e-11 
6.1996e-05 8.96588e-05 0.200075 
3.47362e-05 2.95918e-05 0.100047 
2.72112e-05 1.86924e-05 0.100053 
2.29775e-05 2.79262e-05 0.10005 
0.000131594 4.08422e-05 0.200067 
6.09189e-05 7.92342e-06 0.100019 
4.56621e-05 3.1971e-06 0.100042 
4.82396e-05 1.7431e-05 0.100035 
3.50379e-07 1.46364e-05 0.10006 
2.04377e-06 2.70331e-05 0.100055 
-9.02066e-06 2.12991e-05 0.100059 
1.22206e-05 6.47679e-05 0.152131 
-2.47137e-05 3.8935e-05 0.10004 
-7.94525e-06 4.37477e-05 0.100042 
-2.29086e-05 5.51526e-05 0.100023 
-8.0015e-05 0.00011776 0.20007 
-7.26406e-06 2.94324e-05 0.100055 
-7.94525e-06 4.37477e-05 0.100042 
-2.47137e-05 3.8935e-05 0.10004 
-8.0015e-05 0.00011776 0.20007 
2.72112e-05 1.86924e-05 0.100053 
6.1996e-05 8.96588e-05 0.200075 
2.29775e-05 2.79262e-05 0.10005 
2.56084e-05 3.31086e-05 0.156257 
4.82396e-05 1.7431e-05 0.100035 
3.47362e-05 2.95918e-05 0.100047 
3.71413e-05 1.30871e-05 0.100046 
6.27565e-05 1.43088e-05 0.155954 
3.50379e-07 1.46364e-05 0.10006 
-9.02066e-06 2.12991e-05 0.100059 
-1.06686e-05 1.0435e-05 0.100058 
-2.73738e-05 1.18722e-05 0.150379 
3.00055e-05 -9.69449e-06 0.100052 
4.09096e-05 -1.10796e-05 0.100043 
3.39295e-05 4.54892e-07 0.100049 
6.27565e-05 1.43088e-05 0.155954 
2.47556e-05 -0.00017125 0.200062 
-5.55103e-06 -5.86472e-05 0.100019 
-6.2081e-06 -4.67449e-05 0.100043 
5.28136e-06 -5.4799e-05 0.100032 
2.29775e-05 2.79262e-05 0.10005 
6.1996e-05 8.96588e-05 0.200075 
3.47362e-05 2.95918e-05 0.100047 
1.83156e-05 4.10816e-05 0.100047 
-1.74603e-05 -5.69133e-05 0.100023 
-1.78398e-05 -3.9575e-05 0.100047 
-3.29738e-05 -4.34132e-05 0.100027 
-4.73694e-05 -0.000204094 0.200041 
3.50379e-07 1.46364e-05 0.10006 
-1.39692e-05 5.52224e-05 0.200083 
-9.02066e-06 2.12991e-05 0.100059 
-2.73738e-05 1.18722e-05 0.150379 
5.58802e-05 -2.37198e-05 0.100017 
4.09096e-05 -1.10796e-05 0.100043 
0.000191302 -8.42357e-05 0.200035 
6.05317e-05 -7.46322e-06 0.100022 
-6.2081e-06 -4.67449e-05 0.100043 
-1.78398e-05 -3.9575e-05 0.100047 
-1.74603e-05 -5.69133e-05 0.100023 
-4.73694e-05 -0.000204094 0.200041 
4.09096e-05 -1.10796e-05 0.100043 
2.60305e-05 -2.07289e-05 0.100052 
0.000117563 -3.5786e-05 0.200072 
3.00055e-05 -9.69449e-06 0.100052 
-3.19851e-05 -2.71852e-05 0.100048 
-3.29738e-05 -4.34132e-05 0.100027 
-1.78398e-05 -3.9575e-05 0.100047 
-0.000117137 -0.000145527 0.200055 
-5.21181e-05 7.20726e-06 0.100023 
-5.18023e-05 8.55186e-07 0.099978 
-4.55699e-05 -7.44938e-06 0.100018 
-0.000195654 -1.95209e-06 0.200055 
-2.29086e-05 5.51526e-05 0.100023 
-7.94525e-06 4.37477e-05 0.100042 
-5.06565e-06 5.53661e-05 0.100018 
-7.1352e-05 0.000215698 0.200031 
-3.83326e-05 2.73176e-05 0.100039 
-3.9052e-05 1.28844e-05 0.100048 
-2.89866e-05 2.38834e-05 0.100048 
-4.92106e-05 4.86049e-05 0.157828 
-0.000117137 -0.000145527 0.200055 
-1.78398e-05 -3.9575e-05 0.100047 
-3.19851e-05 -2.71852e-05 0.100048 
-3.58797e-05 -3.95438e-05 0.145899 
-7.26406e-06 2.94324e-05 0.100055 
-8.0015e-05 0.00011776 0.20007 
-2.47137e-05 3.8935e-05 0.10004 
-4.92106e-05 4.86049e-05 0.157828 
6.1996e-05 8.96588e-05 0.200075 
2.72112e-05 1.86924e-05 0.100053 
3.47362e-05 2.95918e-05 0.100047 
6.27565e-05 1.43088e-05 0.155954 
-6.52429e-05 2.03433e-05 0.09989 
-5.53164e-05 1.49842e-05 0.0999735 
-6.03446e-05 2.69656e-05 0.0999712 
-0.000402841 0.00010122 0.199859 
-4.61568e-05 3.28924e-05 0.100003 
-6.03446e-05 2.69656e-05 0.0999712 
-4.8344e-05 2.27449e-05 0.100016 
-0.000180467 7.85817e-05 0.200052 
6.82601e-06 4.55458e-05 0.100036 
7.29176e-05 0.000199333 0.200046 
2.3511e-05 5.83085e-05 0.100012 
9.27463e-06 5.41236e-05 0.0999932 
-3.80425e-05 4.46992e-05 0.100021 
-2.47137e-05 3.8935e-05 0.10004 
-2.29086e-05 5.51526e-05 0.100023 
-8.0015e-05 0.00011776 0.20007 
4.21492e-06 3.80124e-05 0.100047 
6.82601e-06 4.55458e-05 0.100036 
-7.94525e-06 4.37477e-05 0.100042 
1.22206e-05 6.47679e-05 0.152131 
5.58802e-05 -2.37198e-05 0.100017 
0.000191302 -8.42357e-05 0.200035 
4.09096e-05 -1.10796e-05 0.100043 
3.8742e-05 -2.7704e-05 0.100041 
6.82601e-06 4.55458e-05 0.100036 
1.83156e-05 4.10816e-05 0.100047 
7.29176e-05 0.000199333 0.200046 
1.22206e-05 6.47679e-05 0.152131 
6.62628e-05 -1.66144e-05 0.0999877 
0.000333693 -5.62057e-05 0.19994 
4.71313e-05 -2.78628e-05 0.0999793 
4.83184e-05 -1.35016e-05 0.0999022 
2.53441e-05 -3.40384e-05 0.100044 
3.8742e-05 -2.7704e-05 0.100041 
2.60305e-05 -2.07289e-05 0.100052 
4.00455e-05 -7.92561e-05 0.158184 
-3.29738e-05 -4.34132e-05 0.100027 
-4.10081e-05 -4.21213e-05 0.0999941 
-2.95201e-05 -5.41367e-05 0.0999965 
-0.000117137 -0.000145527 0.200055 
6.62628e-05 -1.66144e-05 0.0999877 
0.00021536 -6.60223e-06 0.200039 
5.54151e-05 1.87711e-07 0.0999804 
6.05317e-05 -7.46322e-06 0.100022 
-0.000117137 -0.000145527 0.200055 
-3.19851e-05 -2.71852e-05 0.100048 
-3.91604e-05 -2.92381e-05 0.100026 
-9.53726e-05 -2.50756e-05 0.151284 
-4.8344e-05 2.27449e-05 0.100016 
-6.03446e-05 2.69656e-05 0.0999712 
-5.53164e-05 1.49842e-05 0.0999735 
-0.000304392 4.80085e-05 0.19998 
6.09189e-05 7.92342e-06 0.100019 
6.75354e-05 1.07688e-05 0.0999743 
0.00021536 -6.60223e-06 0.200039 
5.54151e-05 1.87711e-07 0.0999804 
-7.28806e-06 2.80644e-06 0.100059 
2.35166e-06 5.1993e-06 0.10006 
3.50379e-07 1.46364e-05 0.10006 
-2.73738e-05 1.18722e-05 0.150379 
-1.39692e-05 5.52224e-05 0.200083 
3.50379e-07 1.46364e-05 0.10006 
-9.02066e-06 2.12991e-05 0.100059 
1.22206e-05 6.47679e-05 0.152131 
-4.55699e-05 -7.44938e-06 0.100018 
-4.69423e-05 -3.81554e-06 0.100041 
-5.21181e-05 7.20726e-06 0.100023 
-9.53726e-05 -2.50756e-05 0.151284 
-7.85929e-06 3.04787e-05 0.0998382 
2.22118e-06 3.85654e-05 0.0999452 
1.85543e-06 3.15096e-05 0.0998219 
-6.81921e-05 0.000434552 0.19982 
0.000145874 0.000127657 0.200051 
3.47362e-05 2.95918e-05 0.100047 
1.83156e-05 4.10816e-05 0.100047 
3.20001e-05 4.2529e-05 0.100026 
-1.05306e-05 -1.09753e-05 0.100059 
-1.7716e-06 -4.07097e-06 0.10006 
-7.28806e-06 2.80644e-06 0.100059 
-2.73738e-05 1.18722e-05 0.150379 
2.60305e-05 -2.07289e-05 0.100052 
3.8742e-05 -2.7704e-05 0.100041 
0.000117563 -3.5786e-05 0.200072 
4.00455e-05 -7.92561e-05 0.158184 
-3.19851e-05 -2.71852e-05 0.100048 
-4.58566e-05 -1.82272e-05 0.100034 
-3.91604e-05 -2.92381e-05 0.100026 
-9.53726e-05 -2.50756e-05 0.151284 
-4.1319e-05 3.94485e-05 0.099967 
-5.05469e-05 3.1268e-05 0.099934 
-4.61568e-05 3.28924e-05 0.100003 
-0.000159539 0.000181181 0.20002 
-1.91968e-05 2.78376e-05 0.100051 
-7.26406e-06 2.94324e-05 0.100055 
-2.47137e-05 3.8935e-05 0.10004 
-4.92106e-05 4.86049e-05 0.157828 
-2.48284e-05 -9.27827e-06 0.100057 
-1.05306e-05 -1.09753e-05 0.100059 
-1.49658e-05 -5.09375e-07 0.100058 
-5.62932e-05 -9.34432e-06 0.150889 
6.82601e-06 4.55458e-05 0.100036 
2.3511e-05 5.83085e-05 0.100012 
7.29176e-05 0.000199333 0.200046 
1.83156e-05 4.10816e-05 0.100047 
-7.94525e-06 4.37477e-05 0.100042 
-5.06565e-06 5.53661e-05 0.100018 
-7.65052e-06 0.000152877 0.200064 
6.82601e-06 4.55458e-05 0.100036 
2.00214e-05 6.22632e-05 0.0999638 
2.3511e-05 5.83085e-05 0.100012 
7.29176e-05 0.000199333 0.200046 
9.27463e-06 5.41236e-05 0.0999932 
-7.26406e-06 2.94324e-05 0.100055 
-7.94525e-06 4.37477e-05 0.100042 
-8.0015e-05 0.00011776 0.20007 
-7.65052e-06 0.000152877 0.200064 
1.83156e-05 4.10816e-05 0.100047 
2.3511e-05 5.83085e-05 0.100012 
7.29176e-05 0.000199333 0.200046 
3.20001e-05 4.2529e-05 0.100026 
0.000117563 -3.5786e-05 0.200072 
2.60305e-05 -2.07289e-05 0.100052 
4.09096e-05 -1.10796e-05 0.100043 
3.8742e-05 -2.7704e-05 0.100041 
3.00055e-05 -9.69449e-06 0.100052 
2.60305e-05 -2.07289e-05 0.100052 
0.000117563 -3.5786e-05 0.200072 
3.3304e-05 -2.43707e-05 0.154989 
3.47362e-05 2.95918e-05 0.100047 
2.72112e-05 1.86924e-05 0.100053 
3.71413e-05 1.30871e-05 0.100046 
6.27565e-05 1.43088e-05 0.155954 
-1.74603e-05 -5.69133e-05 0.100023 
-3.29738e-05 -4.34132e-05 0.100027 
-2.95201e-05 -5.41367e-05 0.0999965 
-4.73694e-05 -0.000204094 0.200041 
-3.80425e-05 4.46992e-05 0.100021 
-4.61568e-05 3.28924e-05 0.100003 
-3.83326e-05 2.73176e-05 0.100039 
-0.000159539 0.000181181 0.20002 
-7.1352e-05 0.000215698 0.200031 
-2.29086e-05 5.51526e-05 0.100023 
-7.94525e-06 4.37477e-05 0.100042 
-8.0015e-05 0.00011776 0.20007 
3.71413e-05 1.30871e-05 0.100046 
4.56621e-05 3.1971e-06 0.100042 
4.82396e-05 1.7431e-05 0.100035 
6.27565e-05 1.43088e-05 0.155954 
2.3511e-05 5.83085e-05 0.100012 
3.36434e-05 5.82349e-05 0.0999934 
7.29176e-05 0.000199333 0.200046 
3.20001e-05 4.2529e-05 0.100026 
0.00021536 -6.60223e-06 0.200039 
0.000131594 4.08422e-05 0.200067 
6.09189e-05 7.92342e-06 0.100019 
4.56621e-05 3.1971e-06 0.100042 
-3.9052e-05 1.28844e-05 0.100048 
-3.32413e-05 -3.38461e-07 0.100054 
-2.76725e-05 1.11363e-05 0.100056 
-5.62932e-05 -9.34432e-06 0.150889 
-7.65052e-06 0.000152877 0.200064 
-4.92106e-05 4.86049e-05 0.157828 
-7.26406e-06 2.94324e-05 0.100055 
1.22206e-05 6.47679e-05 0.152131 
-1.06686e-05 1.0435e-05 0.100058 
-9.02066e-06 2.12991e-05 0.100059 
-1.97289e-05 1.78933e-05 0.100056 
-2.73738e-05 1.18722e-05 0.150379 
-1.74603e-05 -5.69133e-05 0.100023 
-5.55103e-06 -5.86472e-05 0.100019 
-6.2081e-06 -4.67449e-05 0.100043 
-4.73694e-05 -0.000204094 0.200041 
4.82396e-05 1.7431e-05 0.100035 
0.000145874 0.000127657 0.200051 
4.24837e-05 3.40717e-05 0.100015 
3.47362e-05 2.95918e-05 0.100047 
-4.73694e-05 -0.000204094 0.200041 
-5.55103e-06 -5.86472e-05 0.100019 
-6.2081e-06 -4.67449e-05 0.100043 
2.47556e-05 -0.00017125 0.200062 
5.58802e-05 -2.37198e-05 0.100017 
0.000191302 -8.42357e-05 0.200035 
6.62628e-05 -1.66144e-05 0.0999877 
6.05317e-05 -7.46322e-06 0.100022 
-3.83326e-05 2.73176e-05 0.100039 
-2.47137e-05 3.8935e-05 0.10004 
-3.80425e-05 4.46992e-05 0.100021 
-8.0015e-05 0.00011776 0.20007 
-7.26406e-06 2.94324e-05 0.100055 
-7.94525e-06 4.37477e-05 0.100042 
-7.65052e-06 0.000152877 0.200064 
1.22206e-05 6.47679e-05 0.152131 
5.28136e-06 -5.4799e-05 0.100032 
1.68971e-05 -5.55476e-05 0.100016 
1.65415e-05 -4.53499e-05 0.100038 
4.00455e-05 -7.92561e-05 0.158184 
4.56621e-05 3.1971e-06 0.100042 
3.39295e-05 4.54892e-07 0.100049 
4.09096e-05 -1.10796e-05 0.100043 
6.27565e-05 1.43088e-05 0.155954 
-5.06565e-06 5.53661e-05 0.100018 
2.22118e-06 3.85654e-05 0.0999452 
-1.53002e-05 5.05967e-05 0.0999726 
6.5647e-07 0.00028577 0.2 
7.29176e-05 0.000199333 0.200046 
3.36434e-05 5.82349e-05 0.0999934 
2.3511e-05 5.83085e-05 0.100012 
2.00214e-05 6.22632e-05 0.0999638 
3.36434e-05 5.82349e-05 0.0999934 
3.83034e-05 4.32617e-05 0.0999912 
0.000167176 0.000257869 0.199972 
3.20001e-05 4.2529e-05 0.100026 
1.35306e-05 -1.9621e-05 0.100056 
-2.63817e-07 -1.56048e-05 0.100058 
2.82143e-06 -2.87493e-05 0.100054 
-1.09149e-05 -2.79555e-05 0.151478 
-7.26406e-06 2.94324e-05 0.100055 
-1.91968e-05 2.78376e-05 0.100051 
-9.02066e-06 2.12991e-05 0.100059 
-4.92106e-05 4.86049e-05 0.157828 
-5.21181e-05 7.20726e-06 0.100023 
-3.9052e-05 1.28844e-05 0.100048 
-4.8344e-05 2.27449e-05 0.100016 
-0.000180467 7.85817e-05 0.200052 
2.72112e-05 1.86924e-05 0.100053 
2.29775e-05 2.79262e-05 0.10005 
1.81046e-05 1.97682e-05 0.100053 
2.56084e-05 3.31086e-05 0.156257 
-4.8344e-05 2.27449e-05 0.100016 
-5.53164e-05 1.49842e-05 0.0999735 
-5.21181e-05 7.20726e-06 0.100023 
-0.000304392 4.80085e-05 0.19998 
-2.48284e-05 -9.27827e-06 0.100057 
-1.81185e-05 -1.82362e-05 0.100055 
-1.05306e-05 -1.09753e-05 0.100059 
-3.58797e-05 -3.95438e-05 0.145899 
-6.2081e-06 -4.67449e-05 0.100043 
-1.78398e-05 -3.9575e-05 0.100047 
-3.43076e-05 -0.000105751 0.200072 
3.67195e-06 -6.85529e-05 0.157357 
-3.80425e-05 4.46992e-05 0.100021 
-2.29086e-05 5.51526e-05 0.100023 
-3.11394e-05 5.56202e-05 0.0999841 
-7.1352e-05 0.000215698 0.200031 
-4.73694e-05 -0.000204094 0.200041 
-1.78398e-05 -3.9575e-05 0.100047 
-3.29738e-05 -4.34132e-05 0.100027 
-0.000117137 -0.000145527 0.200055 
2.47556e-05 -0.00017125 0.200062 
5.28136e-06 -5.4799e-05 0.100032 
1.68971e-05 -5.55476e-05 0.100016 
1.62911e-06 -6.71259e-05 0.0999911 
-5.53164e-05 1.49842e-05 0.0999735 
-6.52429e-05 2.03433e-05 0.09989 
-4.53201e-05 8.48944e-06 0.0998868 
-0.000402841 0.00010122 0.199859 
1.12477e-05 1.12839e-05 0.100057 
3.50379e-07 1.46364e-05 0.10006 
2.35166e-06 5.1993e-06 0.10006 
2.56084e-05 3.31086e-05 0.156257 
4.56621e-05 3.1971e-06 0.100042 
6.09189e-05 7.92342e-06 0.100019 
0.00021536 -6.60223e-06 0.200039 
6.05317e-05 -7.46322e-06 0.100022 
-4.73694e-05 -0.000204094 0.200041 
-6.2081e-06 -4.67449e-05 0.100043 
-1.78398e-05 -3.9575e-05 0.100047 
-3.43076e-05 -0.000105751 0.200072 
0.000117563 -3.5786e-05 0.200072 
0.000191302 -8.42357e-05 0.200035 
4.09096e-05 -1.10796e-05 0.100043 
6.05317e-05 -7.46322e-06 0.100022 
-2.42004e-05 3.37462e-05 0.0998812 
-3.11394e-05 5.56202e-05 0.0999841 
-1.53002e-05 5.05967e-05 0.0999726 
-0.000138974 0.000292305 0.199944 
-1.06686e-05 1.0435e-05 0.100058 
-7.28806e-06 2.80644e-06 0.100059 
3.50379e-07 1.46364e-05 0.10006 
-2.73738e-05 1.18722e-05 0.150379 
-2.73231e-05 -6.16719e-05 0.0999002 
-1.47519e-05 -6.37192e-05 0.0999789 
-2.95201e-05 -5.41367e-05 0.0999965 
-6.25002e-05 -0.000367434 0.1999 
6.1996e-05 8.96588e-05 0.200075 
2.56084e-05 3.31086e-05 0.156257 
2.72112e-05 1.86924e-05 0.100053 
6.27565e-05 1.43088e-05 0.155954 
-7.26406e-06 2.94324e-05 0.100055 
-4.92106e-05 4.86049e-05 0.157828 
-9.02066e-06 2.12991e-05 0.100059 
1.22206e-05 6.47679e-05 0.152131 
-7.28806e-06 2.80644e-06 0.100059 
-1.49658e-05 -5.09375e-07 0.100058 
-1.05306e-05 -1.09753e-05 0.100059 
-2.73738e-05 1.18722e-05 0.150379 
-3.29738e-05 -4.34132e-05 0.100027 
-3.19851e-05 -2.71852e-05 0.100048 
-3.91604e-05 -2.92381e-05 0.100026 
-0.000117137 -0.000145527 0.200055 
-6.2081e-06 -4.67449e-05 0.100043 
-7.14711e-06 -3.47554e-05 0.100051 
-1.78398e-05 -3.9575e-05 0.100047 
3.67195e-06 -6.85529e-05 0.157357 
6.82601e-06 4.55458e-05 0.100036 
-5.06565e-06 5.53661e-05 0.100018 
6.5647e-07 0.00028577 0.2 
9.27463e-06 5.41236e-05 0.0999932 
0.000614334 -2.48593e-05 0.199307 
0.000233958 2.59389e-06 0.148646 
2.43334e-05 -8.1768e-06 0.0996381 
7.51463e-06 5.33769e-06 0.0995691 
-1.85941e-05 7.45005e-06 0.100058 
-1.97289e-05 1.78933e-05 0.100056 
-2.76725e-05 1.11363e-05 0.100056 
-4.92106e-05 4.86049e-05 0.157828 
-4.68848e-05 -3.02534e-05 0.099973 
-0.000337529 -0.000236286 0.199798 
-4.71991e-05 -3.14745e-05 0.0998614 
-3.50716e-05 -2.88763e-05 0.0999037 
3.36434e-05 5.82349e-05 0.0999934 
0.000167176 0.000257869 0.199972 
7.29176e-05 0.000199333 0.200046 
3.20001e-05 4.2529e-05 0.100026 
6.09189e-05 7.92342e-06 0.100019 
0.000131594 4.08422e-05 0.200067 
0.000233312 7.26146e-05 0.200022 
4.82396e-05 1.7431e-05 0.100035 
-7.1352e-05 0.000215698 0.200031 
-3.80425e-05 4.46992e-05 0.100021 
-2.29086e-05 5.51526e-05 0.100023 
-8.0015e-05 0.00011776 0.20007 
-7.94525e-06 4.37477e-05 0.100042 
-5.06565e-06 5.53661e-05 0.100018 
-7.1352e-05 0.000215698 0.200031 
-7.65052e-06 0.000152877 0.200064 
-0.000323947 -3.66112e-05 0.199957 
-4.55699e-05 -7.44938e-06 0.100018 
-5.18023e-05 8.55186e-07 0.099978 
-0.000195654 -1.95209e-06 0.200055 
-4.73694e-05 -0.000204094 0.200041 
-3.29738e-05 -4.34132e-05 0.100027 
-2.95201e-05 -5.41367e-05 0.0999965 
-0.000117137 -0.000145527 0.200055 
0.000191302 -8.42357e-05 0.200035 
0.00021536 -6.60223e-06 0.200039 
6.62628e-05 -1.66144e-05 0.0999877 
6.05317e-05 -7.46322e-06 0.100022 
-6.52429e-05 2.03433e-05 0.09989 
-6.03446e-05 2.69656e-05 0.0999712 
-4.6685e-05 2.01706e-05 0.0998478 
-0.000402841 0.00010122 0.199859 
-3.91604e-05 -2.92381e-05 0.100026 
-4.10081e-05 -4.21213e-05 0.0999941 
-3.29738e-05 -4.34132e-05 0.100027 
-0.000117137 -0.000145527 0.200055 
-7.65052e-06 0.000152877 0.200064 
-8.0015e-05 0.00011776 0.20007 
-7.26406e-06 2.94324e-05 0.100055 
-4.92106e-05 4.86049e-05 0.157828 
2.53441e-05 -3.40384e-05 0.100044 
2.53648e-05 -3.74752e-05 0.100032 
3.8742e-05 -2.7704e-05 0.100041 
4.00455e-05 -7.92561e-05 0.158184 
-2.63817e-07 -1.56048e-05 0.100058 
6.64819e-06 -2.61503e-06 0.100059 
-1.7716e-06 -4.07097e-06 0.10006 
4.18319e-06 2.09035e-06 0.157842 
-7.14711e-06 -3.47554e-05 0.100051 
-1.78398e-05 -3.9575e-05 0.100047 
3.67195e-06 -6.85529e-05 0.157357 
-3.58797e-05 -3.95438e-05 0.145899 
-0.000159539 0.000181181 0.20002 
-3.83326e-05 2.73176e-05 0.100039 
-3.80425e-05 4.46992e-05 0.100021 
-8.0015e-05 0.00011776 0.20007 
-2.76725e-05 1.11363e-05 0.100056 
-2.44229e-05 -3.80804e-08 0.100056 
-1.85941e-05 7.45005e-06 0.100058 
-5.62932e-05 -9.34432e-06 0.150889 
4.56621e-05 3.1971e-06 0.100042 
4.09096e-05 -1.10796e-05 0.100043 
0.000117563 -3.5786e-05 0.200072 
6.27565e-05 1.43088e-05 0.155954 
-3.83326e-05 2.73176e-05 0.100039 
-0.000180467 7.85817e-05 0.200052 
-3.9052e-05 1.28844e-05 0.100048 
-4.92106e-05 4.86049e-05 0.157828 
2.42034e-05 7.68226e-06 0.100055 
1.49694e-05 3.83395e-07 0.100059 
2.12594e-05 -7.44716e-06 0.100055 
6.27565e-05 1.43088e-05 0.155954 
3.00055e-05 -9.69449e-06 0.100052 
3.39295e-05 4.54892e-07 0.100049 
2.12594e-05 -7.44716e-06 0.100055 
6.27565e-05 1.43088e-05 0.155954 
-3.9052e-05 1.28844e-05 0.100048 
-2.76725e-05 1.11363e-05 0.100056 
-9.37895e-05 2.59347e-05 0.20008 
-5.62932e-05 -9.34432e-06 0.150889 
-0.000354828 -0.000128404 0.199897 
-5.72968e-05 -2.22684e-05 0.0998967 
-4.68848e-05 -3.02534e-05 0.099973 
-4.71991e-05 -3.14745e-05 0.0998614 
-3.9052e-05 1.28844e-05 0.100048 
-2.76725e-05 1.11363e-05 0.100056 
-2.89866e-05 2.38834e-05 0.100048 
-4.92106e-05 4.86049e-05 0.157828 
0.000191302 -8.42357e-05 0.200035 
0.000117563 -3.5786e-05 0.200072 
4.09096e-05 -1.10796e-05 0.100043 
3.8742e-05 -2.7704e-05 0.100041 
3.00055e-05 -9.69449e-06 0.100052 
0.000117563 -3.5786e-05 0.200072 
4.09096e-05 -1.10796e-05 0.100043 
6.27565e-05 1.43088e-05 0.155954 
-4.68848e-05 -3.02534e-05 0.099973 
-3.91604e-05 -2.92381e-05 0.100026 
-4.58569e-05 -2.07977e-05 0.100003 
-0.000217476 -9.14479e-05 0.200034 
0.000333693 -5.62057e-05 0.19994 
4.71313e-05 -2.78628e-05 0.0999793 
0.000191302 -8.42357e-05 0.200035 
6.62628e-05 -1.66144e-05 0.0999877 
1.83156e-05 4.10816e-05 0.100047 
7.29176e-05 0.000199333 0.200046 
0.000145874 0.000127657 0.200051 
3.20001e-05 4.2529e-05 0.100026 
-9.37895e-05 2.59347e-05 0.20008 
-3.9052e-05 1.28844e-05 0.100048 
-5.62932e-05 -9.34432e-06 0.150889 
-9.53726e-05 -2.50756e-05 0.151284 
2.35166e-06 5.1993e-06 0.10006 
6.64819e-06 -2.61503e-06 0.100059 
1.12477e-05 1.12839e-05 0.100057 
4.18319e-06 2.09035e-06 0.157842 
0.000233958 2.59389e-06 0.148646 
0.000614334 -2.48593e-05 0.199307 
0.000571084 4.2848e-05 0.19959 
7.51463e-06 5.33769e-06 0.0995691 
-0.000337529 -0.000236286 0.199798 
-0.000354828 -0.000128404 0.199897 
-4.68848e-05 -3.02534e-05 0.099973 
-4.71991e-05 -3.14745e-05 0.0998614 
8.82513e-05 -0.00023561 0.200013 
2.53648e-05 -3.74752e-05 0.100032 
1.68971e-05 -5.55476e-05 0.100016 
4.00455e-05 -7.92561e-05 0.158184 
1.35306e-05 -1.9621e-05 0.100056 
2.82143e-06 -2.87493e-05 0.100054 
1.54212e-05 -3.3144e-05 0.100052 
3.67195e-06 -6.85529e-05 0.157357 
5.58802e-05 -2.37198e-05 0.100017 
4.37893e-05 -4.04e-05 0.100013 
0.000191302 -8.42357e-05 0.200035 
3.8742e-05 -2.7704e-05 0.100041 
0.00021536 -6.60223e-06 0.200039 
4.56621e-05 3.1971e-06 0.100042 
0.000117563 -3.5786e-05 0.200072 
6.27565e-05 1.43088e-05 0.155954 
-4.53201e-05 8.48944e-06 0.0998868 
-6.52429e-05 2.03433e-05 0.09989 
-2.93425e-05 1.29084e-05 0.0997196 
-0.000402841 0.00010122 0.199859 
4.21492e-06 3.80124e-05 0.100047 
1.83156e-05 4.10816e-05 0.100047 
6.82601e-06 4.55458e-05 0.100036 
1.22206e-05 6.47679e-05 0.152131 
6.75354e-05 1.07688e-05 0.0999743 
0.00021536 -6.60223e-06 0.200039 
0.000233312 7.26146e-05 0.200022 
6.09189e-05 7.92342e-06 0.100019 
-3.9052e-05 1.28844e-05 0.100048 
-9.37895e-05 2.59347e-05 0.20008 
-2.76725e-05 1.11363e-05 0.100056 
-4.92106e-05 4.86049e-05 0.157828 
-0.000323947 -3.66112e-05 0.199957 
-5.18023e-05 8.55186e-07 0.099978 
-4.55699e-05 -7.44938e-06 0.100018 
-5.5533e-05 -1.24286e-05 0.099958 
-0.000643621 -3.29165e-05 0.199437 
-0.000717163 2.65952e-05 0.199324 
-9.09223e-06 6.55199e-06 0.099644 
-0.000219178 1.89781e-06 0.148615 
-3.11894e-05 -4.6494e-05 0.0999213 
-4.10081e-05 -4.21213e-05 0.0999941 
-3.50716e-05 -2.88763e-05 0.0999037 
-0.000224997 -0.000195954 0.199972 
6.64819e-06 -2.61503e-06 0.100059 
1.0665e-05 -1.07206e-05 0.100056 
1.49694e-05 3.83395e-07 0.100059 
3.3304e-05 -2.43707e-05 0.154989 
5.28136e-06 -5.4799e-05 0.100032 
4.34401e-06 -4.13329e-05 0.100046 
-6.2081e-06 -4.67449e-05 0.100043 
3.67195e-06 -6.85529e-05 0.157357 
4.82396e-05 1.7431e-05 0.100035 
4.24837e-05 3.40717e-05 0.100015 
0.000233312 7.26146e-05 0.200022 
6.26998e-05 2.19385e-05 0.0999969 
-0.000117137 -0.000145527 0.200055 
-3.43076e-05 -0.000105751 0.200072 
-1.78398e-05 -3.9575e-05 0.100047 
-3.58797e-05 -3.95438e-05 0.145899 
6.1996e-05 8.96588e-05 0.200075 
1.83156e-05 4.10816e-05 0.100047 
2.29775e-05 2.79262e-05 0.10005 
1.22206e-05 6.47679e-05 0.152131 
1.68971e-05 -5.55476e-05 0.100016 
1.72913e-05 -4.87396e-05 0.0999604 
8.82513e-05 -0.00023561 0.200013 
1.62911e-06 -6.71259e-05 0.0999911 
-0.000180467 7.85817e-05 0.200052 
-5.21181e-05 7.20726e-06 0.100023 
-3.9052e-05 1.28844e-05 0.100048 
-0.000195654 -1.95209e-06 0.200055 
0.000233312 7.26146e-05 0.200022 
6.09189e-05 7.92342e-06 0.100019 
4.82396e-05 1.7431e-05 0.100035 
6.26998e-05 2.19385e-05 0.0999969 
1.01356e-05 5.20172e-05 0.0999067 
6.5647e-07 0.00028577 0.2 
2.22118e-06 3.85654e-05 0.0999452 
9.27463e-06 5.41236e-05 0.0999932 
4.82396e-05 1.7431e-05 0.100035 
0.000131594 4.08422e-05 0.200067 
3.47362e-05 2.95918e-05 0.100047 
6.27565e-05 1.43088e-05 0.155954 
-5.53164e-05 1.49842e-05 0.0999735 
-5.18023e-05 8.55186e-07 0.099978 
-5.21181e-05 7.20726e-06 0.100023 
-0.000304392 4.80085e-05 0.19998 
-4.73694e-05 -0.000204094 0.200041 
2.47556e-05 -0.00017125 0.200062 
-6.2081e-06 -4.67449e-05 0.100043 
3.67195e-06 -6.85529e-05 0.157357 
3.47362e-05 2.95918e-05 0.100047 
6.1996e-05 8.96588e-05 0.200075 
0.000145874 0.000127657 0.200051 
1.83156e-05 4.10816e-05 0.100047 
-0.000354828 -0.000128404 0.199897 
-5.57768e-05 -1.71737e-05 0.0998385 
-0.000465418 -6.19477e-05 0.199773 
-5.5533e-05 -1.24286e-05 0.099958 
-4.1319e-05 3.94485e-05 0.099967 
-3.80425e-05 4.46992e-05 0.100021 
-3.11394e-05 5.56202e-05 0.0999841 
-0.000159539 0.000181181 0.20002 
6.75354e-05 1.07688e-05 0.0999743 
0.000373729 2.28709e-05 0.199907 
0.00021536 -6.60223e-06 0.200039 
5.54151e-05 1.87711e-07 0.0999804 
-6.03446e-05 2.69656e-05 0.0999712 
-4.8344e-05 2.27449e-05 0.100016 
-0.000180467 7.85817e-05 0.200052 
-0.000304392 4.80085e-05 0.19998 
-4.55699e-05 -7.44938e-06 0.100018 
-4.58569e-05 -2.07977e-05 0.100003 
-4.58566e-05 -1.82272e-05 0.100034 
-9.53726e-05 -2.50756e-05 0.151284 
-2.29086e-05 5.51526e-05 0.100023 
-5.06565e-06 5.53661e-05 0.100018 
-1.53002e-05 5.05967e-05 0.0999726 
-7.1352e-05 0.000215698 0.200031 
0.000131594 4.08422e-05 0.200067 
4.82396e-05 1.7431e-05 0.100035 
4.56621e-05 3.1971e-06 0.100042 
6.27565e-05 1.43088e-05 0.155954 
0.00021536 -6.60223e-06 0.200039 
6.09189e-05 7.92342e-06 0.100019 
5.54151e-05 1.87711e-07 0.0999804 
6.05317e-05 -7.46322e-06 0.100022 
3.84617e-05 -2.06054e-05 0.0998836 
2.5542e-05 -3.21784e-05 0.0997541 
0.000262779 -0.00029797 0.199816 
3.75629e-05 -4.14227e-05 0.0999405 
3.50379e-07 1.46364e-05 0.10006 
2.56084e-05 3.31086e-05 0.156257 
-1.39692e-05 5.52224e-05 0.200083 
-2.73738e-05 1.18722e-05 0.150379 
6.62628e-05 -1.66144e-05 0.0999877 
4.71313e-05 -2.78628e-05 0.0999793 
0.000191302 -8.42357e-05 0.200035 
5.58802e-05 -2.37198e-05 0.100017 
1.49694e-05 3.83395e-07 0.100059 
2.42034e-05 7.68226e-06 0.100055 
1.12477e-05 1.12839e-05 0.100057 
2.56084e-05 3.31086e-05 0.156257 
6.5647e-07 0.00028577 0.2 
7.29176e-05 0.000199333 0.200046 
6.82601e-06 4.55458e-05 0.100036 
9.27463e-06 5.41236e-05 0.0999932 
-5.05469e-05 3.1268e-05 0.099934 
-4.1319e-05 3.94485e-05 0.099967 
-0.000239537 0.000287478 0.199859 
-0.000159539 0.000181181 0.20002 
-2.79879e-05 0.000610198 0.199443 
-7.85929e-06 3.04787e-05 0.0998382 
1.85543e-06 3.15096e-05 0.0998219 
-6.81921e-05 0.000434552 0.19982 
-9.02066e-06 2.12991e-05 0.100059 
2.04377e-06 2.70331e-05 0.100055 
-7.26406e-06 2.94324e-05 0.100055 
1.22206e-05 6.47679e-05 0.152131 
-4.58569e-05 -2.07977e-05 0.100003 
-5.5533e-05 -1.24286e-05 0.099958 
-0.000354828 -0.000128404 0.199897 
-0.000217476 -9.14479e-05 0.200034 
-3.43076e-05 -0.000105751 0.200072 
-4.73694e-05 -0.000204094 0.200041 
-6.2081e-06 -4.67449e-05 0.100043 
3.67195e-06 -6.85529e-05 0.157357 
4.82396e-05 1.7431e-05 0.100035 
0.000131594 4.08422e-05 0.200067 
0.000145874 0.000127657 0.200051 
3.47362e-05 2.95918e-05 0.100047 
-3.83326e-05 2.73176e-05 0.100039 
-2.89866e-05 2.38834e-05 0.100048 
-2.47137e-05 3.8935e-05 0.10004 
-4.92106e-05 4.86049e-05 0.157828 
-4.8344e-05 2.27449e-05 0.100016 
-3.83326e-05 2.73176e-05 0.100039 
-4.61568e-05 3.28924e-05 0.100003 
-0.000180467 7.85817e-05 0.200052 
-4.68848e-05 -3.02534e-05 0.099973 
-5.72968e-05 -2.22684e-05 0.0998967 
-0.000354828 -0.000128404 0.199897 
-4.58569e-05 -2.07977e-05 0.100003 
-5.57768e-05 -1.71737e-05 0.0998385 
-4.41431e-05 -5.08118e-06 0.0998697 
-0.000465418 -6.19477e-05 0.199773 
-5.5533e-05 -1.24286e-05 0.099958 
0.000131594 4.08422e-05 0.200067 
4.56621e-05 3.1971e-06 0.100042 
0.00021536 -6.60223e-06 0.200039 
6.27565e-05 1.43088e-05 0.155954 
-5.72968e-05 -2.22684e-05 0.0998967 
-5.57768e-05 -1.71737e-05 0.0998385 
-0.000354828 -0.000128404 0.199897 
-5.5533e-05 -1.24286e-05 0.099958 
-5.18023e-05 8.55186e-07 0.099978 
-5.21181e-05 7.20726e-06 0.100023 
-0.000304392 4.80085e-05 0.19998 
-0.000195654 -1.95209e-06 0.200055 
6.82601e-06 4.55458e-05 0.100036 
7.29176e-05 0.000199333 0.200046 
-7.65052e-06 0.000152877 0.200064 
1.22206e-05 6.47679e-05 0.152131 
4.07218e-05 3.08412e-05 0.0999026 
0.000403265 0.000299758 0.199549 
4.93408e-05 2.06597e-05 0.0998533 
2.60351e-05 3.02084e-05 0.0996995 
5.28136e-06 -5.4799e-05 0.100032 
-6.2081e-06 -4.67449e-05 0.100043 
2.47556e-05 -0.00017125 0.200062 
3.67195e-06 -6.85529e-05 0.157357 
3.66889e-05 -2.47289e-05 0.099731 
2.5542e-05 -3.21784e-05 0.0997541 
0.000470021 -0.000214704 0.199503 
3.84617e-05 -2.06054e-05 0.0998836 
0.000117563 -3.5786e-05 0.200072 
3.3304e-05 -2.43707e-05 0.154989 
2.60305e-05 -2.07289e-05 0.100052 
4.00455e-05 -7.92561e-05 0.158184 
-5.5533e-05 -1.24286e-05 0.099958 
-0.000354828 -0.000128404 0.199897 
-5.72968e-05 -2.22684e-05 0.0998967 
-4.58569e-05 -2.07977e-05 0.100003 
-7.85929e-06 3.04787e-05 0.0998382 
-1.80177e-05 3.27343e-05 0.0996951 
-0.000108641 0.000555786 0.199462 
-2.79879e-05 0.000610198 0.199443 
2.29775e-05 2.79262e-05 0.10005 
1.28013e-05 3.08063e-05 0.100052 
1.81046e-05 1.97682e-05 0.100053 
2.56084e-05 3.31086e-05 0.156257 
3.8742e-05 -2.7704e-05 0.100041 
4.37893e-05 -4.04e-05 0.100013 
0.000106414 -0.000123092 0.200054 
2.53648e-05 -3.74752e-05 0.100032 
1.12477e-05 1.12839e-05 0.100057 
6.64819e-06 -2.61503e-06 0.100059 
1.49694e-05 3.83395e-07 0.100059 
4.18319e-06 2.09035e-06 0.157842 
-3.20611e-06 -1.55851e-05 0.0996728 
3.20634e-05 -0.000602932 0.199473 
4.46314e-07 -0.000228302 0.148614 
5.95926e-06 -1.57217e-05 0.0995966 
-6.81921e-05 0.000434552 0.19982 
2.22118e-06 3.85654e-05 0.0999452 
1.85543e-06 3.15096e-05 0.0998219 
1.73747e-05 0.000466829 0.199793 
-2.83206e-05 4.36499e-05 0.099905 
-4.1319e-05 3.94485e-05 0.099967 
-3.11394e-05 5.56202e-05 0.0999841 
-0.000138974 0.000292305 0.199944 
-7.85929e-06 3.04787e-05 0.0998382 
1.85543e-06 3.15096e-05 0.0998219 
-8.05101e-06 2.79562e-05 0.0996153 
-2.79879e-05 0.000610198 0.199443 
6.5647e-07 0.00028577 0.2 
-7.65052e-06 0.000152877 0.200064 
-5.06565e-06 5.53661e-05 0.100018 
6.82601e-06 4.55458e-05 0.100036 
-2.63817e-07 -1.56048e-05 0.100058 
1.35306e-05 -1.9621e-05 0.100056 
1.0665e-05 -1.07206e-05 0.100056 
3.3304e-05 -2.43707e-05 0.154989 
-4.58569e-05 -2.07977e-05 0.100003 
-0.000354828 -0.000128404 0.199897 
-4.68848e-05 -3.02534e-05 0.099973 
-0.000217476 -9.14479e-05 0.200034 
2.5542e-05 -3.21784e-05 0.0997541 
0.000387817 -0.000299588 0.199624 
0.000470021 -0.000214704 0.199503 
3.84617e-05 -2.06054e-05 0.0998836 
-1.78398e-05 -3.9575e-05 0.100047 
-7.14711e-06 -3.47554e-05 0.100051 
-1.95758e-05 -2.81997e-05 0.100051 
-3.58797e-05 -3.95438e-05 0.145899 
2.42034e-05 7.68226e-06 0.100055 
2.72112e-05 1.86924e-05 0.100053 
1.81046e-05 1.97682e-05 0.100053 
2.56084e-05 3.31086e-05 0.156257 
2.64982e-05 -4.70564e-05 0.0999822 
8.82513e-05 -0.00023561 0.200013 
0.000185134 -0.000194418 0.199989 
2.53648e-05 -3.74752e-05 0.100032 
-8.0015e-05 0.00011776 0.20007 
-7.94525e-06 4.37477e-05 0.100042 
-7.1352e-05 0.000215698 0.200031 
-7.65052e-06 0.000152877 0.200064 
6.09189e-05 7.92342e-06 0.100019 
0.000233312 7.26146e-05 0.200022 
6.75354e-05 1.07688e-05 0.0999743 
6.26998e-05 2.19385e-05 0.0999969 
-0.000217476 -9.14479e-05 0.200034 
-0.000117137 -0.000145527 0.200055 
-3.91604e-05 -2.92381e-05 0.100026 
-9.53726e-05 -2.50756e-05 0.151284 
-4.61568e-05 3.28924e-05 0.100003 
-6.03446e-05 2.69656e-05 0.0999712 
-0.000180467 7.85817e-05 0.200052 
-0.000288311 0.00016015 0.199941 
-1.80177e-05 3.27343e-05 0.0996951 
-7.85929e-06 3.04787e-05 0.0998382 
-8.05101e-06 2.79562e-05 0.0996153 
-2.79879e-05 0.000610198 0.199443 
2.53648e-05 -3.74752e-05 0.100032 
2.64982e-05 -4.70564e-05 0.0999822 
8.82513e-05 -0.00023561 0.200013 
1.68971e-05 -5.55476e-05 0.100016 
-1.05306e-05 -1.09753e-05 0.100059 
-2.73738e-05 1.18722e-05 0.150379 
-1.49658e-05 -5.09375e-07 0.100058 
-5.62932e-05 -9.34432e-06 0.150889 
-4.04487e-05 -1.98403e-05 0.0997295 
-0.000337529 -0.000236286 0.199798 
-0.000364036 -0.000315265 0.19953 
-3.50716e-05 -2.88763e-05 0.0999037 
-1.74603e-05 -5.69133e-05 0.100023 
-2.95201e-05 -5.41367e-05 0.0999965 
-1.47519e-05 -6.37192e-05 0.0999789 
-4.73694e-05 -0.000204094 0.200041 
3.3193e-05 0.000646532 0.199376 
1.85543e-06 3.15096e-05 0.0998219 
-2.79879e-05 0.000610198 0.199443 
8.49044e-06 3.37106e-05 0.0996727 
-4.10081e-05 -4.21213e-05 0.0999941 
-3.91604e-05 -2.92381e-05 0.100026 
-4.68848e-05 -3.02534e-05 0.099973 
-0.000224997 -0.000195954 0.199972 
0.000233312 7.26146e-05 0.200022 
5.26181e-05 3.07291e-05 0.0999722 
5.44003e-05 1.83981e-05 0.0999154 
6.26998e-05 2.19385e-05 0.0999969 
-0.000159539 0.000181181 0.20002 
-4.61568e-05 3.28924e-05 0.100003 
-3.83326e-05 2.73176e-05 0.100039 
-0.000180467 7.85817e-05 0.200052 
-5.72968e-05 -2.22684e-05 0.0998967 
-5.57768e-05 -1.71737e-05 0.0998385 
-3.62094e-05 -2.04487e-05 0.0997118 
-0.000354828 -0.000128404 0.199897 
2.29775e-05 2.79262e-05 0.10005 
1.83156e-05 4.10816e-05 0.100047 
1.28013e-05 3.08063e-05 0.100052 
1.22206e-05 6.47679e-05 0.152131 
-0.000304392 4.80085e-05 0.19998 
-6.03446e-05 2.69656e-05 0.0999712 
-5.53164e-05 1.49842e-05 0.0999735 
-0.000402841 0.00010122 0.199859 
-7.1352e-05 0.000215698 0.200031 
-5.06565e-06 5.53661e-05 0.100018 
-1.53002e-05 5.05967e-05 0.0999726 
6.5647e-07 0.00028577 0.2 
4.37893e-05 -4.04e-05 0.100013 
2.64982e-05 -4.70564e-05 0.0999822 
0.000185134 -0.000194418 0.199989 
2.53648e-05 -3.74752e-05 0.100032 
-1.47519e-05 -6.37192e-05 0.0999789 
-5.55103e-06 -5.86472e-05 0.100019 
-4.73694e-05 -0.000204094 0.200041 
1.79435e-05 -0.000302394 0.199991 
7.29176e-05 0.000199333 0.200046 
8.50239e-05 0.000341188 0.199923 
2.00214e-05 6.22632e-05 0.0999638 
9.27463e-06 5.41236e-05 0.0999932 
-3.9052e-05 1.28844e-05 0.100048 
-3.83326e-05 2.73176e-05 0.100039 
-4.8344e-05 2.27449e-05 0.100016 
-0.000180467 7.85817e-05 0.200052 
-3.19851e-05 -2.71852e-05 0.100048 
-9.86104e-05 -5.75158e-05 0.200075 
-0.000117137 -0.000145527 0.200055 
-3.58797e-05 -3.95438e-05 0.145899 
2.35166e-06 5.1993e-06 0.10006 
4.18319e-06 2.09035e-06 0.157842 
3.50379e-07 1.46364e-05 0.10006 
-2.73738e-05 1.18722e-05 0.150379 
5.44003e-05 1.83981e-05 0.0999154 
6.75354e-05 1.07688e-05 0.0999743 
0.000233312 7.26146e-05 0.200022 
6.26998e-05 2.19385e-05 0.0999969 
-0.000117137 -0.000145527 0.200055 
-9.86104e-05 -5.75158e-05 0.200075 
-3.19851e-05 -2.71852e-05 0.100048 
-9.53726e-05 -2.50756e-05 0.151284 
-4.71991e-05 -3.14745e-05 0.0998614 
-0.000431251 -0.000202804 0.199688 
-5.72968e-05 -2.22684e-05 0.0998967 
-4.32109e-05 -1.97336e-05 0.0997364 
-7.94525e-06 4.37477e-05 0.100042 
6.82601e-06 4.55458e-05 0.100036 
-7.65052e-06 0.000152877 0.200064 
1.22206e-05 6.47679e-05 0.152131 
-7.85929e-06 3.04787e-05 0.0998382 
-1.53002e-05 5.05967e-05 0.0999726 
2.22118e-06 3.85654e-05 0.0999452 
-6.81921e-05 0.000434552 0.19982 
3.50379e-07 1.46364e-05 0.10006 
4.18319e-06 2.09035e-06 0.157842 
2.56084e-05 3.31086e-05 0.156257 
-2.73738e-05 1.18722e-05 0.150379 
-0.000159539 0.000181181 0.20002 
-3.80425e-05 4.46992e-05 0.100021 
-3.11394e-05 5.56202e-05 0.0999841 
-7.1352e-05 0.000215698 0.200031 
-3.83326e-05 2.73176e-05 0.100039 
-2.47137e-05 3.8935e-05 0.10004 
-8.0015e-05 0.00011776 0.20007 
-4.92106e-05 4.86049e-05 0.157828 
-9.37895e-05 2.59347e-05 0.20008 
-0.000195654 -1.95209e-06 0.200055 
-3.9052e-05 1.28844e-05 0.100048 
-9.53726e-05 -2.50756e-05 0.151284 
4.37893e-05 -4.04e-05 0.100013 
0.000106414 -0.000123092 0.200054 
0.000191302 -8.42357e-05 0.200035 
3.8742e-05 -2.7704e-05 0.100041 
-1.74603e-05 -5.69133e-05 0.100023 
-1.47519e-05 -6.37192e-05 0.0999789 
-5.55103e-06 -5.86472e-05 0.100019 
-4.73694e-05 -0.000204094 0.200041 
-4.61568e-05 3.28924e-05 0.100003 
-3.80425e-05 4.46992e-05 0.100021 
-4.1319e-05 3.94485e-05 0.099967 
-0.000159539 0.000181181 0.20002 
-1.78398e-05 -3.9575e-05 0.100047 
-1.95758e-05 -2.81997e-05 0.100051 
-3.19851e-05 -2.71852e-05 0.100048 
-3.58797e-05 -3.95438e-05 0.145899 
1.66274e-05 2.8631e-05 0.0996962 
0.000128146 0.000173085 0.148992 
0.000232799 0.00049479 0.199393 
2.00884e-05 1.34031e-05 0.0997219 
2.42034e-05 7.68226e-06 0.100055 
2.56084e-05 3.31086e-05 0.156257 
1.49694e-05 3.83395e-07 0.100059 
6.27565e-05 1.43088e-05 0.155954 
-1.47519e-05 -6.37192e-05 0.0999789 
-5.55103e-06 -5.86472e-05 0.100019 
1.79435e-05 -0.000302394 0.199991 
1.62911e-06 -6.71259e-05 0.0999911 
-0.000138974 0.000292305 0.199944 
-3.11394e-05 5.56202e-05 0.0999841 
-1.53002e-05 5.05967e-05 0.0999726 
-7.1352e-05 0.000215698 0.200031 
1.49694e-05 3.83395e-07 0.100059 
2.56084e-05 3.31086e-05 0.156257 
4.18319e-06 2.09035e-06 0.157842 
3.3304e-05 -2.43707e-05 0.154989 
8.50239e-05 0.000341188 0.199923 
1.01356e-05 5.20172e-05 0.0999067 
2.00214e-05 6.22632e-05 0.0999638 
9.27463e-06 5.41236e-05 0.0999932 
0.000131594 4.08422e-05 0.200067 
6.1996e-05 8.96588e-05 0.200075 
3.47362e-05 2.95918e-05 0.100047 
6.27565e-05 1.43088e-05 0.155954 
-3.11394e-05 5.56202e-05 0.0999841 
-2.29086e-05 5.51526e-05 0.100023 
-1.53002e-05 5.05967e-05 0.0999726 
-7.1352e-05 0.000215698 0.200031 
7.29176e-05 0.000199333 0.200046 
1.83156e-05 4.10816e-05 0.100047 
6.1996e-05 8.96588e-05 0.200075 
1.22206e-05 6.47679e-05 0.152131 
-2.83206e-05 4.36499e-05 0.099905 
-3.11394e-05 5.56202e-05 0.0999841 
-2.42004e-05 3.37462e-05 0.0998812 
-0.000138974 0.000292305 0.199944 
0.000333693 -5.62057e-05 0.19994 
0.000320652 -0.000179116 0.199874 
4.71313e-05 -2.78628e-05 0.0999793 
4.83184e-05 -1.35016e-05 0.0999022 
-1.05306e-05 -1.09753e-05 0.100059 
-1.7716e-06 -4.07097e-06 0.10006 
-2.73738e-05 1.18722e-05 0.150379 
-1.09149e-05 -2.79555e-05 0.151478 
2.53648e-05 -3.74752e-05 0.100032 
1.65415e-05 -4.53499e-05 0.100038 
1.68971e-05 -5.55476e-05 0.100016 
4.00455e-05 -7.92561e-05 0.158184 
-6.81921e-05 0.000434552 0.19982 
-1.53002e-05 5.05967e-05 0.0999726 
2.22118e-06 3.85654e-05 0.0999452 
6.5647e-07 0.00028577 0.2 
-1.39692e-05 5.52224e-05 0.200083 
2.56084e-05 3.31086e-05 0.156257 
3.50379e-07 1.46364e-05 0.10006 
1.22206e-05 6.47679e-05 0.152131 
-5.05469e-05 3.1268e-05 0.099934 
-4.61568e-05 3.28924e-05 0.100003 
-0.000159539 0.000181181 0.20002 
-0.000288311 0.00016015 0.199941 
1.85543e-06 3.15096e-05 0.0998219 
-8.05101e-06 2.79562e-05 0.0996153 
-2.79879e-05 0.000610198 0.199443 
8.49044e-06 3.37106e-05 0.0996727 
0.000219663 -5.4346e-05 0.148874 
0.000203436 -2.7666e-05 0.148866 
3.34416e-05 -1.79446e-05 0.0997097 
0.000614334 -2.48593e-05 0.199307 
0.000185134 -0.000194418 0.199989 
4.71313e-05 -2.78628e-05 0.0999793 
3.75629e-05 -4.14227e-05 0.0999405 
4.37893e-05 -4.04e-05 0.100013 
1.73747e-05 0.000466829 0.199793 
2.22118e-06 3.85654e-05 0.0999452 
1.85543e-06 3.15096e-05 0.0998219 
1.01356e-05 5.20172e-05 0.0999067 
0.000571084 4.2848e-05 0.19959 
0.000572138 0.00012917 0.199385 
0.000211562 3.80713e-05 0.148778 
7.51463e-06 5.33769e-06 0.0995691 
-1.80177e-05 3.27343e-05 0.0996951 
-5.42633e-05 0.000187363 0.149034 
-9.2635e-05 0.00018691 0.149074 
-0.000108641 0.000555786 0.199462 
-0.000180467 7.85817e-05 0.200052 
-4.8344e-05 2.27449e-05 0.100016 
-5.21181e-05 7.20726e-06 0.100023 
-0.000304392 4.80085e-05 0.19998 
-5.72968e-05 -2.22684e-05 0.0998967 
-0.000354828 -0.000128404 0.199897 
-0.000431251 -0.000202804 0.199688 
-4.71991e-05 -3.14745e-05 0.0998614 
0.000191302 -8.42357e-05 0.200035 
0.000117563 -3.5786e-05 0.200072 
0.00021536 -6.60223e-06 0.200039 
6.05317e-05 -7.46322e-06 0.100022 
3.83034e-05 4.32617e-05 0.0999912 
3.4004e-05 4.90207e-05 0.0999162 
0.000167176 0.000257869 0.199972 
4.07218e-05 3.08412e-05 0.0999026 
6.75354e-05 1.07688e-05 0.0999743 
0.000233312 7.26146e-05 0.200022 
0.000373729 2.28709e-05 0.199907 
5.44003e-05 1.83981e-05 0.0999154 
0.000117563 -3.5786e-05 0.200072 
3.00055e-05 -9.69449e-06 0.100052 
3.3304e-05 -2.43707e-05 0.154989 
6.27565e-05 1.43088e-05 0.155954 
3.84617e-05 -2.06054e-05 0.0998836 
0.000262779 -0.00029797 0.199816 
0.000320652 -0.000179116 0.199874 
3.75629e-05 -4.14227e-05 0.0999405 
4.37893e-05 -4.04e-05 0.100013 
0.000191302 -8.42357e-05 0.200035 
4.71313e-05 -2.78628e-05 0.0999793 
5.58802e-05 -2.37198e-05 0.100017 
0.000185134 -0.000194418 0.199989 
0.000191302 -8.42357e-05 0.200035 
4.71313e-05 -2.78628e-05 0.0999793 
4.37893e-05 -4.04e-05 0.100013 
4.24837e-05 3.40717e-05 0.100015 
0.000145874 0.000127657 0.200051 
0.000233312 7.26146e-05 0.200022 
5.26181e-05 3.07291e-05 0.0999722 
0.000233312 7.26146e-05 0.200022 
0.000145874 0.000127657 0.200051 
4.24837e-05 3.40717e-05 0.100015 
4.82396e-05 1.7431e-05 0.100035 
-5.06565e-06 5.53661e-05 0.100018 
2.22118e-06 3.85654e-05 0.0999452 
6.5647e-07 0.00028577 0.2 
9.27463e-06 5.41236e-05 0.0999932 
5.26181e-05 3.07291e-05 0.0999722 
0.000233312 7.26146e-05 0.200022 
4.24837e-05 3.40717e-05 0.100015 
6.26998e-05 2.19385e-05 0.0999969 
-0.000323947 -3.66112e-05 0.199957 
-0.000354828 -0.000128404 0.199897 
-5.5533e-05 -1.24286e-05 0.099958 
-0.000217476 -9.14479e-05 0.200034 
1.73747e-05 0.000466829 0.199793 
1.85543e-06 3.15096e-05 0.0998219 
-2.79879e-05 0.000610198 0.199443 
3.3193e-05 0.000646532 0.199376 
-0.000643621 -3.29165e-05 0.199437 
-9.09223e-06 6.55199e-06 0.099644 
-1.75227e-05 -1.27165e-05 0.0996616 
-0.000219178 1.89781e-06 0.148615 
-0.000195654 -1.95209e-06 0.200055 
-0.000217476 -9.14479e-05 0.200034 
-4.55699e-05 -7.44938e-06 0.100018 
-9.53726e-05 -2.50756e-05 0.151284 
1.01356e-05 5.20172e-05 0.0999067 
8.50239e-05 0.000341188 0.199923 
6.5647e-07 0.00028577 0.2 
9.27463e-06 5.41236e-05 0.0999932 
-0.000323947 -3.66112e-05 0.199957 
-4.41431e-05 -5.08118e-06 0.0998697 
-5.18023e-05 8.55186e-07 0.099978 
-5.5533e-05 -1.24286e-05 0.099958 
-3.91604e-05 -2.92381e-05 0.100026 
-4.68848e-05 -3.02534e-05 0.099973 
-0.000224997 -0.000195954 0.199972 
-0.000217476 -9.14479e-05 0.200034 
5.54151e-05 1.87711e-07 0.0999804 
0.000333693 -5.62057e-05 0.19994 
0.00021536 -6.60223e-06 0.200039 
6.62628e-05 -1.66144e-05 0.0999877 
0.000117563 -3.5786e-05 0.200072 
3.8742e-05 -2.7704e-05 0.100041 
0.000106414 -0.000123092 0.200054 
4.00455e-05 -7.92561e-05 0.158184 
-6.52429e-05 2.03433e-05 0.09989 
-4.6685e-05 2.01706e-05 0.0998478 
-2.93425e-05 1.29084e-05 0.0997196 
-0.000402841 0.00010122 0.199859 
3.4004e-05 4.90207e-05 0.0999162 
0.000167176 0.000257869 0.199972 
0.000170177 0.000382598 0.199801 
2.00214e-05 6.22632e-05 0.0999638 
-4.55699e-05 -7.44938e-06 0.100018 
-5.21181e-05 7.20726e-06 0.100023 
-0.000195654 -1.95209e-06 0.200055 
-9.53726e-05 -2.50756e-05 0.151284 
-0.000475084 1.53692e-05 0.199805 
-4.41431e-05 -5.08118e-06 0.0998697 
-5.18023e-05 8.55186e-07 0.099978 
-0.000323947 -3.66112e-05 0.199957 
9.10482e-05 -0.000188372 0.148985 
6.22044e-05 -0.000177221 0.148971 
0.000117021 -0.000539884 0.199445 
1.2948e-05 -4.26274e-05 0.0996906 
-0.000117137 -0.000145527 0.200055 
-4.73694e-05 -0.000204094 0.200041 
-1.78398e-05 -3.9575e-05 0.100047 
-3.43076e-05 -0.000105751 0.200072 
3.20634e-05 -0.000602932 0.199473 
-3.92297e-05 -0.000615467 0.1995 
-3.20611e-06 -1.55851e-05 0.0996728 
4.46314e-07 -0.000228302 0.148614 
-0.000135603 -0.000268826 0.199972 
-2.73231e-05 -6.16719e-05 0.0999002 
-2.95201e-05 -5.41367e-05 0.0999965 
-6.25002e-05 -0.000367434 0.1999 
-0.000135603 -0.000268826 0.199972 
-2.95201e-05 -5.41367e-05 0.0999965 
-4.10081e-05 -4.21213e-05 0.0999941 
-0.000117137 -0.000145527 0.200055 
-3.68981e-05 2.03293e-05 0.0997327 
-4.6685e-05 2.01706e-05 0.0998478 
-5.05469e-05 3.1268e-05 0.099934 
-0.000372486 0.000298782 0.199652 
-9.02066e-06 2.12991e-05 0.100059 
-2.73738e-05 1.18722e-05 0.150379 
-1.39692e-05 5.52224e-05 0.200083 
-4.92106e-05 4.86049e-05 0.157828 
8.82513e-05 -0.00023561 0.200013 
0.000160949 -0.000321115 0.199898 
1.72913e-05 -4.87396e-05 0.0999604 
2.64982e-05 -4.70564e-05 0.0999822 
3.50379e-07 1.46364e-05 0.10006 
4.18319e-06 2.09035e-06 0.157842 
2.35166e-06 5.1993e-06 0.10006 
2.56084e-05 3.31086e-05 0.156257 
-9.02066e-06 2.12991e-05 0.100059 
-1.91968e-05 2.78376e-05 0.100051 
-1.97289e-05 1.78933e-05 0.100056 
-4.92106e-05 4.86049e-05 0.157828 
1.62911e-06 -6.71259e-05 0.0999911 
1.72913e-05 -4.87396e-05 0.0999604 
1.79435e-05 -0.000302394 0.199991 
9.15213e-06 -3.90423e-05 0.0998458 
3.00055e-05 -9.69449e-06 0.100052 
2.12594e-05 -7.44716e-06 0.100055 
3.3304e-05 -2.43707e-05 0.154989 
6.27565e-05 1.43088e-05 0.155954 
0.000203436 -2.7666e-05 0.148866 
2.43334e-05 -8.1768e-06 0.0996381 
3.34416e-05 -1.79446e-05 0.0997097 
0.000614334 -2.48593e-05 0.199307 
-0.000117562 0.000149613 0.149127 
-2.42514e-05 2.85041e-05 0.0996595 
-9.2635e-05 0.00018691 0.149074 
-0.000309526 0.000384151 0.199483 
3.47362e-05 2.95918e-05 0.100047 
0.000145874 0.000127657 0.200051 
4.24837e-05 3.40717e-05 0.100015 
3.20001e-05 4.2529e-05 0.100026 
-4.10081e-05 -4.21213e-05 0.0999941 
-3.91604e-05 -2.92381e-05 0.100026 
-0.000224997 -0.000195954 0.199972 
-0.000117137 -0.000145527 0.200055 
-3.68981e-05 2.03293e-05 0.0997327 
-3.09281e-05 3.29925e-05 0.0998453 
-2.42514e-05 2.85041e-05 0.0996595 
-0.000309526 0.000384151 0.199483 
0.000470021 -0.000214704 0.199503 
0.000219663 -5.4346e-05 0.148874 
0.000172064 -7.60617e-05 0.149032 
3.66889e-05 -2.47289e-05 0.099731 
0.000117021 -0.000539884 0.199445 
6.22044e-05 -0.000177221 0.148971 
2.60195e-05 -0.00020753 0.148712 
5.95926e-06 -1.57217e-05 0.0995966 
-1.85941e-05 7.45005e-06 0.100058 
-2.73738e-05 1.18722e-05 0.150379 
-1.97289e-05 1.78933e-05 0.100056 
-4.92106e-05 4.86049e-05 0.157828 
2.56084e-05 3.31086e-05 0.156257 
3.3304e-05 -2.43707e-05 0.154989 
1.49694e-05 3.83395e-07 0.100059 
6.27565e-05 1.43088e-05 0.155954 
3.36434e-05 5.82349e-05 0.0999934 
0.000167176 0.000257869 0.199972 
3.4004e-05 4.90207e-05 0.0999162 
2.00214e-05 6.22632e-05 0.0999638 
-9.02066e-06 2.12991e-05 0.100059 
-1.97289e-05 1.78933e-05 0.100056 
-2.73738e-05 1.18722e-05 0.150379 
-4.92106e-05 4.86049e-05 0.157828 
9.10482e-05 -0.000188372 0.148985 
0.000117021 -0.000539884 0.199445 
0.000207068 -0.000458323 0.199648 
1.2948e-05 -4.26274e-05 0.0996906 
-1.67321e-05 -2.50994e-05 0.0997157 
-1.93372e-05 -1.25182e-05 0.0997376 
-8.45467e-05 -0.000186951 0.14907 
-0.000237601 -0.000487351 0.199448 
-5.05469e-05 3.1268e-05 0.099934 
-3.09281e-05 3.29925e-05 0.0998453 
-3.68981e-05 2.03293e-05 0.0997327 
-0.000372486 0.000298782 0.199652 
3.22432e-05 1.66052e-05 0.0996986 
0.000211562 3.80713e-05 0.148778 
0.000572138 0.00012917 0.199385 
7.51463e-06 5.33769e-06 0.0995691 
0.000207544 5.29e-05 0.148945 
0.000572138 0.00012917 0.199385 
0.000205935 9.75277e-05 0.14895 
1.22695e-05 1.95146e-05 0.0996311 
4.83184e-05 -1.35016e-05 0.0999022 
0.000510146 -0.000106163 0.199675 
0.000470021 -0.000214704 0.199503 
3.66889e-05 -2.47289e-05 0.099731 
-0.000203936 3.86377e-05 0.148803 
-9.09223e-06 6.55199e-06 0.099644 
-0.000568379 0.000104715 0.199547 
-0.000717163 2.65952e-05 0.199324 
-4.04487e-05 -1.98403e-05 0.0997295 
-0.000141312 -0.000121651 0.149159 
-0.000364036 -0.000315265 0.19953 
-4.32109e-05 -1.97336e-05 0.0997364 
1.49694e-05 3.83395e-07 0.100059 
3.3304e-05 -2.43707e-05 0.154989 
2.12594e-05 -7.44716e-06 0.100055 
6.27565e-05 1.43088e-05 0.155954 
-8.45467e-05 -0.000186951 0.14907 
-1.93372e-05 -1.25182e-05 0.0997376 
-0.000135786 -0.000175158 0.148955 
-0.000237601 -0.000487351 0.199448 
-0.000138974 0.000292305 0.199944 
-4.1319e-05 3.94485e-05 0.099967 
-3.11394e-05 5.56202e-05 0.0999841 
-0.000159539 0.000181181 0.20002 
-1.93372e-05 -1.25182e-05 0.0997376 
-0.000141312 -0.000121651 0.149159 
-0.000364036 -0.000315265 0.19953 
-4.04487e-05 -1.98403e-05 0.0997295 
2.47556e-05 -0.00017125 0.200062 
1.68971e-05 -5.55476e-05 0.100016 
5.28136e-06 -5.4799e-05 0.100032 
4.00455e-05 -7.92561e-05 0.158184 
2.60195e-05 -0.00020753 0.148712 
3.20634e-05 -0.000602932 0.199473 
0.000117021 -0.000539884 0.199445 
5.95926e-06 -1.57217e-05 0.0995966 
8.82513e-05 -0.00023561 0.200013 
0.000106414 -0.000123092 0.200054 
0.000185134 -0.000194418 0.199989 
2.53648e-05 -3.74752e-05 0.100032 
5.46821e-05 0.000210247 0.148828 
8.78564e-06 1.69935e-05 0.0996257 
0.000122264 0.000527901 0.199597 
2.91073e-05 0.00020296 0.148791 
2.64982e-05 -4.70564e-05 0.0999822 
0.000160949 -0.000321115 0.199898 
1.72913e-05 -4.87396e-05 0.0999604 
2.61482e-05 -3.81491e-05 0.0998688 
0.000320652 -0.000179116 0.199874 
0.000470021 -0.000214704 0.199503 
0.000387817 -0.000299588 0.199624 
3.84617e-05 -2.06054e-05 0.0998836 
-6.81921e-05 0.000434552 0.19982 
-2.42004e-05 3.37462e-05 0.0998812 
-1.53002e-05 5.05967e-05 0.0999726 
-0.000138974 0.000292305 0.199944 
-5.53164e-05 1.49842e-05 0.0999735 
-4.53201e-05 8.48944e-06 0.0998868 
-5.18023e-05 8.55186e-07 0.099978 
-0.000304392 4.80085e-05 0.19998 
-3.19851e-05 -2.71852e-05 0.100048 
-9.86104e-05 -5.75158e-05 0.200075 
-3.58797e-05 -3.95438e-05 0.145899 
-9.53726e-05 -2.50756e-05 0.151284 
-5.18023e-05 8.55186e-07 0.099978 
-4.53201e-05 8.48944e-06 0.0998868 
-4.41431e-05 -5.08118e-06 0.0998697 
-0.000475084 1.53692e-05 0.199805 
-0.000147047 0.000127438 0.14914 
-3.68981e-05 2.03293e-05 0.0997327 
-2.42514e-05 2.85041e-05 0.0996595 
-0.000309526 0.000384151 0.199483 
1.49694e-05 3.83395e-07 0.100059 
1.12477e-05 1.12839e-05 0.100057 
4.18319e-06 2.09035e-06 0.157842 
2.56084e-05 3.31086e-05 0.156257 
-1.32454e-05 3.75386e-05 0.0997356 
-9.2635e-05 0.00018691 0.149074 
-2.42514e-05 2.85041e-05 0.0996595 
-0.000309526 0.000384151 0.199483 
4.37893e-05 -4.04e-05 0.100013 
0.000185134 -0.000194418 0.199989 
0.000106414 -0.000123092 0.200054 
2.53648e-05 -3.74752e-05 0.100032 
2.40704e-05 6.30622e-05 0.0998557 
3.4004e-05 4.90207e-05 0.0999162 
0.000170177 0.000382598 0.199801 
2.00214e-05 6.22632e-05 0.0999638 
-6.25002e-05 -0.000367434 0.1999 
5.77214e-07 -5.68983e-05 0.0999051 
-1.47519e-05 -6.37192e-05 0.0999789 
1.79435e-05 -0.000302394 0.199991 
5.95926e-06 -1.57217e-05 0.0995966 
-6.45691e-08 -0.000473715 0.199789 
3.20634e-05 -0.000602932 0.199473 
9.15213e-06 -3.90423e-05 0.0998458 
-2.83206e-05 4.36499e-05 0.099905 
-4.1319e-05 3.94485e-05 0.099967 
-0.000138974 0.000292305 0.199944 
-0.000239537 0.000287478 0.199859 
-0.00020635 0.000439469 0.199687 
-2.83206e-05 4.36499e-05 0.099905 
-2.42004e-05 3.37462e-05 0.0998812 
-0.000138974 0.000292305 0.199944 
0.000333693 -5.62057e-05 0.19994 
0.000471929 -2.38257e-05 0.199766 
5.28329e-05 -8.39764e-06 0.0998817 
5.54151e-05 1.87711e-07 0.0999804 
-1.67321e-05 -2.50994e-05 0.0997157 
-5.22295e-05 -0.000204147 0.148977 
-0.00012456 -0.000544598 0.199537 
-0.000237601 -0.000487351 0.199448 
2.60351e-05 3.02084e-05 0.0996995 
4.07218e-05 3.08412e-05 0.0999026 
0.000403265 0.000299758 0.199549 
2.00884e-05 1.34031e-05 0.0997219 
-0.000108641 0.000555786 0.199462 
-1.80177e-05 3.27343e-05 0.0996951 
-2.42004e-05 3.37462e-05 0.0998812 
-0.00020635 0.000439469 0.199687 
1.65415e-05 -4.53499e-05 0.100038 
4.34401e-06 -4.13329e-05 0.100046 
5.28136e-06 -5.4799e-05 0.100032 
4.00455e-05 -7.92561e-05 0.158184 
-7.28806e-06 2.80644e-06 0.100059 
4.18319e-06 2.09035e-06 0.157842 
2.35166e-06 5.1993e-06 0.10006 
-2.73738e-05 1.18722e-05 0.150379 
-4.55699e-05 -7.44938e-06 0.100018 
-0.000217476 -9.14479e-05 0.200034 
-4.58569e-05 -2.07977e-05 0.100003 
-9.53726e-05 -2.50756e-05 0.151284 
5.28136e-06 -5.4799e-05 0.100032 
4.00455e-05 -7.92561e-05 0.158184 
4.34401e-06 -4.13329e-05 0.100046 
3.67195e-06 -6.85529e-05 0.157357 
-0.000135786 -0.000175158 0.148955 
-0.000141312 -0.000121651 0.149159 
-0.000364036 -0.000315265 0.19953 
-1.93372e-05 -1.25182e-05 0.0997376 
8.82513e-05 -0.00023561 0.200013 
0.000106414 -0.000123092 0.200054 
2.53648e-05 -3.74752e-05 0.100032 
4.00455e-05 -7.92561e-05 0.158184 
-3.20611e-06 -1.55851e-05 0.0996728 
-6.45691e-08 -0.000473715 0.199789 
3.20634e-05 -0.000602932 0.199473 
5.95926e-06 -1.57217e-05 0.0995966 
-0.000179493 -9.36412e-05 0.149054 
-0.000364036 -0.000315265 0.19953 
-0.000141312 -0.000121651 0.149159 
-4.32109e-05 -1.97336e-05 0.0997364 
1.01356e-05 5.20172e-05 0.0999067 
0.000122264 0.000527901 0.199597 
8.50239e-05 0.000341188 0.199923 
2.40704e-05 6.30622e-05 0.0998557 
4.24837e-05 3.40717e-05 0.100015 
0.000145874 0.000127657 0.200051 
3.83034e-05 4.32617e-05 0.0999912 
3.20001e-05 4.2529e-05 0.100026 
9.33216e-05 0.000175703 0.149056 
0.000128146 0.000173085 0.148992 
0.000232799 0.00049479 0.199393 
1.66274e-05 2.8631e-05 0.0996962 
0.000470021 -0.000214704 0.199503 
0.000172064 -7.60617e-05 0.149032 
0.000155318 -0.000111349 0.149062 
3.66889e-05 -2.47289e-05 0.099731 
-3.09281e-05 3.29925e-05 0.0998453 
-2.83206e-05 4.36499e-05 0.099905 
-0.00020635 0.000439469 0.199687 
-0.000239537 0.000287478 0.199859 
-7.1352e-05 0.000215698 0.200031 
-0.000159539 0.000181181 0.20002 
-3.80425e-05 4.46992e-05 0.100021 
-8.0015e-05 0.00011776 0.20007 
2.91073e-05 0.00020296 0.148791 
3.3193e-05 0.000646532 0.199376 
2.7465e-06 0.000217646 0.14865 
8.49044e-06 3.37106e-05 0.0996727 
6.22044e-05 -0.000177221 0.148971 
0.000117021 -0.000539884 0.199445 
1.2948e-05 -4.26274e-05 0.0996906 
5.95926e-06 -1.57217e-05 0.0995966 
8.50239e-05 0.000341188 0.199923 
0.000170177 0.000382598 0.199801 
0.000167176 0.000257869 0.199972 
2.00214e-05 6.22632e-05 0.0999638 
-4.1319e-05 3.94485e-05 0.099967 
-2.83206e-05 4.36499e-05 0.099905 
-3.09281e-05 3.29925e-05 0.0998453 
-0.000239537 0.000287478 0.199859 
2.60305e-05 -2.07289e-05 0.100052 
1.35306e-05 -1.9621e-05 0.100056 
1.54212e-05 -3.3144e-05 0.100052 
3.3304e-05 -2.43707e-05 0.154989 
0.000471929 -2.38257e-05 0.199766 
6.68348e-05 5.86874e-06 0.0998683 
5.28329e-05 -8.39764e-06 0.0998817 
5.54151e-05 1.87711e-07 0.0999804 
0.000145874 0.000127657 0.200051 
0.000167176 0.000257869 0.199972 
3.83034e-05 4.32617e-05 0.0999912 
3.20001e-05 4.2529e-05 0.100026 
-0.00012456 -0.000544598 0.199537 
-3.18552e-05 -0.000215459 0.148791 
-1.83496e-05 -2.33838e-05 0.0996842 
-3.92297e-05 -0.000615467 0.1995 
-2.42514e-05 2.85041e-05 0.0996595 
-3.09281e-05 3.29925e-05 0.0998453 
-1.32454e-05 3.75386e-05 0.0997356 
-0.000309526 0.000384151 0.199483 
1.35306e-05 -1.9621e-05 0.100056 
1.54212e-05 -3.3144e-05 0.100052 
3.3304e-05 -2.43707e-05 0.154989 
3.67195e-06 -6.85529e-05 0.157357 
6.1996e-05 8.96588e-05 0.200075 
7.29176e-05 0.000199333 0.200046 
0.000145874 0.000127657 0.200051 
1.83156e-05 4.10816e-05 0.100047 
0.000207068 -0.000458323 0.199648 
9.10482e-05 -0.000188372 0.148985 
1.2948e-05 -4.26274e-05 0.0996906 
1.29394e-05 -3.06464e-05 0.0996941 
-3.19851e-05 -2.71852e-05 0.100048 
-2.64787e-05 -1.9666e-05 0.100054 
-3.75463e-05 -1.34821e-05 0.100053 
-3.58797e-05 -3.95438e-05 0.145899 
-3.09281e-05 3.29925e-05 0.0998453 
-5.05469e-05 3.1268e-05 0.099934 
-4.1319e-05 3.94485e-05 0.099967 
-0.000239537 0.000287478 0.199859 
-2.42004e-05 3.37462e-05 0.0998812 
-7.85929e-06 3.04787e-05 0.0998382 
-1.80177e-05 3.27343e-05 0.0996951 
-6.81921e-05 0.000434552 0.19982 
-0.000323947 -3.66112e-05 0.199957 
-0.000465418 -6.19477e-05 0.199773 
-4.41431e-05 -5.08118e-06 0.0998697 
-5.5533e-05 -1.24286e-05 0.099958 
-4.6685e-05 2.01706e-05 0.0998478 
-5.05469e-05 3.1268e-05 0.099934 
-0.000372486 0.000298782 0.199652 
-0.000288311 0.00016015 0.199941 
-3.09281e-05 3.29925e-05 0.0998453 
-2.83206e-05 4.36499e-05 0.099905 
-1.32454e-05 3.75386e-05 0.0997356 
-0.00020635 0.000439469 0.199687 
-9.02066e-06 2.12991e-05 0.100059 
-4.92106e-05 4.86049e-05 0.157828 
-1.39692e-05 5.52224e-05 0.200083 
1.22206e-05 6.47679e-05 0.152131 
1.2948e-05 -4.26274e-05 0.0996906 
0.000117021 -0.000539884 0.199445 
0.000207068 -0.000458323 0.199648 
2.61482e-05 -3.81491e-05 0.0998688 
-0.000195654 -1.95209e-06 0.200055 
-0.000323947 -3.66112e-05 0.199957 
-4.55699e-05 -7.44938e-06 0.100018 
-0.000217476 -9.14479e-05 0.200034 
-0.000354828 -0.000128404 0.199897 
-3.62094e-05 -2.04487e-05 0.0997118 
-5.72968e-05 -2.22684e-05 0.0998967 
-0.000431251 -0.000202804 0.199688 
0.000205935 9.75277e-05 0.14895 
0.000572138 0.00012917 0.199385 
0.000478173 0.000209908 0.199621 
1.22695e-05 1.95146e-05 0.0996311 
1.72913e-05 -4.87396e-05 0.0999604 
1.79435e-05 -0.000302394 0.199991 
8.82513e-05 -0.00023561 0.200013 
1.62911e-06 -6.71259e-05 0.0999911 
-0.000431251 -0.000202804 0.199688 
-0.000364036 -0.000315265 0.19953 
-0.000179493 -9.36412e-05 0.149054 
-4.32109e-05 -1.97336e-05 0.0997364 
-5.57768e-05 -1.71737e-05 0.0998385 
-1.75227e-05 -1.27165e-05 0.0996616 
-3.62094e-05 -2.04487e-05 0.0997118 
-0.000465418 -6.19477e-05 0.199773 
-0.000431251 -0.000202804 0.199688 
-3.62094e-05 -2.04487e-05 0.0997118 
-5.72968e-05 -2.22684e-05 0.0998967 
-4.32109e-05 -1.97336e-05 0.0997364 
-5.05469e-05 3.1268e-05 0.099934 
-3.09281e-05 3.29925e-05 0.0998453 
-0.000372486 0.000298782 0.199652 
-0.000239537 0.000287478 0.199859 
8.50239e-05 0.000341188 0.199923 
1.73747e-05 0.000466829 0.199793 
0.000122264 0.000527901 0.199597 
1.01356e-05 5.20172e-05 0.0999067 
4.93408e-05 2.06597e-05 0.0998533 
0.000403265 0.000299758 0.199549 
0.000478173 0.000209908 0.199621 
2.60351e-05 3.02084e-05 0.0996995 
0.00021536 -6.60223e-06 0.200039 
0.000131594 4.08422e-05 0.200067 
0.000233312 7.26146e-05 0.200022 
6.09189e-05 7.92342e-06 0.100019 
-0.000465418 -6.19477e-05 0.199773 
-0.000323947 -3.66112e-05 0.199957 
-0.000354828 -0.000128404 0.199897 
-5.5533e-05 -1.24286e-05 0.099958 
-5.22295e-05 -0.000204147 0.148977 
-1.67321e-05 -2.50994e-05 0.0997157 
-8.45467e-05 -0.000186951 0.14907 
-0.000237601 -0.000487351 0.199448 
1.2948e-05 -4.26274e-05 0.0996906 
8.8652e-05 -0.000420002 0.199811 
0.000117021 -0.000539884 0.199445 
2.61482e-05 -3.81491e-05 0.0998688 
-9.37895e-05 2.59347e-05 0.20008 
-3.9052e-05 1.28844e-05 0.100048 
-0.000180467 7.85817e-05 0.200052 
-4.92106e-05 4.86049e-05 0.157828 
2.47556e-05 -0.00017125 0.200062 
8.82513e-05 -0.00023561 0.200013 
1.68971e-05 -5.55476e-05 0.100016 
4.00455e-05 -7.92561e-05 0.158184 
4.93408e-05 2.06597e-05 0.0998533 
0.000392687 0.000104979 0.19985 
5.26181e-05 3.07291e-05 0.0999722 
5.44003e-05 1.83981e-05 0.0999154 
0.000170177 0.000382598 0.199801 
0.000122264 0.000527901 0.199597 
0.000232799 0.00049479 0.199393 
1.66274e-05 2.8631e-05 0.0996962 
4.93408e-05 2.06597e-05 0.0998533 
0.000284184 0.000196041 0.199918 
0.000403265 0.000299758 0.199549 
4.07218e-05 3.08412e-05 0.0999026 
2.60195e-05 -0.00020753 0.148712 
4.46314e-07 -0.000228302 0.148614 
3.20634e-05 -0.000602932 0.199473 
5.95926e-06 -1.57217e-05 0.0995966 
0.000262779 -0.00029797 0.199816 
0.000160949 -0.000321115 0.199898 
0.000185134 -0.000194418 0.199989 
2.64982e-05 -4.70564e-05 0.0999822 
-2.48284e-05 -9.27827e-06 0.100057 
-1.09149e-05 -2.79555e-05 0.151478 
-1.05306e-05 -1.09753e-05 0.100059 
-5.62932e-05 -9.34432e-06 0.150889 
2.91073e-05 0.00020296 0.148791 
8.78564e-06 1.69935e-05 0.0996257 
0.000122264 0.000527901 0.199597 
8.49044e-06 3.37106e-05 0.0996727 
5.77214e-07 -5.68983e-05 0.0999051 
1.79435e-05 -0.000302394 0.199991 
-6.45691e-08 -0.000473715 0.199789 
9.15213e-06 -3.90423e-05 0.0998458 
-4.71991e-05 -3.14745e-05 0.0998614 
-0.000337529 -0.000236286 0.199798 
-4.04487e-05 -1.98403e-05 0.0997295 
-3.50716e-05 -2.88763e-05 0.0999037 
0.000117563 -3.5786e-05 0.200072 
0.000191302 -8.42357e-05 0.200035 
0.000106414 -0.000123092 0.200054 
3.8742e-05 -2.7704e-05 0.100041 
-0.000108641 0.000555786 0.199462 
-9.2635e-05 0.00018691 0.149074 
-1.80177e-05 3.27343e-05 0.0996951 
-0.00020635 0.000439469 0.199687 
-0.000475084 1.53692e-05 0.199805 
-9.09223e-06 6.55199e-06 0.099644 
-4.41431e-05 -5.08118e-06 0.0998697 
-0.000643621 -3.29165e-05 0.199437 
-0.000207445 -2.344e-05 0.14871 
-0.000643621 -3.29165e-05 0.199437 
-1.75227e-05 -1.27165e-05 0.0996616 
-0.000219178 1.89781e-06 0.148615 
1.79435e-05 -0.000302394 0.199991 
5.77214e-07 -5.68983e-05 0.0999051 
-1.47519e-05 -6.37192e-05 0.0999789 
1.62911e-06 -6.71259e-05 0.0999911 
6.62628e-05 -1.66144e-05 0.0999877 
5.28329e-05 -8.39764e-06 0.0998817 
0.000333693 -5.62057e-05 0.19994 
4.83184e-05 -1.35016e-05 0.0999022 
0.000470021 -0.000214704 0.199503 
0.000155318 -0.000111349 0.149062 
2.5542e-05 -3.21784e-05 0.0997541 
3.66889e-05 -2.47289e-05 0.099731 
3.84617e-05 -2.06054e-05 0.0998836 
0.000320652 -0.000179116 0.199874 
4.71313e-05 -2.78628e-05 0.0999793 
3.75629e-05 -4.14227e-05 0.0999405 
-1.7716e-06 -4.07097e-06 0.10006 
4.18319e-06 2.09035e-06 0.157842 
-7.28806e-06 2.80644e-06 0.100059 
-2.73738e-05 1.18722e-05 0.150379 
-0.000281937 -0.000371875 0.199758 
-3.11894e-05 -4.6494e-05 0.0999213 
-3.50716e-05 -2.88763e-05 0.0999037 
-0.000224997 -0.000195954 0.199972 
0.000211562 3.80713e-05 0.148778 
0.000233958 2.59389e-06 0.148646 
0.000571084 4.2848e-05 0.19959 
7.51463e-06 5.33769e-06 0.0995691 
-4.10081e-05 -4.21213e-05 0.0999941 
-3.11894e-05 -4.6494e-05 0.0999213 
-0.000135603 -0.000268826 0.199972 
-0.000224997 -0.000195954 0.199972 
1.79435e-05 -0.000302394 0.199991 
5.77214e-07 -5.68983e-05 0.0999051 
1.62911e-06 -6.71259e-05 0.0999911 
9.15213e-06 -3.90423e-05 0.0998458 
-0.000147047 0.000127438 0.14914 
-1.16305e-05 1.19241e-05 0.0996345 
-3.68981e-05 2.03293e-05 0.0997327 
-0.000372486 0.000298782 0.199652 
-7.26406e-06 2.94324e-05 0.100055 
4.21492e-06 3.80124e-05 0.100047 
-7.94525e-06 4.37477e-05 0.100042 
1.22206e-05 6.47679e-05 0.152131 
2.47556e-05 -0.00017125 0.200062 
-4.73694e-05 -0.000204094 0.200041 
-5.55103e-06 -5.86472e-05 0.100019 
1.79435e-05 -0.000302394 0.199991 
-4.61568e-05 3.28924e-05 0.100003 
-5.05469e-05 3.1268e-05 0.099934 
-6.03446e-05 2.69656e-05 0.0999712 
-0.000288311 0.00016015 0.199941 
-9.09223e-06 6.55199e-06 0.099644 
-1.75227e-05 -1.27165e-05 0.0996616 
-4.41431e-05 -5.08118e-06 0.0998697 
-0.000643621 -3.29165e-05 0.199437 
-3.50716e-05 -2.88763e-05 0.0999037 
-0.000364036 -0.000315265 0.19953 
-4.04487e-05 -1.98403e-05 0.0997295 
-0.000281937 -0.000371875 0.199758 
5.77214e-07 -5.68983e-05 0.0999051 
-9.14808e-06 -3.27901e-05 0.0998338 
-3.20611e-06 -1.55851e-05 0.0996728 
-6.45691e-08 -0.000473715 0.199789 
-5.22295e-05 -0.000204147 0.148977 
-3.18552e-05 -0.000215459 0.148791 
-1.83496e-05 -2.33838e-05 0.0996842 
-0.00012456 -0.000544598 0.199537 
-6.25002e-05 -0.000367434 0.1999 
-9.14808e-06 -3.27901e-05 0.0998338 
5.77214e-07 -5.68983e-05 0.0999051 
-6.45691e-08 -0.000473715 0.199789 
2.91073e-05 0.00020296 0.148791 
0.000122264 0.000527901 0.199597 
3.3193e-05 0.000646532 0.199376 
8.49044e-06 3.37106e-05 0.0996727 
3.3193e-05 0.000646532 0.199376 
1.73747e-05 0.000466829 0.199793 
1.85543e-06 3.15096e-05 0.0998219 
8.49044e-06 3.37106e-05 0.0996727 
0.000392687 0.000104979 0.19985 
0.000571084 4.2848e-05 0.19959 
0.000373729 2.28709e-05 0.199907 
5.44003e-05 1.83981e-05 0.0999154 
-8.0015e-05 0.00011776 0.20007 
-0.000180467 7.85817e-05 0.200052 
-3.83326e-05 2.73176e-05 0.100039 
-4.92106e-05 4.86049e-05 0.157828 
8.50239e-05 0.000341188 0.199923 
7.29176e-05 0.000199333 0.200046 
6.5647e-07 0.00028577 0.2 
9.27463e-06 5.41236e-05 0.0999932 
0.000232799 0.00049479 0.199393 
8.78564e-06 1.69935e-05 0.0996257 
9.33216e-05 0.000175703 0.149056 
1.66274e-05 2.8631e-05 0.0996962 
-3.20611e-06 -1.55851e-05 0.0996728 
-6.45691e-08 -0.000473715 0.199789 
5.95926e-06 -1.57217e-05 0.0995966 
9.15213e-06 -3.90423e-05 0.0998458 
0.000233312 7.26146e-05 0.200022 
0.000373729 2.28709e-05 0.199907 
0.00021536 -6.60223e-06 0.200039 
6.75354e-05 1.07688e-05 0.0999743 
1.72913e-05 -4.87396e-05 0.0999604 
8.82513e-05 -0.00023561 0.200013 
2.64982e-05 -4.70564e-05 0.0999822 
1.68971e-05 -5.55476e-05 0.100016 
-2.93425e-05 1.29084e-05 0.0997196 
-1.16305e-05 1.19241e-05 0.0996345 
-0.000208361 6.08813e-05 0.148938 
-0.000481309 0.000205405 0.199639 
1.01356e-05 5.20172e-05 0.0999067 
1.73747e-05 0.000466829 0.199793 
0.000122264 0.000527901 0.199597 
8.49044e-06 3.37106e-05 0.0996727 
-0.000204699 0.000101989 0.149004 
-1.16305e-05 1.19241e-05 0.0996345 
-0.000147047 0.000127438 0.14914 
-0.000372486 0.000298782 0.199652 
-1.7716e-06 -4.07097e-06 0.10006 
2.35166e-06 5.1993e-06 0.10006 
-7.28806e-06 2.80644e-06 0.100059 
4.18319e-06 2.09035e-06 0.157842 
-4.53201e-05 8.48944e-06 0.0998868 
-2.93425e-05 1.29084e-05 0.0997196 
-9.09223e-06 6.55199e-06 0.099644 
-0.000568379 0.000104715 0.199547 
-0.000475084 1.53692e-05 0.199805 
-4.53201e-05 8.48944e-06 0.0998868 
-9.09223e-06 6.55199e-06 0.099644 
-0.000568379 0.000104715 0.199547 
6.5647e-07 0.00028577 0.2 
7.29176e-05 0.000199333 0.200046 
-7.65052e-06 0.000152877 0.200064 
6.82601e-06 4.55458e-05 0.100036 
1.72913e-05 -4.87396e-05 0.0999604 
8.8652e-05 -0.000420002 0.199811 
1.79435e-05 -0.000302394 0.199991 
9.15213e-06 -3.90423e-05 0.0998458 
2.40704e-05 6.30622e-05 0.0998557 
1.01356e-05 5.20172e-05 0.0999067 
0.000122264 0.000527901 0.199597 
8.49044e-06 3.37106e-05 0.0996727 
-1.85941e-05 7.45005e-06 0.100058 
-2.76725e-05 1.11363e-05 0.100056 
-2.73738e-05 1.18722e-05 0.150379 
-4.92106e-05 4.86049e-05 0.157828 
0.000262779 -0.00029797 0.199816 
0.000160949 -0.000321115 0.199898 
2.64982e-05 -4.70564e-05 0.0999822 
2.92333e-05 -3.40165e-05 0.099858 
3.4004e-05 4.90207e-05 0.0999162 
0.000288652 0.000386323 0.199727 
0.000167176 0.000257869 0.199972 
4.07218e-05 3.08412e-05 0.0999026 
8.78564e-06 1.69935e-05 0.0996257 
0.000232799 0.00049479 0.199393 
0.000122264 0.000527901 0.199597 
1.66274e-05 2.8631e-05 0.0996962 
-0.000568379 0.000104715 0.199547 
-9.09223e-06 6.55199e-06 0.099644 
-0.000475084 1.53692e-05 0.199805 
-0.000717163 2.65952e-05 0.199324 
-2.79879e-05 0.000610198 0.199443 
-0.000108641 0.000555786 0.199462 
-7.85929e-06 3.04787e-05 0.0998382 
-6.81921e-05 0.000434552 0.19982 
-8.0015e-05 0.00011776 0.20007 
-0.000159539 0.000181181 0.20002 
-3.83326e-05 2.73176e-05 0.100039 
-0.000180467 7.85817e-05 0.200052 
1.29394e-05 -3.06464e-05 0.0996941 
0.000309034 -0.000402878 0.199427 
1.82823e-05 -2.44826e-05 0.0996838 
2.92333e-05 -3.40165e-05 0.099858 
4.83184e-05 -1.35016e-05 0.0999022 
0.000320652 -0.000179116 0.199874 
4.71313e-05 -2.78628e-05 0.0999793 
3.84617e-05 -2.06054e-05 0.0998836 
-0.000402841 0.00010122 0.199859 
-2.93425e-05 1.29084e-05 0.0997196 
-4.53201e-05 8.48944e-06 0.0998868 
-0.000568379 0.000104715 0.199547 
-3.50716e-05 -2.88763e-05 0.0999037 
-0.000337529 -0.000236286 0.199798 
-0.000364036 -0.000315265 0.19953 
-0.000281937 -0.000371875 0.199758 
-3.9052e-05 1.28844e-05 0.100048 
-9.37895e-05 2.59347e-05 0.20008 
-0.000180467 7.85817e-05 0.200052 
-0.000195654 -1.95209e-06 0.200055 
-2.63817e-07 -1.56048e-05 0.100058 
-1.09149e-05 -2.79555e-05 0.151478 
1.35306e-05 -1.9621e-05 0.100056 
3.3304e-05 -2.43707e-05 0.154989 
2.29775e-05 2.79262e-05 0.10005 
2.56084e-05 3.31086e-05 0.156257 
6.1996e-05 8.96588e-05 0.200075 
1.22206e-05 6.47679e-05 0.152131 
-0.000108641 0.000555786 0.199462 
-2.42004e-05 3.37462e-05 0.0998812 
-1.80177e-05 3.27343e-05 0.0996951 
-6.81921e-05 0.000434552 0.19982 
-2.76725e-05 1.11363e-05 0.100056 
-1.85941e-05 7.45005e-06 0.100058 
-2.73738e-05 1.18722e-05 0.150379 
-5.62932e-05 -9.34432e-06 0.150889 
0.000185134 -0.000194418 0.199989 
0.000262779 -0.00029797 0.199816 
2.64982e-05 -4.70564e-05 0.0999822 
3.75629e-05 -4.14227e-05 0.0999405 
-0.000304392 4.80085e-05 0.19998 
-5.53164e-05 1.49842e-05 0.0999735 
-4.53201e-05 8.48944e-06 0.0998868 
-0.000402841 0.00010122 0.199859 
9.33216e-05 0.000175703 0.149056 
8.78564e-06 1.69935e-05 0.0996257 
0.000232799 0.00049479 0.199393 
5.46821e-05 0.000210247 0.148828 
-4.53201e-05 8.48944e-06 0.0998868 
-0.000475084 1.53692e-05 0.199805 
-0.000402841 0.00010122 0.199859 
-0.000568379 0.000104715 0.199547 
-1.83496e-05 -2.33838e-05 0.0996842 
-9.14808e-06 -3.27901e-05 0.0998338 
-0.00012456 -0.000544598 0.199537 
-3.92297e-05 -0.000615467 0.1995 
1.12477e-05 1.12839e-05 0.100057 
8.51397e-06 2.01482e-05 0.100056 
3.50379e-07 1.46364e-05 0.10006 
2.56084e-05 3.31086e-05 0.156257 
0.000160949 -0.000321115 0.199898 
8.8652e-05 -0.000420002 0.199811 
1.72913e-05 -4.87396e-05 0.0999604 
2.61482e-05 -3.81491e-05 0.0998688 
-0.000337529 -0.000236286 0.199798 
-0.000431251 -0.000202804 0.199688 
-0.000354828 -0.000128404 0.199897 
-4.71991e-05 -3.14745e-05 0.0998614 
-0.000323947 -3.66112e-05 0.199957 
-5.18023e-05 8.55186e-07 0.099978 
-0.000304392 4.80085e-05 0.19998 
-0.000195654 -1.95209e-06 0.200055 
1.82823e-05 -2.44826e-05 0.0996838 
0.000114199 -0.00014036 0.149119 
0.000309034 -0.000402878 0.199427 
1.29394e-05 -3.06464e-05 0.0996941 
8.51397e-06 2.01482e-05 0.100056 
1.81046e-05 1.97682e-05 0.100053 
1.28013e-05 3.08063e-05 0.100052 
2.56084e-05 3.31086e-05 0.156257 
-0.000309526 0.000384151 0.199483 
-3.68981e-05 2.03293e-05 0.0997327 
-3.09281e-05 3.29925e-05 0.0998453 
-0.000372486 0.000298782 0.199652 
-1.80177e-05 3.27343e-05 0.0996951 
-3.21406e-05 0.000206386 0.148788 
-5.42633e-05 0.000187363 0.149034 
-0.000108641 0.000555786 0.199462 
-5.22295e-05 -0.000204147 0.148977 
-1.83496e-05 -2.33838e-05 0.0996842 
-1.67321e-05 -2.50994e-05 0.0997157 
-0.00012456 -0.000544598 0.199537 
-0.000117562 0.000149613 0.149127 
-0.000147047 0.000127438 0.14914 
-2.42514e-05 2.85041e-05 0.0996595 
-0.000309526 0.000384151 0.199483 
0.000128146 0.000173085 0.148992 
0.000151385 0.00011925 0.149091 
0.000403265 0.000299758 0.199549 
2.00884e-05 1.34031e-05 0.0997219 
1.2948e-05 -4.26274e-05 0.0996906 
0.000117021 -0.000539884 0.199445 
8.8652e-05 -0.000420002 0.199811 
9.15213e-06 -3.90423e-05 0.0998458 
6.5647e-07 0.00028577 0.2 
2.22118e-06 3.85654e-05 0.0999452 
1.73747e-05 0.000466829 0.199793 
1.01356e-05 5.20172e-05 0.0999067 
1.66274e-05 2.8631e-05 0.0996962 
0.000232799 0.00049479 0.199393 
0.000288652 0.000386323 0.199727 
2.00884e-05 1.34031e-05 0.0997219 
-0.000108641 0.000555786 0.199462 
-1.80177e-05 3.27343e-05 0.0996951 
-7.85929e-06 3.04787e-05 0.0998382 
-6.81921e-05 0.000434552 0.19982 
3.4004e-05 4.90207e-05 0.0999162 
0.000170177 0.000382598 0.199801 
0.000288652 0.000386323 0.199727 
1.66274e-05 2.8631e-05 0.0996962 
-0.000203936 3.86377e-05 0.148803 
-9.09223e-06 6.55199e-06 0.099644 
-2.93425e-05 1.29084e-05 0.0997196 
-0.000568379 0.000104715 0.199547 
2.29775e-05 2.79262e-05 0.10005 
1.28013e-05 3.08063e-05 0.100052 
2.56084e-05 3.31086e-05 0.156257 
1.22206e-05 6.47679e-05 0.152131 
-1.06686e-05 1.0435e-05 0.100058 
-1.97289e-05 1.78933e-05 0.100056 
-1.85941e-05 7.45005e-06 0.100058 
-2.73738e-05 1.18722e-05 0.150379 
1.85543e-06 3.15096e-05 0.0998219 
-2.79879e-05 0.000610198 0.199443 
-6.81921e-05 0.000434552 0.19982 
1.73747e-05 0.000466829 0.199793 
-2.48284e-05 -9.27827e-06 0.100057 
-1.49658e-05 -5.09375e-07 0.100058 
-2.44229e-05 -3.80804e-08 0.100056 
-5.62932e-05 -9.34432e-06 0.150889 
0.000203436 -2.7666e-05 0.148866 
0.000233958 2.59389e-06 0.148646 
2.43334e-05 -8.1768e-06 0.0996381 
0.000614334 -2.48593e-05 0.199307 
0.000207544 5.29e-05 0.148945 
0.000211562 3.80713e-05 0.148778 
0.000572138 0.00012917 0.199385 
3.22432e-05 1.66052e-05 0.0996986 
0.000320652 -0.000179116 0.199874 
0.000185134 -0.000194418 0.199989 
4.71313e-05 -2.78628e-05 0.0999793 
3.75629e-05 -4.14227e-05 0.0999405 
0.000309034 -0.000402878 0.199427 
0.000114199 -0.00014036 0.149119 
9.10482e-05 -0.000188372 0.148985 
1.29394e-05 -3.06464e-05 0.0996941 
1.12477e-05 1.12839e-05 0.100057 
2.35166e-06 5.1993e-06 0.10006 
4.18319e-06 2.09035e-06 0.157842 
2.56084e-05 3.31086e-05 0.156257 
0.000170177 0.000382598 0.199801 
8.50239e-05 0.000341188 0.199923 
2.40704e-05 6.30622e-05 0.0998557 
2.00214e-05 6.22632e-05 0.0999638 
0.000167176 0.000257869 0.199972 
0.000145874 0.000127657 0.200051 
7.29176e-05 0.000199333 0.200046 
3.20001e-05 4.2529e-05 0.100026 
0.000387817 -0.000299588 0.199624 
0.000155318 -0.000111349 0.149062 
2.5542e-05 -3.21784e-05 0.0997541 
0.000470021 -0.000214704 0.199503 
-4.41431e-05 -5.08118e-06 0.0998697 
-0.000475084 1.53692e-05 0.199805 
-0.000643621 -3.29165e-05 0.199437 
-0.000465418 -6.19477e-05 0.199773 
-0.000224997 -0.000195954 0.199972 
-4.68848e-05 -3.02534e-05 0.099973 
-0.000354828 -0.000128404 0.199897 
-0.000217476 -9.14479e-05 0.200034 
-9.37895e-05 2.59347e-05 0.20008 
-2.76725e-05 1.11363e-05 0.100056 
-4.92106e-05 4.86049e-05 0.157828 
-5.62932e-05 -9.34432e-06 0.150889 
0.000471929 -2.38257e-05 0.199766 
0.000333693 -5.62057e-05 0.19994 
0.000373729 2.28709e-05 0.199907 
5.54151e-05 1.87711e-07 0.0999804 
0.000160949 -0.000321115 0.199898 
8.8652e-05 -0.000420002 0.199811 
8.82513e-05 -0.00023561 0.200013 
1.72913e-05 -4.87396e-05 0.0999604 
0.000262779 -0.00029797 0.199816 
2.64982e-05 -4.70564e-05 0.0999822 
3.75629e-05 -4.14227e-05 0.0999405 
2.92333e-05 -3.40165e-05 0.099858 
6.68348e-05 5.86874e-06 0.0998683 
0.000373729 2.28709e-05 0.199907 
0.000571084 4.2848e-05 0.19959 
5.44003e-05 1.83981e-05 0.0999154 
-0.000179493 -9.36412e-05 0.149054 
-3.62094e-05 -2.04487e-05 0.0997118 
-0.000431251 -0.000202804 0.199688 
-4.32109e-05 -1.97336e-05 0.0997364 
0.000392687 0.000104979 0.19985 
0.000233312 7.26146e-05 0.200022 
5.26181e-05 3.07291e-05 0.0999722 
5.44003e-05 1.83981e-05 0.0999154 
-3.50716e-05 -2.88763e-05 0.0999037 
-4.10081e-05 -4.21213e-05 0.0999941 
-4.68848e-05 -3.02534e-05 0.099973 
-0.000224997 -0.000195954 0.199972 
-0.000208361 6.08813e-05 0.148938 
-1.16305e-05 1.19241e-05 0.0996345 
-0.000204699 0.000101989 0.149004 
-0.000481309 0.000205405 0.199639 
5.54151e-05 1.87711e-07 0.0999804 
5.28329e-05 -8.39764e-06 0.0998817 
0.000333693 -5.62057e-05 0.19994 
6.62628e-05 -1.66144e-05 0.0999877 
-1.47519e-05 -6.37192e-05 0.0999789 
-9.14808e-06 -3.27901e-05 0.0998338 
5.77214e-07 -5.68983e-05 0.0999051 
-6.25002e-05 -0.000367434 0.1999 
-7.14711e-06 -3.47554e-05 0.100051 
3.67195e-06 -6.85529e-05 0.157357 
-9.02739e-06 -2.23435e-05 0.100056 
-3.58797e-05 -3.95438e-05 0.145899 
-7.14711e-06 -3.47554e-05 0.100051 
2.82143e-06 -2.87493e-05 0.100054 
-9.02739e-06 -2.23435e-05 0.100056 
3.67195e-06 -6.85529e-05 0.157357 
3.83034e-05 4.32617e-05 0.0999912 
0.000167176 0.000257869 0.199972 
0.000284184 0.000196041 0.199918 
4.07218e-05 3.08412e-05 0.0999026 
0.000572138 0.00012917 0.199385 
0.000207544 5.29e-05 0.148945 
3.22432e-05 1.66052e-05 0.0996986 
1.22695e-05 1.95146e-05 0.0996311 
-4.53201e-05 8.48944e-06 0.0998868 
-5.18023e-05 8.55186e-07 0.099978 
-0.000304392 4.80085e-05 0.19998 
-0.000475084 1.53692e-05 0.199805 
6.68348e-05 5.86874e-06 0.0998683 
0.000471929 -2.38257e-05 0.199766 
0.000373729 2.28709e-05 0.199907 
5.54151e-05 1.87711e-07 0.0999804 
0.000191302 -8.42357e-05 0.200035 
0.00021536 -6.60223e-06 0.200039 
0.000333693 -5.62057e-05 0.19994 
6.62628e-05 -1.66144e-05 0.0999877 
-1.83496e-05 -2.33838e-05 0.0996842 
-2.73231e-05 -6.16719e-05 0.0999002 
-1.67321e-05 -2.50994e-05 0.0997157 
-0.000148037 -0.000409557 0.199807 
3.34416e-05 -1.79446e-05 0.0997097 
0.000510146 -0.000106163 0.199675 
4.83184e-05 -1.35016e-05 0.0999022 
3.66889e-05 -2.47289e-05 0.099731 
-2.73231e-05 -6.16719e-05 0.0999002 
-9.14808e-06 -3.27901e-05 0.0998338 
-1.47519e-05 -6.37192e-05 0.0999789 
-6.25002e-05 -0.000367434 0.1999 
-2.42004e-05 3.37462e-05 0.0998812 
-1.53002e-05 5.05967e-05 0.0999726 
-7.85929e-06 3.04787e-05 0.0998382 
-6.81921e-05 0.000434552 0.19982 
-0.000402841 0.00010122 0.199859 
-6.03446e-05 2.69656e-05 0.0999712 
-4.6685e-05 2.01706e-05 0.0998478 
-0.000288311 0.00016015 0.199941 
-9.09223e-06 6.55199e-06 0.099644 
-0.000475084 1.53692e-05 0.199805 
-0.000717163 2.65952e-05 0.199324 
-0.000643621 -3.29165e-05 0.199437 
0.000117021 -0.000539884 0.199445 
3.20634e-05 -0.000602932 0.199473 
8.8652e-05 -0.000420002 0.199811 
9.15213e-06 -3.90423e-05 0.0998458 
-6.25002e-05 -0.000367434 0.1999 
-3.92297e-05 -0.000615467 0.1995 
-9.14808e-06 -3.27901e-05 0.0998338 
-6.45691e-08 -0.000473715 0.199789 
-3.92297e-05 -0.000615467 0.1995 
-9.14808e-06 -3.27901e-05 0.0998338 
-0.00012456 -0.000544598 0.199537 
-6.25002e-05 -0.000367434 0.1999 
8.8652e-05 -0.000420002 0.199811 
0.000207068 -0.000458323 0.199648 
0.000117021 -0.000539884 0.199445 
2.61482e-05 -3.81491e-05 0.0998688 
0.000128146 0.000173085 0.148992 
0.000288652 0.000386323 0.199727 
0.000232799 0.00049479 0.199393 
2.00884e-05 1.34031e-05 0.0997219 
-1.75227e-05 -1.27165e-05 0.0996616 
-5.57768e-05 -1.71737e-05 0.0998385 
-4.41431e-05 -5.08118e-06 0.0998697 
-0.000465418 -6.19477e-05 0.199773 
0.000320652 -0.000179116 0.199874 
4.71313e-05 -2.78628e-05 0.0999793 
0.000191302 -8.42357e-05 0.200035 
0.000333693 -5.62057e-05 0.19994 
-0.000717163 2.65952e-05 0.199324 
-0.000203936 3.86377e-05 0.148803 
-9.09223e-06 6.55199e-06 0.099644 
-0.000219178 1.89781e-06 0.148615 
-2.95201e-05 -5.41367e-05 0.0999965 
-0.000135603 -0.000268826 0.199972 
-4.73694e-05 -0.000204094 0.200041 
-0.000117137 -0.000145527 0.200055 
-0.000372486 0.000298782 0.199652 
-0.000204699 0.000101989 0.149004 
-1.16305e-05 1.19241e-05 0.0996345 
-0.000481309 0.000205405 0.199639 
1.22695e-05 1.95146e-05 0.0996311 
0.000478173 0.000209908 0.199621 
0.000205935 9.75277e-05 0.14895 
2.60351e-05 3.02084e-05 0.0996995 
0.000571084 4.2848e-05 0.19959 
0.000614334 -2.48593e-05 0.199307 
2.43334e-05 -8.1768e-06 0.0996381 
7.51463e-06 5.33769e-06 0.0995691 
2.60351e-05 3.02084e-05 0.0996995 
0.000403265 0.000299758 0.199549 
0.000151385 0.00011925 0.149091 
2.00884e-05 1.34031e-05 0.0997219 
-8.05101e-06 2.79562e-05 0.0996153 
2.7465e-06 0.000217646 0.14865 
-3.21406e-05 0.000206386 0.148788 
-2.79879e-05 0.000610198 0.199443 
-4.68848e-05 -3.02534e-05 0.099973 
-0.000337529 -0.000236286 0.199798 
-3.50716e-05 -2.88763e-05 0.0999037 
-0.000224997 -0.000195954 0.199972 
-0.000309526 0.000384151 0.199483 
-3.09281e-05 3.29925e-05 0.0998453 
-1.32454e-05 3.75386e-05 0.0997356 
-0.00020635 0.000439469 0.199687 
-0.000309526 0.000384151 0.199483 
-0.000147047 0.000127438 0.14914 
-3.68981e-05 2.03293e-05 0.0997327 
-0.000372486 0.000298782 0.199652 
-0.000304392 4.80085e-05 0.19998 
-0.000180467 7.85817e-05 0.200052 
-6.03446e-05 2.69656e-05 0.0999712 
-0.000288311 0.00016015 0.199941 
-3.92297e-05 -0.000615467 0.1995 
-3.18552e-05 -0.000215459 0.148791 
-3.20611e-06 -1.55851e-05 0.0996728 
4.46314e-07 -0.000228302 0.148614 
-3.11894e-05 -4.6494e-05 0.0999213 
-2.73231e-05 -6.16719e-05 0.0999002 
-2.95201e-05 -5.41367e-05 0.0999965 
-0.000135603 -0.000268826 0.199972 
8.8652e-05 -0.000420002 0.199811 
1.79435e-05 -0.000302394 0.199991 
8.82513e-05 -0.00023561 0.200013 
1.72913e-05 -4.87396e-05 0.0999604 
-3.11894e-05 -4.6494e-05 0.0999213 
-2.95201e-05 -5.41367e-05 0.0999965 
-4.10081e-05 -4.21213e-05 0.0999941 
-0.000135603 -0.000268826 0.199972 
-0.000578786 -0.000115865 0.199462 
-0.000643621 -3.29165e-05 0.199437 
-1.75227e-05 -1.27165e-05 0.0996616 
-0.000207445 -2.344e-05 0.14871 
0.000470021 -0.000214704 0.199503 
0.000320652 -0.000179116 0.199874 
0.000510146 -0.000106163 0.199675 
4.83184e-05 -1.35016e-05 0.0999022 
-1.95758e-05 -2.81997e-05 0.100051 
-7.14711e-06 -3.47554e-05 0.100051 
-9.02739e-06 -2.23435e-05 0.100056 
-3.58797e-05 -3.95438e-05 0.145899 
-0.000159539 0.000181181 0.20002 
-0.000239537 0.000287478 0.199859 
-5.05469e-05 3.1268e-05 0.099934 
-0.000288311 0.00016015 0.199941 
0.000131594 4.08422e-05 0.200067 
6.1996e-05 8.96588e-05 0.200075 
0.000145874 0.000127657 0.200051 
3.47362e-05 2.95918e-05 0.100047 
1.79435e-05 -0.000302394 0.199991 
-6.25002e-05 -0.000367434 0.1999 
5.77214e-07 -5.68983e-05 0.0999051 
-6.45691e-08 -0.000473715 0.199789 
8.78564e-06 1.69935e-05 0.0996257 
0.000122264 0.000527901 0.199597 
0.000232799 0.00049479 0.199393 
5.46821e-05 0.000210247 0.148828 
5.28329e-05 -8.39764e-06 0.0998817 
0.000510146 -0.000106163 0.199675 
0.000333693 -5.62057e-05 0.19994 
4.83184e-05 -1.35016e-05 0.0999022 
-1.93372e-05 -1.25182e-05 0.0997376 
-1.94144e-05 -5.22873e-05 0.0994215 
-1.67321e-05 -2.50994e-05 0.0997157 
-8.45467e-05 -0.000186951 0.14907 
0.000207068 -0.000458323 0.199648 
0.000309034 -0.000402878 0.199427 
1.29394e-05 -3.06464e-05 0.0996941 
2.92333e-05 -3.40165e-05 0.099858 
-7.65052e-06 0.000152877 0.200064 
-5.06565e-06 5.53661e-05 0.100018 
-7.1352e-05 0.000215698 0.200031 
6.5647e-07 0.00028577 0.2 
-0.000643621 -3.29165e-05 0.199437 
-1.75227e-05 -1.27165e-05 0.0996616 
-4.41431e-05 -5.08118e-06 0.0998697 
-0.000465418 -6.19477e-05 0.199773 
0.000167176 0.000257869 0.199972 
3.4004e-05 4.90207e-05 0.0999162 
3.83034e-05 4.32617e-05 0.0999912 
3.36434e-05 5.82349e-05 0.0999934 
-1.32454e-05 3.75386e-05 0.0997356 
-1.80177e-05 3.27343e-05 0.0996951 
-9.2635e-05 0.00018691 0.149074 
-0.00020635 0.000439469 0.199687 
-3.91604e-05 -2.92381e-05 0.100026 
-0.000224997 -0.000195954 0.199972 
-0.000117137 -0.000145527 0.200055 
-0.000217476 -9.14479e-05 0.200034 
-5.18023e-05 8.55186e-07 0.099978 
-0.000304392 4.80085e-05 0.19998 
-0.000475084 1.53692e-05 0.199805 
-0.000323947 -3.66112e-05 0.199957 
-0.00020635 0.000439469 0.199687 
-0.000309526 0.000384151 0.199483 
-3.09281e-05 3.29925e-05 0.0998453 
-0.000239537 0.000287478 0.199859 
-0.000203936 3.86377e-05 0.148803 
-2.93425e-05 1.29084e-05 0.0997196 
-0.000208361 6.08813e-05 0.148938 
-0.000568379 0.000104715 0.199547 
-3.11394e-05 5.56202e-05 0.0999841 
-0.000138974 0.000292305 0.199944 
-0.000159539 0.000181181 0.20002 
-7.1352e-05 0.000215698 0.200031 
0.000106414 -0.000123092 0.200054 
3.8742e-05 -2.7704e-05 0.100041 
2.53648e-05 -3.74752e-05 0.100032 
4.00455e-05 -7.92561e-05 0.158184 
4.07218e-05 3.08412e-05 0.0999026 
0.000288652 0.000386323 0.199727 
0.000403265 0.000299758 0.199549 
2.00884e-05 1.34031e-05 0.0997219 
1.22695e-05 1.95146e-05 0.0996311 
4.93408e-05 2.06597e-05 0.0998533 
0.000478173 0.000209908 0.199621 
2.60351e-05 3.02084e-05 0.0996995 
-1.93372e-05 -1.25182e-05 0.0997376 
-0.000135786 -0.000175158 0.148955 
-1.94144e-05 -5.22873e-05 0.0994215 
-8.45467e-05 -0.000186951 0.14907 
-3.92297e-05 -0.000615467 0.1995 
-3.20611e-06 -1.55851e-05 0.0996728 
-9.14808e-06 -3.27901e-05 0.0998338 
-6.45691e-08 -0.000473715 0.199789 
0.000122264 0.000527901 0.199597 
0.000170177 0.000382598 0.199801 
2.40704e-05 6.30622e-05 0.0998557 
1.66274e-05 2.8631e-05 0.0996962 
2.43334e-05 -8.1768e-06 0.0996381 
0.000471929 -2.38257e-05 0.199766 
0.000614334 -2.48593e-05 0.199307 
0.000571084 4.2848e-05 0.19959 
-0.000431251 -0.000202804 0.199688 
-0.000578786 -0.000115865 0.199462 
-3.62094e-05 -2.04487e-05 0.0997118 
-0.000179493 -9.36412e-05 0.149054 
-3.11894e-05 -4.6494e-05 0.0999213 
-1.67321e-05 -2.50994e-05 0.0997157 
-0.000148037 -0.000409557 0.199807 
-0.000281937 -0.000371875 0.199758 
-0.000354828 -0.000128404 0.199897 
-0.000578786 -0.000115865 0.199462 
-3.62094e-05 -2.04487e-05 0.0997118 
-0.000431251 -0.000202804 0.199688 
-3.43076e-05 -0.000105751 0.200072 
3.67195e-06 -6.85529e-05 0.157357 
-1.78398e-05 -3.9575e-05 0.100047 
-3.58797e-05 -3.95438e-05 0.145899 
0.000478173 0.000209908 0.199621 
0.000284184 0.000196041 0.199918 
0.000403265 0.000299758 0.199549 
4.93408e-05 2.06597e-05 0.0998533 
-5.21181e-05 7.20726e-06 0.100023 
-0.000180467 7.85817e-05 0.200052 
-0.000304392 4.80085e-05 0.19998 
-0.000195654 -1.95209e-06 0.200055 
3.34416e-05 -1.79446e-05 0.0997097 
0.000510146 -0.000106163 0.199675 
5.28329e-05 -8.39764e-06 0.0998817 
4.83184e-05 -1.35016e-05 0.0999022 
0.000145874 0.000127657 0.200051 
0.000233312 7.26146e-05 0.200022 
0.000131594 4.08422e-05 0.200067 
4.82396e-05 1.7431e-05 0.100035 
-2.48284e-05 -9.27827e-06 0.100057 
-1.05306e-05 -1.09753e-05 0.100059 
-1.09149e-05 -2.79555e-05 0.151478 
-3.58797e-05 -3.95438e-05 0.145899 
2.35166e-06 5.1993e-06 0.10006 
-1.7716e-06 -4.07097e-06 0.10006 
6.64819e-06 -2.61503e-06 0.100059 
4.18319e-06 2.09035e-06 0.157842 
-0.000180467 7.85817e-05 0.200052 
-0.000159539 0.000181181 0.20002 
-4.61568e-05 3.28924e-05 0.100003 
-0.000288311 0.00016015 0.199941 
-6.81921e-05 0.000434552 0.19982 
-0.000108641 0.000555786 0.199462 
-2.42004e-05 3.37462e-05 0.0998812 
-0.00020635 0.000439469 0.199687 
9.10482e-05 -0.000188372 0.148985 
0.000207068 -0.000458323 0.199648 
0.000309034 -0.000402878 0.199427 
1.29394e-05 -3.06464e-05 0.0996941 
0.000571084 4.2848e-05 0.19959 
0.000392687 0.000104979 0.19985 
3.22432e-05 1.66052e-05 0.0996986 
5.44003e-05 1.83981e-05 0.0999154 
0.000284184 0.000196041 0.199918 
0.000392687 0.000104979 0.19985 
5.26181e-05 3.07291e-05 0.0999722 
4.93408e-05 2.06597e-05 0.0998533 
0.000170177 0.000382598 0.199801 
0.000232799 0.00049479 0.199393 
0.000288652 0.000386323 0.199727 
1.66274e-05 2.8631e-05 0.0996962 
1.29394e-05 -3.06464e-05 0.0996941 
1.2948e-05 -4.26274e-05 0.0996906 
0.000207068 -0.000458323 0.199648 
2.61482e-05 -3.81491e-05 0.0998688 
-6.45691e-08 -0.000473715 0.199789 
-3.20611e-06 -1.55851e-05 0.0996728 
5.77214e-07 -5.68983e-05 0.0999051 
9.15213e-06 -3.90423e-05 0.0998458 
-4.73694e-05 -0.000204094 0.200041 
-6.25002e-05 -0.000367434 0.1999 
-1.47519e-05 -6.37192e-05 0.0999789 
1.79435e-05 -0.000302394 0.199991 
-2.73738e-05 1.18722e-05 0.150379 
-4.92106e-05 4.86049e-05 0.157828 
-2.76725e-05 1.11363e-05 0.100056 
-5.62932e-05 -9.34432e-06 0.150889 
-3.18552e-05 -0.000215459 0.148791 
-3.20611e-06 -1.55851e-05 0.0996728 
-1.83496e-05 -2.33838e-05 0.0996842 
-3.92297e-05 -0.000615467 0.1995 
0.000309034 -0.000402878 0.199427 
0.000155318 -0.000111349 0.149062 
1.82823e-05 -2.44826e-05 0.0996838 
0.000387817 -0.000299588 0.199624 
-1.80177e-05 3.27343e-05 0.0996951 
-1.32454e-05 3.75386e-05 0.0997356 
-2.42004e-05 3.37462e-05 0.0998812 
-0.00020635 0.000439469 0.199687 
-0.000207445 -2.344e-05 0.14871 
-1.75227e-05 -1.27165e-05 0.0996616 
-0.000578786 -0.000115865 0.199462 
-0.000198628 -6.74414e-05 0.149035 
2.12594e-05 -7.44716e-06 0.100055 
1.49694e-05 3.83395e-07 0.100059 
1.0665e-05 -1.07206e-05 0.100056 
3.3304e-05 -2.43707e-05 0.154989 
0.000572138 0.00012917 0.199385 
0.000571084 4.2848e-05 0.19959 
3.22432e-05 1.66052e-05 0.0996986 
7.51463e-06 5.33769e-06 0.0995691 
-3.11894e-05 -4.6494e-05 0.0999213 
-1.67321e-05 -2.50994e-05 0.0997157 
-2.73231e-05 -6.16719e-05 0.0999002 
-0.000148037 -0.000409557 0.199807 
4.71313e-05 -2.78628e-05 0.0999793 
0.000191302 -8.42357e-05 0.200035 
0.000185134 -0.000194418 0.199989 
0.000320652 -0.000179116 0.199874 
1.2948e-05 -4.26274e-05 0.0996906 
9.10482e-05 -0.000188372 0.148985 
2.7688e-05 -6.24404e-05 0.0994051 
1.29394e-05 -3.06464e-05 0.0996941 
0.000191302 -8.42357e-05 0.200035 
0.000185134 -0.000194418 0.199989 
0.000106414 -0.000123092 0.200054 
4.37893e-05 -4.04e-05 0.100013 
6.64819e-06 -2.61503e-06 0.100059 
1.49694e-05 3.83395e-07 0.100059 
4.18319e-06 2.09035e-06 0.157842 
3.3304e-05 -2.43707e-05 0.154989 
-1.53002e-05 5.05967e-05 0.0999726 
-6.81921e-05 0.000434552 0.19982 
-0.000138974 0.000292305 0.199944 
-7.1352e-05 0.000215698 0.200031 
-0.000402841 0.00010122 0.199859 
-0.000304392 4.80085e-05 0.19998 
-6.03446e-05 2.69656e-05 0.0999712 
-0.000288311 0.00016015 0.199941 
-2.42004e-05 3.37462e-05 0.0998812 
-1.32454e-05 3.75386e-05 0.0997356 
-2.83206e-05 4.36499e-05 0.099905 
-0.00020635 0.000439469 0.199687 
-3.19851e-05 -2.71852e-05 0.100048 
-3.58797e-05 -3.95438e-05 0.145899 
-3.75463e-05 -1.34821e-05 0.100053 
-9.53726e-05 -2.50756e-05 0.151284 
-4.68848e-05 -3.02534e-05 0.099973 
-0.000354828 -0.000128404 0.199897 
-0.000337529 -0.000236286 0.199798 
-0.000224997 -0.000195954 0.199972 
-1.53002e-05 5.05967e-05 0.0999726 
-6.81921e-05 0.000434552 0.19982 
-7.1352e-05 0.000215698 0.200031 
6.5647e-07 0.00028577 0.2 
-2.63817e-07 -1.56048e-05 0.100058 
4.18319e-06 2.09035e-06 0.157842 
-1.7716e-06 -4.07097e-06 0.10006 
-1.09149e-05 -2.79555e-05 0.151478 
-0.000237601 -0.000487351 0.199448 
-1.93372e-05 -1.25182e-05 0.0997376 
-0.000135786 -0.000175158 0.148955 
-0.000281937 -0.000371875 0.199758 
-0.000402841 0.00010122 0.199859 
-4.6685e-05 2.01706e-05 0.0998478 
-2.93425e-05 1.29084e-05 0.0997196 
-0.000481309 0.000205405 0.199639 
-0.000309526 0.000384151 0.199483 
-9.2635e-05 0.00018691 0.149074 
-0.000117562 0.000149613 0.149127 
-0.000369389 0.000559132 0.198625 
0.000510146 -0.000106163 0.199675 
0.000219663 -5.4346e-05 0.148874 
3.34416e-05 -1.79446e-05 0.0997097 
0.000614334 -2.48593e-05 0.199307 
3.22432e-05 1.66052e-05 0.0996986 
0.000478173 0.000209908 0.199621 
0.000572138 0.00012917 0.199385 
1.22695e-05 1.95146e-05 0.0996311 
-0.000179493 -9.36412e-05 0.149054 
-0.000578786 -0.000115865 0.199462 
-3.62094e-05 -2.04487e-05 0.0997118 
-0.000198628 -6.74414e-05 0.149035 
-0.000481309 0.000205405 0.199639 
-4.6685e-05 2.01706e-05 0.0998478 
-0.000372486 0.000298782 0.199652 
-0.000288311 0.00016015 0.199941 
0.000172064 -7.60617e-05 0.149032 
0.000219663 -5.4346e-05 0.148874 
6.40586e-05 -3.56762e-05 0.0993838 
3.66889e-05 -2.47289e-05 0.099731 
1.82823e-05 -2.44826e-05 0.0996838 
0.000114199 -0.00014036 0.149119 
0.000155318 -0.000111349 0.149062 
0.000309034 -0.000402878 0.199427 
0.000160949 -0.000321115 0.199898 
8.82513e-05 -0.00023561 0.200013 
0.000185134 -0.000194418 0.199989 
2.64982e-05 -4.70564e-05 0.0999822 
-1.93372e-05 -1.25182e-05 0.0997376 
-4.81035e-05 -2.4711e-05 0.0994534 
-0.000141312 -0.000121651 0.149159 
-4.04487e-05 -1.98403e-05 0.0997295 
2.40704e-05 6.30622e-05 0.0998557 
8.78564e-06 1.69935e-05 0.0996257 
0.000122264 0.000527901 0.199597 
1.66274e-05 2.8631e-05 0.0996962 
3.66889e-05 -2.47289e-05 0.099731 
0.000172064 -7.60617e-05 0.149032 
0.000155318 -0.000111349 0.149062 
5.18791e-05 -3.71255e-05 0.099447 
2.60305e-05 -2.07289e-05 0.100052 
1.54212e-05 -3.3144e-05 0.100052 
2.53441e-05 -3.40384e-05 0.100044 
4.00455e-05 -7.92561e-05 0.158184 
-0.000481309 0.000205405 0.199639 
-0.000208361 6.08813e-05 0.148938 
-2.93425e-05 1.29084e-05 0.0997196 
-0.000568379 0.000104715 0.199547 
-0.000309526 0.000384151 0.199483 
-1.32454e-05 3.75386e-05 0.0997356 
-9.2635e-05 0.00018691 0.149074 
-0.00020635 0.000439469 0.199687 
-0.00012456 -0.000544598 0.199537 
-1.83496e-05 -2.33838e-05 0.0996842 
-1.67321e-05 -2.50994e-05 0.0997157 
-0.000148037 -0.000409557 0.199807 
-1.93372e-05 -1.25182e-05 0.0997376 
-0.000364036 -0.000315265 0.19953 
-0.000135786 -0.000175158 0.148955 
-0.000281937 -0.000371875 0.199758 
-3.50716e-05 -2.88763e-05 0.0999037 
-4.04487e-05 -1.98403e-05 0.0997295 
-1.93372e-05 -1.25182e-05 0.0997376 
-0.000281937 -0.000371875 0.199758 
-0.000138974 0.000292305 0.199944 
-0.00020635 0.000439469 0.199687 
-2.83206e-05 4.36499e-05 0.099905 
-0.000239537 0.000287478 0.199859 
-7.65052e-06 0.000152877 0.200064 
-1.39692e-05 5.52224e-05 0.200083 
-4.92106e-05 4.86049e-05 0.157828 
1.22206e-05 6.47679e-05 0.152131 
3.75629e-05 -4.14227e-05 0.0999405 
2.64982e-05 -4.70564e-05 0.0999822 
0.000185134 -0.000194418 0.199989 
4.37893e-05 -4.04e-05 0.100013 
6.40586e-05 -3.56762e-05 0.0993838 
0.000219663 -5.4346e-05 0.148874 
3.34416e-05 -1.79446e-05 0.0997097 
3.66889e-05 -2.47289e-05 0.099731 
-0.000237601 -0.000487351 0.199448 
-0.000148037 -0.000409557 0.199807 
-1.67321e-05 -2.50994e-05 0.0997157 
-0.000281937 -0.000371875 0.199758 
2.60305e-05 -2.07289e-05 0.100052 
3.3304e-05 -2.43707e-05 0.154989 
1.54212e-05 -3.3144e-05 0.100052 
4.00455e-05 -7.92561e-05 0.158184 
1.2948e-05 -4.26274e-05 0.0996906 
9.10482e-05 -0.000188372 0.148985 
6.22044e-05 -0.000177221 0.148971 
2.7688e-05 -6.24404e-05 0.0994051 
4.07218e-05 3.08412e-05 0.0999026 
3.4004e-05 4.90207e-05 0.0999162 
0.000288652 0.000386323 0.199727 
2.00884e-05 1.34031e-05 0.0997219 
1.66274e-05 2.8631e-05 0.0996962 
0.000288652 0.000386323 0.199727 
3.4004e-05 4.90207e-05 0.0999162 
2.00884e-05 1.34031e-05 0.0997219 
-5.42633e-05 0.000187363 0.149034 
-3.15693e-05 5.56619e-05 0.0994092 
-1.80177e-05 3.27343e-05 0.0996951 
-9.2635e-05 0.00018691 0.149074 
-0.000141312 -0.000121651 0.149159 
-0.000135786 -0.000175158 0.148955 
-4.81035e-05 -2.4711e-05 0.0994534 
-1.93372e-05 -1.25182e-05 0.0997376 
-4.41431e-05 -5.08118e-06 0.0998697 
-0.000475084 1.53692e-05 0.199805 
-0.000465418 -6.19477e-05 0.199773 
-0.000323947 -3.66112e-05 0.199957 
0.000478173 0.000209908 0.199621 
0.000403265 0.000299758 0.199549 
0.000205935 9.75277e-05 0.14895 
2.60351e-05 3.02084e-05 0.0996995 
0.000373729 2.28709e-05 0.199907 
0.000333693 -5.62057e-05 0.19994 
0.00021536 -6.60223e-06 0.200039 
5.54151e-05 1.87711e-07 0.0999804 
0.000170177 0.000382598 0.199801 
3.4004e-05 4.90207e-05 0.0999162 
2.40704e-05 6.30622e-05 0.0998557 
1.66274e-05 2.8631e-05 0.0996962 
1.01356e-05 5.20172e-05 0.0999067 
1.85543e-06 3.15096e-05 0.0998219 
1.73747e-05 0.000466829 0.199793 
8.49044e-06 3.37106e-05 0.0996727 
-4.54472e-05 -4.4511e-05 0.0994697 
-0.000141312 -0.000121651 0.149159 
-4.04487e-05 -1.98403e-05 0.0997295 
-4.32109e-05 -1.97336e-05 0.0997364 
2.22118e-06 3.85654e-05 0.0999452 
-6.81921e-05 0.000434552 0.19982 
6.5647e-07 0.00028577 0.2 
1.73747e-05 0.000466829 0.199793 
-1.67321e-05 -2.50994e-05 0.0997157 
-3.11894e-05 -4.6494e-05 0.0999213 
-1.93372e-05 -1.25182e-05 0.0997376 
-0.000281937 -0.000371875 0.199758 
0.000131594 4.08422e-05 0.200067 
0.00021536 -6.60223e-06 0.200039 
0.000117563 -3.5786e-05 0.200072 
6.27565e-05 1.43088e-05 0.155954 
-3.09281e-05 3.29925e-05 0.0998453 
-0.000309526 0.000384151 0.199483 
-0.000372486 0.000298782 0.199652 
-0.000239537 0.000287478 0.199859 
0.000403265 0.000299758 0.199549 
0.000151385 0.00011925 0.149091 
0.000205935 9.75277e-05 0.14895 
2.60351e-05 3.02084e-05 0.0996995 
-0.000222461 0.000684546 0.198603 
-9.2635e-05 0.00018691 0.149074 
-5.42633e-05 0.000187363 0.149034 
-0.000108641 0.000555786 0.199462 
-6.2081e-06 -4.67449e-05 0.100043 
4.34401e-06 -4.13329e-05 0.100046 
-7.14711e-06 -3.47554e-05 0.100051 
3.67195e-06 -6.85529e-05 0.157357 
-1.67321e-05 -2.50994e-05 0.0997157 
-0.00012456 -0.000544598 0.199537 
-0.000148037 -0.000409557 0.199807 
-0.000237601 -0.000487351 0.199448 
6.68348e-05 5.86874e-06 0.0998683 
6.75354e-05 1.07688e-05 0.0999743 
0.000373729 2.28709e-05 0.199907 
5.44003e-05 1.83981e-05 0.0999154 
2.42034e-05 7.68226e-06 0.100055 
2.12594e-05 -7.44716e-06 0.100055 
3.39295e-05 4.54892e-07 0.100049 
6.27565e-05 1.43088e-05 0.155954 
6.68348e-05 5.86874e-06 0.0998683 
0.000571084 4.2848e-05 0.19959 
3.22432e-05 1.66052e-05 0.0996986 
5.44003e-05 1.83981e-05 0.0999154 
8.8652e-05 -0.000420002 0.199811 
-6.45691e-08 -0.000473715 0.199789 
1.79435e-05 -0.000302394 0.199991 
9.15213e-06 -3.90423e-05 0.0998458 
-5.05469e-05 3.1268e-05 0.099934 
-4.6685e-05 2.01706e-05 0.0998478 
-6.03446e-05 2.69656e-05 0.0999712 
-0.000288311 0.00016015 0.199941 
0.000373729 2.28709e-05 0.199907 
6.75354e-05 1.07688e-05 0.0999743 
6.68348e-05 5.86874e-06 0.0998683 
5.54151e-05 1.87711e-07 0.0999804 
-0.000141312 -0.000121651 0.149159 
-4.54472e-05 -4.4511e-05 0.0994697 
-0.000179493 -9.36412e-05 0.149054 
-4.32109e-05 -1.97336e-05 0.0997364 
4.93408e-05 2.06597e-05 0.0998533 
0.000478173 0.000209908 0.199621 
3.22432e-05 1.66052e-05 0.0996986 
1.22695e-05 1.95146e-05 0.0996311 
1.12477e-05 1.12839e-05 0.100057 
2.42034e-05 7.68226e-06 0.100055 
1.81046e-05 1.97682e-05 0.100053 
2.56084e-05 3.31086e-05 0.156257 
0.000205935 9.75277e-05 0.14895 
0.000709646 0.000231794 0.198506 
0.000572138 0.00012917 0.199385 
0.000207544 5.29e-05 0.148945 
-0.000578786 -0.000115865 0.199462 
-1.75227e-05 -1.27165e-05 0.0996616 
-0.000643621 -3.29165e-05 0.199437 
-0.000465418 -6.19477e-05 0.199773 
6.22044e-05 -0.000177221 0.148971 
0.000117021 -0.000539884 0.199445 
0.000230202 -0.00068432 0.19857 
9.10482e-05 -0.000188372 0.148985 
-9.14808e-06 -3.27901e-05 0.0998338 
-1.83496e-05 -2.33838e-05 0.0996842 
-3.20611e-06 -1.55851e-05 0.0996728 
-3.92297e-05 -0.000615467 0.1995 
-2.86777e-05 -5.59701e-05 0.0993943 
-1.67321e-05 -2.50994e-05 0.0997157 
-8.45467e-05 -0.000186951 0.14907 
-5.22295e-05 -0.000204147 0.148977 
-0.000241146 -0.00067185 0.198528 
-0.00012456 -0.000544598 0.199537 
-5.22295e-05 -0.000204147 0.148977 
-0.000237601 -0.000487351 0.199448 
0.000233312 7.26146e-05 0.200022 
0.000392687 0.000104979 0.19985 
0.000373729 2.28709e-05 0.199907 
5.44003e-05 1.83981e-05 0.0999154 
-4.1319e-05 3.94485e-05 0.099967 
-0.000138974 0.000292305 0.199944 
-0.000239537 0.000287478 0.199859 
-0.000159539 0.000181181 0.20002 
2.61482e-05 -3.81491e-05 0.0998688 
2.64982e-05 -4.70564e-05 0.0999822 
0.000160949 -0.000321115 0.199898 
2.92333e-05 -3.40165e-05 0.099858 
0.000203436 -2.7666e-05 0.148866 
0.000219663 -5.4346e-05 0.148874 
0.000810959 -7.73379e-05 0.198322 
0.000614334 -2.48593e-05 0.199307 
-1.05306e-05 -1.09753e-05 0.100059 
-1.09149e-05 -2.79555e-05 0.151478 
-2.73738e-05 1.18722e-05 0.150379 
-5.62932e-05 -9.34432e-06 0.150889 
-0.000239537 0.000287478 0.199859 
-0.000372486 0.000298782 0.199652 
-5.05469e-05 3.1268e-05 0.099934 
-0.000288311 0.00016015 0.199941 
3.26229e-05 5.59097e-05 0.0994266 
0.000128146 0.000173085 0.148992 
9.33216e-05 0.000175703 0.149056 
1.66274e-05 2.8631e-05 0.0996962 
1.73747e-05 0.000466829 0.199793 
3.3193e-05 0.000646532 0.199376 
0.000122264 0.000527901 0.199597 
8.49044e-06 3.37106e-05 0.0996727 
0.000309034 -0.000402878 0.199427 
1.82823e-05 -2.44826e-05 0.0996838 
0.000262779 -0.00029797 0.199816 
0.000387817 -0.000299588 0.199624 
3.26229e-05 5.59097e-05 0.0994266 
0.000128146 0.000173085 0.148992 
1.66274e-05 2.8631e-05 0.0996962 
2.00884e-05 1.34031e-05 0.0997219 
0.000392687 0.000104979 0.19985 
0.000572138 0.00012917 0.199385 
0.000571084 4.2848e-05 0.19959 
3.22432e-05 1.66052e-05 0.0996986 
0.000284184 0.000196041 0.199918 
0.000167176 0.000257869 0.199972 
0.000288652 0.000386323 0.199727 
4.07218e-05 3.08412e-05 0.0999026 
-6.45691e-08 -0.000473715 0.199789 
-3.92297e-05 -0.000615467 0.1995 
-3.20611e-06 -1.55851e-05 0.0996728 
3.20634e-05 -0.000602932 0.199473 
-0.000578786 -0.000115865 0.199462 
-3.62094e-05 -2.04487e-05 0.0997118 
-1.75227e-05 -1.27165e-05 0.0996616 
-0.000465418 -6.19477e-05 0.199773 
0.000155318 -0.000111349 0.149062 
2.5542e-05 -3.21784e-05 0.0997541 
3.66889e-05 -2.47289e-05 0.099731 
5.18791e-05 -3.71255e-05 0.099447 
-0.000558029 -0.000365417 0.198639 
-0.000364036 -0.000315265 0.19953 
-0.000141312 -0.000121651 0.149159 
-0.000179493 -9.36412e-05 0.149054 
-9.02739e-06 -2.23435e-05 0.100056 
2.82143e-06 -2.87493e-05 0.100054 
-2.63817e-07 -1.56048e-05 0.100058 
-1.09149e-05 -2.79555e-05 0.151478 
-3.92297e-05 -0.000615467 0.1995 
-0.00012456 -0.000544598 0.199537 
-3.18552e-05 -0.000215459 0.148791 
-8.53949e-05 -0.000820891 0.198291 
-0.00012456 -0.000544598 0.199537 
-5.22295e-05 -0.000204147 0.148977 
-3.18552e-05 -0.000215459 0.148791 
-8.53949e-05 -0.000820891 0.198291 
2.61482e-05 -3.81491e-05 0.0998688 
0.000160949 -0.000321115 0.199898 
0.000207068 -0.000458323 0.199648 
2.92333e-05 -3.40165e-05 0.099858 
-1.05306e-05 -1.09753e-05 0.100059 
-2.63817e-07 -1.56048e-05 0.100058 
-1.7716e-06 -4.07097e-06 0.10006 
-1.09149e-05 -2.79555e-05 0.151478 
0.000403265 0.000299758 0.199549 
0.000288652 0.000386323 0.199727 
0.000128146 0.000173085 0.148992 
2.00884e-05 1.34031e-05 0.0997219 
-4.6685e-05 2.01706e-05 0.0998478 
-1.16305e-05 1.19241e-05 0.0996345 
-2.93425e-05 1.29084e-05 0.0997196 
-0.000481309 0.000205405 0.199639 
1.51844e-05 4.87235e-05 0.0993034 
8.78564e-06 1.69935e-05 0.0996257 
5.46821e-05 0.000210247 0.148828 
2.91073e-05 0.00020296 0.148791 
-5.22295e-05 -0.000204147 0.148977 
-8.45467e-05 -0.000186951 0.14907 
-0.000241146 -0.00067185 0.198528 
-0.000237601 -0.000487351 0.199448 
-1.67321e-05 -2.50994e-05 0.0997157 
-2.86777e-05 -5.59701e-05 0.0993943 
-1.83496e-05 -2.33838e-05 0.0996842 
-5.22295e-05 -0.000204147 0.148977 
-2.42004e-05 3.37462e-05 0.0998812 
-6.81921e-05 0.000434552 0.19982 
-0.00020635 0.000439469 0.199687 
-0.000138974 0.000292305 0.199944 
-2.73231e-05 -6.16719e-05 0.0999002 
-3.11894e-05 -4.6494e-05 0.0999213 
-0.000148037 -0.000409557 0.199807 
-0.000135603 -0.000268826 0.199972 
-0.000237601 -0.000487351 0.199448 
-1.67321e-05 -2.50994e-05 0.0997157 
-1.93372e-05 -1.25182e-05 0.0997376 
-0.000281937 -0.000371875 0.199758 
2.40704e-05 6.30622e-05 0.0998557 
0.000122264 0.000527901 0.199597 
8.78564e-06 1.69935e-05 0.0996257 
8.49044e-06 3.37106e-05 0.0996727 
-3.11894e-05 -4.6494e-05 0.0999213 
-0.000281937 -0.000371875 0.199758 
-0.000135603 -0.000268826 0.199972 
-0.000224997 -0.000195954 0.199972 
1.73747e-05 0.000466829 0.199793 
8.50239e-05 0.000341188 0.199923 
6.5647e-07 0.00028577 0.2 
1.01356e-05 5.20172e-05 0.0999067 
4.18319e-06 2.09035e-06 0.157842 
-2.73738e-05 1.18722e-05 0.150379 
-1.7716e-06 -4.07097e-06 0.10006 
-1.09149e-05 -2.79555e-05 0.151478 
-0.000364036 -0.000315265 0.19953 
-1.93372e-05 -1.25182e-05 0.0997376 
-4.04487e-05 -1.98403e-05 0.0997295 
-0.000281937 -0.000371875 0.199758 
-3.15693e-05 5.56619e-05 0.0994092 
-1.32454e-05 3.75386e-05 0.0997356 
-1.80177e-05 3.27343e-05 0.0996951 
-9.2635e-05 0.00018691 0.149074 
3.00055e-05 -9.69449e-06 0.100052 
2.12594e-05 -7.44716e-06 0.100055 
2.60305e-05 -2.07289e-05 0.100052 
3.3304e-05 -2.43707e-05 0.154989 
-2.93425e-05 1.29084e-05 0.0997196 
-0.000402841 0.00010122 0.199859 
-0.000481309 0.000205405 0.199639 
-0.000568379 0.000104715 0.199547 
-0.000147047 0.000127438 0.14914 
-0.000204699 0.000101989 0.149004 
-0.000372486 0.000298782 0.199652 
-0.000584694 0.000375778 0.198609 
0.000478173 0.000209908 0.199621 
0.000392687 0.000104979 0.19985 
4.93408e-05 2.06597e-05 0.0998533 
3.22432e-05 1.66052e-05 0.0996986 
-0.000217476 -9.14479e-05 0.200034 
-9.86104e-05 -5.75158e-05 0.200075 
-0.000117137 -0.000145527 0.200055 
-9.53726e-05 -2.50756e-05 0.151284 
0.000145874 0.000127657 0.200051 
0.000284184 0.000196041 0.199918 
0.000233312 7.26146e-05 0.200022 
5.26181e-05 3.07291e-05 0.0999722 
-0.000208361 6.08813e-05 0.148938 
-5.6851e-05 2.21249e-05 0.0993001 
-2.93425e-05 1.29084e-05 0.0997196 
-0.000203936 3.86377e-05 0.148803 
0.000392687 0.000104979 0.19985 
0.000478173 0.000209908 0.199621 
0.000572138 0.00012917 0.199385 
3.22432e-05 1.66052e-05 0.0996986 
-0.000364036 -0.000315265 0.19953 
-0.000558029 -0.000365417 0.198639 
-0.000431251 -0.000202804 0.199688 
-0.000179493 -9.36412e-05 0.149054 
5.28136e-06 -5.4799e-05 0.100032 
2.47556e-05 -0.00017125 0.200062 
4.00455e-05 -7.92561e-05 0.158184 
3.67195e-06 -6.85529e-05 0.157357 
8.50239e-05 0.000341188 0.199923 
1.01356e-05 5.20172e-05 0.0999067 
2.40704e-05 6.30622e-05 0.0998557 
2.00214e-05 6.22632e-05 0.0999638 
2.43334e-05 -8.1768e-06 0.0996381 
0.000471929 -2.38257e-05 0.199766 
0.000571084 4.2848e-05 0.19959 
6.68348e-05 5.86874e-06 0.0998683 
-0.000204699 0.000101989 0.149004 
-0.000208361 6.08813e-05 0.148938 
-0.000481309 0.000205405 0.199639 
-0.000698806 0.000254561 0.198524 
8.8652e-05 -0.000420002 0.199811 
0.000160949 -0.000321115 0.199898 
0.000207068 -0.000458323 0.199648 
2.61482e-05 -3.81491e-05 0.0998688 
7.51463e-06 5.33769e-06 0.0995691 
0.000571084 4.2848e-05 0.19959 
3.22432e-05 1.66052e-05 0.0996986 
6.68348e-05 5.86874e-06 0.0998683 
0.000679601 -0.000220403 0.198556 
0.000219663 -5.4346e-05 0.148874 
0.000172064 -7.60617e-05 0.149032 
0.000470021 -0.000214704 0.199503 
-0.000224997 -0.000195954 0.199972 
-0.000135603 -0.000268826 0.199972 
-4.10081e-05 -4.21213e-05 0.0999941 
-0.000117137 -0.000145527 0.200055 
-1.75227e-05 -1.27165e-05 0.0996616 
-3.62094e-05 -2.04487e-05 0.0997118 
-0.000578786 -0.000115865 0.199462 
-0.000198628 -6.74414e-05 0.149035 
0.000172064 -7.60617e-05 0.149032 
0.000155318 -0.000111349 0.149062 
0.00060301 -0.000351801 0.198596 
0.000470021 -0.000214704 0.199503 
0.000151385 0.00011925 0.149091 
0.000403265 0.000299758 0.199549 
0.000478639 0.000480596 0.198645 
0.000128146 0.000173085 0.148992 
3.34416e-05 -1.79446e-05 0.0997097 
0.000203436 -2.7666e-05 0.148866 
0.000219663 -5.4346e-05 0.148874 
6.09116e-05 -1.2572e-05 0.0993208 
-0.000135603 -0.000268826 0.199972 
-0.000148037 -0.000409557 0.199807 
-2.73231e-05 -6.16719e-05 0.0999002 
-6.25002e-05 -0.000367434 0.1999 
5.94503e-05 2.75417e-05 0.0993018 
0.000211562 3.80713e-05 0.148778 
3.22432e-05 1.66052e-05 0.0996986 
7.51463e-06 5.33769e-06 0.0995691 
1.82823e-05 -2.44826e-05 0.0996838 
2.5542e-05 -3.21784e-05 0.0997541 
0.000262779 -0.00029797 0.199816 
0.000387817 -0.000299588 0.199624 
1.51844e-05 4.87235e-05 0.0993034 
8.78564e-06 1.69935e-05 0.0996257 
2.91073e-05 0.00020296 0.148791 
8.49044e-06 3.37106e-05 0.0996727 
2.72112e-05 1.86924e-05 0.100053 
2.56084e-05 3.31086e-05 0.156257 
2.42034e-05 7.68226e-06 0.100055 
6.27565e-05 1.43088e-05 0.155954 
7.51463e-06 5.33769e-06 0.0995691 
2.43334e-05 -8.1768e-06 0.0996381 
0.000571084 4.2848e-05 0.19959 
6.68348e-05 5.86874e-06 0.0998683 
0.000478173 0.000209908 0.199621 
0.000709646 0.000231794 0.198506 
0.000572138 0.00012917 0.199385 
0.000205935 9.75277e-05 0.14895 
-3.50716e-05 -2.88763e-05 0.0999037 
-1.93372e-05 -1.25182e-05 0.0997376 
-3.11894e-05 -4.6494e-05 0.0999213 
-0.000281937 -0.000371875 0.199758 
-4.53201e-05 8.48944e-06 0.0998868 
-9.09223e-06 6.55199e-06 0.099644 
-4.41431e-05 -5.08118e-06 0.0998697 
-0.000475084 1.53692e-05 0.199805 
0.000320652 -0.000179116 0.199874 
0.000333693 -5.62057e-05 0.19994 
0.000510146 -0.000106163 0.199675 
4.83184e-05 -1.35016e-05 0.0999022 
4.93408e-05 2.06597e-05 0.0998533 
5.26181e-05 3.07291e-05 0.0999722 
0.000284184 0.000196041 0.199918 
4.07218e-05 3.08412e-05 0.0999026 
-1.80177e-05 3.27343e-05 0.0996951 
-8.05101e-06 2.79562e-05 0.0996153 
-2.90284e-05 5.86642e-05 0.099313 
-3.21406e-05 0.000206386 0.148788 
3.34416e-05 -1.79446e-05 0.0997097 
2.43334e-05 -8.1768e-06 0.0996381 
0.000203436 -2.7666e-05 0.148866 
6.09116e-05 -1.2572e-05 0.0993208 
3.22432e-05 1.66052e-05 0.0996986 
0.000392687 0.000104979 0.19985 
4.93408e-05 2.06597e-05 0.0998533 
5.44003e-05 1.83981e-05 0.0999154 
9.15213e-06 -3.90423e-05 0.0998458 
1.72913e-05 -4.87396e-05 0.0999604 
8.8652e-05 -0.000420002 0.199811 
2.61482e-05 -3.81491e-05 0.0998688 
0.000284184 0.000196041 0.199918 
0.000145874 0.000127657 0.200051 
0.000167176 0.000257869 0.199972 
3.83034e-05 4.32617e-05 0.0999912 
8.8652e-05 -0.000420002 0.199811 
1.2948e-05 -4.26274e-05 0.0996906 
9.15213e-06 -3.90423e-05 0.0998458 
2.61482e-05 -3.81491e-05 0.0998688 
0.000207068 -0.000458323 0.199648 
0.000230202 -0.00068432 0.19857 
0.000117021 -0.000539884 0.199445 
9.10482e-05 -0.000188372 0.148985 
-3.68981e-05 2.03293e-05 0.0997327 
-2.93616e-05 3.27868e-05 0.0994386 
-1.16305e-05 1.19241e-05 0.0996345 
-0.000147047 0.000127438 0.14914 
-0.000369389 0.000559132 0.198625 
-0.000309526 0.000384151 0.199483 
-9.2635e-05 0.00018691 0.149074 
-0.00020635 0.000439469 0.199687 
0.000284184 0.000196041 0.199918 
0.000392687 0.000104979 0.19985 
0.000233312 7.26146e-05 0.200022 
5.26181e-05 3.07291e-05 0.0999722 
0.000288652 0.000386323 0.199727 
0.000403265 0.000299758 0.199549 
0.000284184 0.000196041 0.199918 
4.07218e-05 3.08412e-05 0.0999026 
6.68348e-05 5.86874e-06 0.0998683 
2.43334e-05 -8.1768e-06 0.0996381 
0.000471929 -2.38257e-05 0.199766 
5.28329e-05 -8.39764e-06 0.0998817 
0.000309034 -0.000402878 0.199427 
0.000207068 -0.000458323 0.199648 
0.000262779 -0.00029797 0.199816 
2.92333e-05 -3.40165e-05 0.099858 
-0.000204699 0.000101989 0.149004 
-1.16305e-05 1.19241e-05 0.0996345 
-2.93616e-05 3.27868e-05 0.0994386 
-0.000147047 0.000127438 0.14914 
5.26181e-05 3.07291e-05 0.0999722 
3.83034e-05 4.32617e-05 0.0999912 
0.000284184 0.000196041 0.199918 
4.07218e-05 3.08412e-05 0.0999026 
-9.09223e-06 6.55199e-06 0.099644 
-2.93425e-05 1.29084e-05 0.0997196 
-5.6851e-05 2.21249e-05 0.0993001 
-0.000203936 3.86377e-05 0.148803 
-0.000179493 -9.36412e-05 0.149054 
-3.62094e-05 -2.04487e-05 0.0997118 
-5.8719e-05 -3.32163e-05 0.0994073 
-0.000198628 -6.74414e-05 0.149035 
0.000356364 -0.000578861 0.198601 
0.000114199 -0.00014036 0.149119 
9.10482e-05 -0.000188372 0.148985 
0.000309034 -0.000402878 0.199427 
-0.000179493 -9.36412e-05 0.149054 
-0.000705526 -0.00021913 0.198565 
-0.000578786 -0.000115865 0.199462 
-0.000198628 -6.74414e-05 0.149035 
2.82143e-06 -2.87493e-05 0.100054 
-1.09149e-05 -2.79555e-05 0.151478 
-9.02739e-06 -2.23435e-05 0.100056 
3.67195e-06 -6.85529e-05 0.157357 
0.000170177 0.000382598 0.199801 
8.50239e-05 0.000341188 0.199923 
0.000122264 0.000527901 0.199597 
2.40704e-05 6.30622e-05 0.0998557 
1.54212e-05 -3.3144e-05 0.100052 
4.00455e-05 -7.92561e-05 0.158184 
3.3304e-05 -2.43707e-05 0.154989 
3.67195e-06 -6.85529e-05 0.157357 
3.75629e-05 -4.14227e-05 0.0999405 
2.5542e-05 -3.21784e-05 0.0997541 
0.000262779 -0.00029797 0.199816 
2.92333e-05 -3.40165e-05 0.099858 
1.54212e-05 -3.3144e-05 0.100052 
2.82143e-06 -2.87493e-05 0.100054 
4.34401e-06 -4.13329e-05 0.100046 
3.67195e-06 -6.85529e-05 0.157357 
-3.43076e-05 -0.000105751 0.200072 
2.47556e-05 -0.00017125 0.200062 
-4.73694e-05 -0.000204094 0.200041 
3.67195e-06 -6.85529e-05 0.157357 
1.82823e-05 -2.44826e-05 0.0996838 
0.000262779 -0.00029797 0.199816 
2.5542e-05 -3.21784e-05 0.0997541 
2.92333e-05 -3.40165e-05 0.099858 
4.43e-05 3.0154e-05 0.099453 
0.000151385 0.00011925 0.149091 
0.000128146 0.000173085 0.148992 
2.00884e-05 1.34031e-05 0.0997219 
0.00060301 -0.000351801 0.198596 
0.000155318 -0.000111349 0.149062 
0.000387817 -0.000299588 0.199624 
0.000470021 -0.000214704 0.199503 
-0.000281937 -0.000371875 0.199758 
-3.50716e-05 -2.88763e-05 0.0999037 
-0.000337529 -0.000236286 0.199798 
-0.000224997 -0.000195954 0.199972 
-6.45691e-08 -0.000473715 0.199789 
8.8652e-05 -0.000420002 0.199811 
3.20634e-05 -0.000602932 0.199473 
9.15213e-06 -3.90423e-05 0.0998458 
0.000599484 0.000364479 0.198585 
0.000403265 0.000299758 0.199549 
0.000151385 0.00011925 0.149091 
0.000205935 9.75277e-05 0.14895 
-0.000147047 0.000127438 0.14914 
-0.000117562 0.000149613 0.149127 
-0.000457457 0.000480427 0.198621 
-0.000309526 0.000384151 0.199483 
-2.90284e-05 5.86642e-05 0.099313 
-1.80177e-05 3.27343e-05 0.0996951 
-3.21406e-05 0.000206386 0.148788 
-5.42633e-05 0.000187363 0.149034 
0.000167176 0.000257869 0.199972 
0.000170177 0.000382598 0.199801 
0.000288652 0.000386323 0.199727 
3.4004e-05 4.90207e-05 0.0999162 
0.000510146 -0.000106163 0.199675 
0.000333693 -5.62057e-05 0.19994 
0.000471929 -2.38257e-05 0.199766 
5.28329e-05 -8.39764e-06 0.0998817 
0.000232799 0.00049479 0.199393 
0.000224226 0.000693757 0.198486 
9.33216e-05 0.000175703 0.149056 
5.46821e-05 0.000210247 0.148828 
-9.02739e-06 -2.23435e-05 0.100056 
3.67195e-06 -6.85529e-05 0.157357 
-1.09149e-05 -2.79555e-05 0.151478 
-3.58797e-05 -3.95438e-05 0.145899 
0.000392687 0.000104979 0.19985 
0.000284184 0.000196041 0.199918 
0.000478173 0.000209908 0.199621 
4.93408e-05 2.06597e-05 0.0998533 
0.000474709 -0.000482868 0.1986 
0.000155318 -0.000111349 0.149062 
0.000114199 -0.00014036 0.149119 
0.000309034 -0.000402878 0.199427 
0.000207544 5.29e-05 0.148945 
0.000205935 9.75277e-05 0.14895 
4.36038e-05 1.97496e-05 0.0993876 
1.22695e-05 1.95146e-05 0.0996311 
6.22044e-05 -0.000177221 0.148971 
2.60195e-05 -0.00020753 0.148712 
5.95926e-06 -1.57217e-05 0.0995966 
2.84555e-05 -3.35713e-05 0.0993456 
0.000207068 -0.000458323 0.199648 
1.29394e-05 -3.06464e-05 0.0996941 
2.61482e-05 -3.81491e-05 0.0998688 
2.92333e-05 -3.40165e-05 0.099858 
-0.000179493 -9.36412e-05 0.149054 
-5.8719e-05 -3.32163e-05 0.0994073 
-3.62094e-05 -2.04487e-05 0.0997118 
-4.32109e-05 -1.97336e-05 0.0997364 
-0.000584694 0.000375778 0.198609 
-0.000204699 0.000101989 0.149004 
-0.000372486 0.000298782 0.199652 
-0.000481309 0.000205405 0.199639 
-8.05101e-06 2.79562e-05 0.0996153 
8.62244e-07 6.50106e-05 0.0992098 
2.7465e-06 0.000217646 0.14865 
8.49044e-06 3.37106e-05 0.0996727 
-0.000475084 1.53692e-05 0.199805 
-0.000304392 4.80085e-05 0.19998 
-4.53201e-05 8.48944e-06 0.0998868 
-0.000402841 0.00010122 0.199859 
-3.68981e-05 2.03293e-05 0.0997327 
-2.42514e-05 2.85041e-05 0.0996595 
-4.01072e-05 3.93274e-05 0.099455 
-0.000147047 0.000127438 0.14914 
-0.000147047 0.000127438 0.14914 
-2.42514e-05 2.85041e-05 0.0996595 
-4.01072e-05 3.93274e-05 0.099455 
-0.000117562 0.000149613 0.149127 
-2.42514e-05 2.85041e-05 0.0996595 
-9.2635e-05 0.00018691 0.149074 
-3.32263e-05 4.86029e-05 0.0994415 
-0.000117562 0.000149613 0.149127 
-0.000204699 0.000101989 0.149004 
-4.14534e-05 2.0604e-05 0.0993809 
-1.16305e-05 1.19241e-05 0.0996345 
-0.000208361 6.08813e-05 0.148938 
2.5542e-05 -3.21784e-05 0.0997541 
1.82823e-05 -2.44826e-05 0.0996838 
0.000155318 -0.000111349 0.149062 
0.000387817 -0.000299588 0.199624 
3.20634e-05 -0.000602932 0.199473 
6.52917e-06 -0.000970406 0.197791 
-3.92297e-05 -0.000615467 0.1995 
4.46314e-07 -0.000228302 0.148614 
-0.000578786 -0.000115865 0.199462 
-0.000431251 -0.000202804 0.199688 
-0.000705526 -0.00021913 0.198565 
-0.000179493 -9.36412e-05 0.149054 
-0.000108641 0.000555786 0.199462 
-0.000222461 0.000684546 0.198603 
-9.2635e-05 0.00018691 0.149074 
-0.00020635 0.000439469 0.199687 
0.000309034 -0.000402878 0.199427 
0.000474709 -0.000482868 0.1986 
0.000155318 -0.000111349 0.149062 
0.000387817 -0.000299588 0.199624 
-2.47137e-05 3.8935e-05 0.10004 
-2.89866e-05 2.38834e-05 0.100048 
-1.91968e-05 2.78376e-05 0.100051 
-4.92106e-05 4.86049e-05 0.157828 
3.71413e-05 1.30871e-05 0.100046 
3.39295e-05 4.54892e-07 0.100049 
4.56621e-05 3.1971e-06 0.100042 
6.27565e-05 1.43088e-05 0.155954 
0.000232799 0.00049479 0.199393 
0.000371077 0.000589379 0.198605 
0.000128146 0.000173085 0.148992 
9.33216e-05 0.000175703 0.149056 
0.000614334 -2.48593e-05 0.199307 
0.00092848 2.30666e-05 0.197823 
0.000233958 2.59389e-06 0.148646 
0.000571084 4.2848e-05 0.19959 
-0.000481309 0.000205405 0.199639 
-0.000402841 0.00010122 0.199859 
-4.6685e-05 2.01706e-05 0.0998478 
-0.000288311 0.00016015 0.199941 
-2.93425e-05 1.29084e-05 0.0997196 
-1.16305e-05 1.19241e-05 0.0996345 
-4.14534e-05 2.0604e-05 0.0993809 
-0.000208361 6.08813e-05 0.148938 
0.000262779 -0.00029797 0.199816 
1.82823e-05 -2.44826e-05 0.0996838 
0.000309034 -0.000402878 0.199427 
2.92333e-05 -3.40165e-05 0.099858 
-2.76725e-05 1.11363e-05 0.100056 
-3.32413e-05 -3.38461e-07 0.100054 
-2.44229e-05 -3.80804e-08 0.100056 
-5.62932e-05 -9.34432e-06 0.150889 
5.94503e-05 2.75417e-05 0.0993018 
0.000211562 3.80713e-05 0.148778 
0.000207544 5.29e-05 0.148945 
3.22432e-05 1.66052e-05 0.0996986 
0.000572138 0.00012917 0.199385 
0.000805685 7.78821e-05 0.198286 
0.000211562 3.80713e-05 0.148778 
0.000207544 5.29e-05 0.148945 
1.81046e-05 1.97682e-05 0.100053 
8.51397e-06 2.01482e-05 0.100056 
1.12477e-05 1.12839e-05 0.100057 
2.56084e-05 3.31086e-05 0.156257 
0.000160949 -0.000321115 0.199898 
0.000262779 -0.00029797 0.199816 
0.000207068 -0.000458323 0.199648 
2.92333e-05 -3.40165e-05 0.099858 
1.29394e-05 -3.06464e-05 0.0996941 
0.000114199 -0.00014036 0.149119 
9.10482e-05 -0.000188372 0.148985 
3.77479e-05 -3.7668e-05 0.09946 
0.000262779 -0.00029797 0.199816 
0.000185134 -0.000194418 0.199989 
0.000320652 -0.000179116 0.199874 
3.75629e-05 -4.14227e-05 0.0999405 
-0.000207445 -2.344e-05 0.14871 
-4.27965e-05 -3.45967e-05 0.0993173 
-1.75227e-05 -1.27165e-05 0.0996616 
-0.000198628 -6.74414e-05 0.149035 
-0.000698806 0.000254561 0.198524 
-0.000208361 6.08813e-05 0.148938 
-0.000481309 0.000205405 0.199639 
-0.000568379 0.000104715 0.199547 
-0.000643621 -3.29165e-05 0.199437 
-0.000578786 -0.000115865 0.199462 
-0.00085406 -7.24145e-05 0.198187 
-0.000207445 -2.344e-05 0.14871 
1.28013e-05 3.08063e-05 0.100052 
1.83156e-05 4.10816e-05 0.100047 
4.21492e-06 3.80124e-05 0.100047 
1.22206e-05 6.47679e-05 0.152131 
0.000151385 0.00011925 0.149091 
4.43e-05 3.0154e-05 0.099453 
2.60351e-05 3.02084e-05 0.0996995 
2.00884e-05 1.34031e-05 0.0997219 
-0.000281937 -0.000371875 0.199758 
-0.000148037 -0.000409557 0.199807 
-3.11894e-05 -4.6494e-05 0.0999213 
-0.000135603 -0.000268826 0.199972 
0.000356364 -0.000578861 0.198601 
9.10482e-05 -0.000188372 0.148985 
0.000207068 -0.000458323 0.199648 
0.000309034 -0.000402878 0.199427 
5.95926e-06 -1.57217e-05 0.0995966 
1.2948e-05 -4.26274e-05 0.0996906 
6.22044e-05 -0.000177221 0.148971 
2.84555e-05 -3.35713e-05 0.0993456 
-3.19851e-05 -2.71852e-05 0.100048 
-3.75463e-05 -1.34821e-05 0.100053 
-4.58566e-05 -1.82272e-05 0.100034 
-9.53726e-05 -2.50756e-05 0.151284 
-0.000141312 -0.000121651 0.149159 
-0.000364036 -0.000315265 0.19953 
-0.00043521 -0.000492102 0.198654 
-0.000135786 -0.000175158 0.148955 
-2.89866e-05 2.38834e-05 0.100048 
-2.76725e-05 1.11363e-05 0.100056 
-1.97289e-05 1.78933e-05 0.100056 
-4.92106e-05 4.86049e-05 0.157828 
8.51397e-06 2.01482e-05 0.100056 
1.28013e-05 3.08063e-05 0.100052 
2.04377e-06 2.70331e-05 0.100055 
1.22206e-05 6.47679e-05 0.152131 
-7.65052e-06 0.000152877 0.200064 
-1.39692e-05 5.52224e-05 0.200083 
-8.0015e-05 0.00011776 0.20007 
-4.92106e-05 4.86049e-05 0.157828 
-3.32263e-05 4.86029e-05 0.0994415 
-1.32454e-05 3.75386e-05 0.0997356 
-9.2635e-05 0.00018691 0.149074 
-2.42514e-05 2.85041e-05 0.0996595 
-0.000135786 -0.000175158 0.148955 
-0.000375921 -0.000576691 0.198603 
-8.45467e-05 -0.000186951 0.14907 
-0.000237601 -0.000487351 0.199448 
-1.09149e-05 -2.79555e-05 0.151478 
-5.62932e-05 -9.34432e-06 0.150889 
-2.48284e-05 -9.27827e-06 0.100057 
-3.58797e-05 -3.95438e-05 0.145899 
1.82823e-05 -2.44826e-05 0.0996838 
0.000114199 -0.00014036 0.149119 
1.29394e-05 -3.06464e-05 0.0996941 
3.77479e-05 -3.7668e-05 0.09946 
0.000571084 4.2848e-05 0.19959 
0.000572138 0.00012917 0.199385 
0.000805685 7.78821e-05 0.198286 
0.000211562 3.80713e-05 0.148778 
2.98249e-05 3.3154e-05 0.0994139 
8.78564e-06 1.69935e-05 0.0996257 
9.33216e-05 0.000175703 0.149056 
5.46821e-05 0.000210247 0.148828 
6.22044e-05 -0.000177221 0.148971 
7.14598e-05 -0.000829809 0.198201 
0.000117021 -0.000539884 0.199445 
2.60195e-05 -0.00020753 0.148712 
7.29176e-05 0.000199333 0.200046 
6.1996e-05 8.96588e-05 0.200075 
-7.65052e-06 0.000152877 0.200064 
1.22206e-05 6.47679e-05 0.152131 
0.000403265 0.000299758 0.199549 
0.000599484 0.000364479 0.198585 
0.000478173 0.000209908 0.199621 
0.000205935 9.75277e-05 0.14895 
4.46314e-07 -0.000228302 0.148614 
-8.07286e-06 -5.53572e-05 0.0992049 
-3.20611e-06 -1.55851e-05 0.0996728 
5.95926e-06 -1.57217e-05 0.0995966 
-0.000578786 -0.000115865 0.199462 
-0.00085406 -7.24145e-05 0.198187 
-0.000207445 -2.344e-05 0.14871 
-0.000198628 -6.74414e-05 0.149035 
0.00092848 2.30666e-05 0.197823 
0.000233958 2.59389e-06 0.148646 
0.000571084 4.2848e-05 0.19959 
0.000211562 3.80713e-05 0.148778 
3.19655e-05 -5.88544e-05 0.200081 
-1.09149e-05 -2.79555e-05 0.151478 
4.18319e-06 2.09035e-06 0.157842 
3.3304e-05 -2.43707e-05 0.154989 
0.000122264 0.000527901 0.199597 
0.000224226 0.000693757 0.198486 
0.000232799 0.00049479 0.199393 
5.46821e-05 0.000210247 0.148828 
-0.000568379 0.000104715 0.199547 
-0.000858318 0.000110012 0.198224 
-0.000203936 3.86377e-05 0.148803 
-0.000717163 2.65952e-05 0.199324 
-0.000117137 -0.000145527 0.200055 
-9.86104e-05 -5.75158e-05 0.200075 
-3.43076e-05 -0.000105751 0.200072 
-3.58797e-05 -3.95438e-05 0.145899 
-9.09223e-06 6.55199e-06 0.099644 
-5.21443e-05 9.30975e-06 0.0991933 
-1.75227e-05 -1.27165e-05 0.0996616 
-0.000219178 1.89781e-06 0.148615 
7.14598e-05 -0.000829809 0.198201 
3.20634e-05 -0.000602932 0.199473 
0.000117021 -0.000539884 0.199445 
2.60195e-05 -0.00020753 0.148712 
-1.81185e-05 -1.82362e-05 0.100055 
-2.48284e-05 -9.27827e-06 0.100057 
-2.64787e-05 -1.9666e-05 0.100054 
-3.58797e-05 -3.95438e-05 0.145899 
-2.64787e-05 -1.9666e-05 0.100054 
-5.62932e-05 -9.34432e-06 0.150889 
-3.75463e-05 -1.34821e-05 0.100053 
-3.58797e-05 -3.95438e-05 0.145899 
9.33216e-05 0.000175703 0.149056 
8.78564e-06 1.69935e-05 0.0996257 
2.98249e-05 3.3154e-05 0.0994139 
1.66274e-05 2.8631e-05 0.0996962 
-1.06686e-05 1.0435e-05 0.100058 
-1.85941e-05 7.45005e-06 0.100058 
-1.49658e-05 -5.09375e-07 0.100058 
-2.73738e-05 1.18722e-05 0.150379 
-1.39692e-05 5.52224e-05 0.200083 
2.56084e-05 3.31086e-05 0.156257 
4.18319e-06 2.09035e-06 0.157842 
-2.73738e-05 1.18722e-05 0.150379 
2.91073e-05 0.00020296 0.148791 
2.7465e-06 0.000217646 0.14865 
8.62244e-07 6.50106e-05 0.0992098 
8.49044e-06 3.37106e-05 0.0996727 
0.000470021 -0.000214704 0.199503 
0.000679601 -0.000220403 0.198556 
0.000219663 -5.4346e-05 0.148874 
0.000510146 -0.000106163 0.199675 
1.22695e-05 1.95146e-05 0.0996311 
0.000205935 9.75277e-05 0.14895 
4.79964e-05 4.43546e-05 0.0994337 
2.60351e-05 3.02084e-05 0.0996995 
1.65415e-05 -4.53499e-05 0.100038 
2.53648e-05 -3.74752e-05 0.100032 
2.53441e-05 -3.40384e-05 0.100044 
4.00455e-05 -7.92561e-05 0.158184 
1.65415e-05 -4.53499e-05 0.100038 
1.54212e-05 -3.3144e-05 0.100052 
4.34401e-06 -4.13329e-05 0.100046 
4.00455e-05 -7.92561e-05 0.158184 
8.51397e-06 2.01482e-05 0.100056 
2.56084e-05 3.31086e-05 0.156257 
1.28013e-05 3.08063e-05 0.100052 
1.22206e-05 6.47679e-05 0.152131 
-3.18552e-05 -0.000215459 0.148791 
-1.83496e-05 -2.33838e-05 0.0996842 
-2.62635e-05 -5.66648e-05 0.0993014 
-5.22295e-05 -0.000204147 0.148977 
-2.79879e-05 0.000610198 0.199443 
2.7465e-06 0.000217646 0.14865 
-1.45776e-05 0.000976487 0.197751 
3.3193e-05 0.000646532 0.199376 
-0.000643621 -3.29165e-05 0.199437 
-0.00102946 -2.43382e-05 0.197678 
-0.000717163 2.65952e-05 0.199324 
-0.000219178 1.89781e-06 0.148615 
0.000403265 0.000299758 0.199549 
0.000288652 0.000386323 0.199727 
0.000478639 0.000480596 0.198645 
0.000128146 0.000173085 0.148992 
0.000510146 -0.000106163 0.199675 
0.000810959 -7.73379e-05 0.198322 
0.000219663 -5.4346e-05 0.148874 
0.000614334 -2.48593e-05 0.199307 
-2.64787e-05 -1.9666e-05 0.100054 
-2.48284e-05 -9.27827e-06 0.100057 
-3.75463e-05 -1.34821e-05 0.100053 
-5.62932e-05 -9.34432e-06 0.150889 
-0.000207445 -2.344e-05 0.14871 
-1.75227e-05 -1.27165e-05 0.0996616 
-5.21443e-05 9.30975e-06 0.0991933 
-0.000219178 1.89781e-06 0.148615 
0.000205935 9.75277e-05 0.14895 
0.000151385 0.00011925 0.149091 
4.79964e-05 4.43546e-05 0.0994337 
2.60351e-05 3.02084e-05 0.0996995 
3.19655e-05 -5.88544e-05 0.200081 
3.3304e-05 -2.43707e-05 0.154989 
0.000117563 -3.5786e-05 0.200072 
4.00455e-05 -7.92561e-05 0.158184 
0.000373729 2.28709e-05 0.199907 
0.000571084 4.2848e-05 0.19959 
0.000471929 -2.38257e-05 0.199766 
6.68348e-05 5.86874e-06 0.0998683 
-0.000309526 0.000384151 0.199483 
-0.000457457 0.000480427 0.198621 
-0.000147047 0.000127438 0.14914 
-0.000372486 0.000298782 0.199652 
-6.66645e-05 0.000822977 0.19826 
-5.42633e-05 0.000187363 0.149034 
-3.21406e-05 0.000206386 0.148788 
-0.000108641 0.000555786 0.199462 
3.22432e-05 1.66052e-05 0.0996986 
0.000207544 5.29e-05 0.148945 
4.36038e-05 1.97496e-05 0.0993876 
1.22695e-05 1.95146e-05 0.0996311 
-0.000858318 0.000110012 0.198224 
-0.000203936 3.86377e-05 0.148803 
-0.000208361 6.08813e-05 0.148938 
-0.000568379 0.000104715 0.199547 
-3.92297e-05 -0.000615467 0.1995 
6.52917e-06 -0.000970406 0.197791 
-3.18552e-05 -0.000215459 0.148791 
4.46314e-07 -0.000228302 0.148614 
-3.21406e-05 0.000206386 0.148788 
-6.66645e-05 0.000822977 0.19826 
-0.000108641 0.000555786 0.199462 
-2.79879e-05 0.000610198 0.199443 
-3.75463e-05 -1.34821e-05 0.100053 
-3.58797e-05 -3.95438e-05 0.145899 
-5.62932e-05 -9.34432e-06 0.150889 
-9.53726e-05 -2.50756e-05 0.151284 
2.43334e-05 -8.1768e-06 0.0996381 
0.000233958 2.59389e-06 0.148646 
5.7718e-05 -5.2275e-06 0.0992211 
7.51463e-06 5.33769e-06 0.0995691 
-8.07286e-06 -5.53572e-05 0.0992049 
-3.20611e-06 -1.55851e-05 0.0996728 
-3.18552e-05 -0.000215459 0.148791 
4.46314e-07 -0.000228302 0.148614 
2.60305e-05 -2.07289e-05 0.100052 
2.12594e-05 -7.44716e-06 0.100055 
1.35306e-05 -1.9621e-05 0.100056 
3.3304e-05 -2.43707e-05 0.154989 
0.000232799 0.00049479 0.199393 
0.000371077 0.000589379 0.198605 
0.000288652 0.000386323 0.199727 
0.000128146 0.000173085 0.148992 
-3.62094e-05 -2.04487e-05 0.0997118 
-1.75227e-05 -1.27165e-05 0.0996616 
-4.27965e-05 -3.45967e-05 0.0993173 
-0.000198628 -6.74414e-05 0.149035 
2.47556e-05 -0.00017125 0.200062 
0.000106414 -0.000123092 0.200054 
8.82513e-05 -0.00023561 0.200013 
4.00455e-05 -7.92561e-05 0.158184 
-0.000364036 -0.000315265 0.19953 
-0.00043521 -0.000492102 0.198654 
-0.000135786 -0.000175158 0.148955 
-0.000281937 -0.000371875 0.199758 
-1.06686e-05 1.0435e-05 0.100058 
-1.49658e-05 -5.09375e-07 0.100058 
-7.28806e-06 2.80644e-06 0.100059 
-2.73738e-05 1.18722e-05 0.150379 
-3.20611e-06 -1.55851e-05 0.0996728 
-1.83496e-05 -2.33838e-05 0.0996842 
-2.62635e-05 -5.66648e-05 0.0993014 
-3.18552e-05 -0.000215459 0.148791 
-4.69423e-05 -3.81554e-06 0.100041 
-4.55699e-05 -7.44938e-06 0.100018 
-4.58566e-05 -1.82272e-05 0.100034 
-9.53726e-05 -2.50756e-05 0.151284 
3.19655e-05 -5.88544e-05 0.200081 
4.18319e-06 2.09035e-06 0.157842 
4.13588e-05 1.00262e-05 0.200081 
3.3304e-05 -2.43707e-05 0.154989 
-0.000237601 -0.000487351 0.199448 
-0.000135786 -0.000175158 0.148955 
-0.000375921 -0.000576691 0.198603 
-0.000281937 -0.000371875 0.199758 
1.54212e-05 -3.3144e-05 0.100052 
4.34401e-06 -4.13329e-05 0.100046 
4.00455e-05 -7.92561e-05 0.158184 
3.67195e-06 -6.85529e-05 0.157357 
0.000114199 -0.00014036 0.149119 
3.71701e-05 -3.97997e-05 0.0994666 
1.82823e-05 -2.44826e-05 0.0996838 
0.000155318 -0.000111349 0.149062 
-9.02739e-06 -2.23435e-05 0.100056 
-1.81185e-05 -1.82362e-05 0.100055 
-1.95758e-05 -2.81997e-05 0.100051 
-3.58797e-05 -3.95438e-05 0.145899 
3.71413e-05 1.30871e-05 0.100046 
2.72112e-05 1.86924e-05 0.100053 
2.42034e-05 7.68226e-06 0.100055 
6.27565e-05 1.43088e-05 0.155954 
5.7718e-05 -5.2275e-06 0.0992211 
0.000203436 -2.7666e-05 0.148866 
0.000233958 2.59389e-06 0.148646 
2.43334e-05 -8.1768e-06 0.0996381 
-3.43076e-05 -0.000105751 0.200072 
-1.09149e-05 -2.79555e-05 0.151478 
3.19655e-05 -5.88544e-05 0.200081 
3.67195e-06 -6.85529e-05 0.157357 
4.46314e-07 -0.000228302 0.148614 
3.20634e-05 -0.000602932 0.199473 
6.52917e-06 -0.000970406 0.197791 
2.60195e-05 -0.00020753 0.148712 
-2.89866e-05 2.38834e-05 0.100048 
-1.97289e-05 1.78933e-05 0.100056 
-1.91968e-05 2.78376e-05 0.100051 
-4.92106e-05 4.86049e-05 0.157828 
-0.000203936 3.86377e-05 0.148803 
-5.21443e-05 9.30975e-06 0.0991933 
-9.09223e-06 6.55199e-06 0.099644 
-0.000219178 1.89781e-06 0.148615 
4.34401e-06 -4.13329e-05 0.100046 
2.82143e-06 -2.87493e-05 0.100054 
-7.14711e-06 -3.47554e-05 0.100051 
3.67195e-06 -6.85529e-05 0.157357 
-3.32413e-05 -3.38461e-07 0.100054 
-4.69423e-05 -3.81554e-06 0.100041 
-3.75463e-05 -1.34821e-05 0.100053 
-9.53726e-05 -2.50756e-05 0.151284 
-2.46283e-05 -1.84051e-05 0.200082 
4.18319e-06 2.09035e-06 0.157842 
3.19655e-05 -5.88544e-05 0.200081 
-1.09149e-05 -2.79555e-05 0.151478 
-3.21406e-05 0.000206386 0.148788 
2.7465e-06 0.000217646 0.14865 
-1.45776e-05 0.000976487 0.197751 
-2.79879e-05 0.000610198 0.199443 
4.13588e-05 1.00262e-05 0.200081 
2.56084e-05 3.31086e-05 0.156257 
6.1996e-05 8.96588e-05 0.200075 
6.27565e-05 1.43088e-05 0.155954 
-0.00102946 -2.43382e-05 0.197678 
-0.000643621 -3.29165e-05 0.199437 
-0.000207445 -2.344e-05 0.14871 
-0.000219178 1.89781e-06 0.148615 
2.12594e-05 -7.44716e-06 0.100055 
1.0665e-05 -1.07206e-05 0.100056 
1.35306e-05 -1.9621e-05 0.100056 
3.3304e-05 -2.43707e-05 0.154989 
4.13588e-05 1.00262e-05 0.200081 
4.18319e-06 2.09035e-06 0.157842 
2.56084e-05 3.31086e-05 0.156257 
3.3304e-05 -2.43707e-05 0.154989 
-2.63817e-07 -1.56048e-05 0.100058 
-1.05306e-05 -1.09753e-05 0.100059 
-9.02739e-06 -2.23435e-05 0.100056 
-1.09149e-05 -2.79555e-05 0.151478 
-2.48284e-05 -9.27827e-06 0.100057 
-5.62932e-05 -9.34432e-06 0.150889 
-2.64787e-05 -1.9666e-05 0.100054 
-3.58797e-05 -3.95438e-05 0.145899 
-1.95758e-05 -2.81997e-05 0.100051 
-2.64787e-05 -1.9666e-05 0.100054 
-3.19851e-05 -2.71852e-05 0.100048 
-3.58797e-05 -3.95438e-05 0.145899 
-1.39692e-05 5.52224e-05 0.200083 
-2.46283e-05 -1.84051e-05 0.200082 
-9.37895e-05 2.59347e-05 0.20008 
-2.73738e-05 1.18722e-05 0.150379 
4.13588e-05 1.00262e-05 0.200081 
-2.46283e-05 -1.84051e-05 0.200082 
-1.39692e-05 5.52224e-05 0.200083 
4.18319e-06 2.09035e-06 0.157842 
6.1996e-05 8.96588e-05 0.200075 
4.13588e-05 1.00262e-05 0.200081 
-1.39692e-05 5.52224e-05 0.200083 
2.56084e-05 3.31086e-05 0.156257 
4.13588e-05 1.00262e-05 0.200081 
3.3304e-05 -2.43707e-05 0.154989 
2.56084e-05 3.31086e-05 0.156257 
6.27565e-05 1.43088e-05 0.155954 
3.19655e-05 -5.88544e-05 0.200081 
0.000117563 -3.5786e-05 0.200072 
0.000106414 -0.000123092 0.200054 
4.00455e-05 -7.92561e-05 0.158184 
-9.86104e-05 -5.75158e-05 0.200075 
-2.46283e-05 -1.84051e-05 0.200082 
-3.43076e-05 -0.000105751 0.200072 
-3.58797e-05 -3.95438e-05 0.145899 
-2.46283e-05 -1.84051e-05 0.200082 
3.19655e-05 -5.88544e-05 0.200081 
-3.43076e-05 -0.000105751 0.200072 
-1.09149e-05 -2.79555e-05 0.151478 
4.13588e-05 1.00262e-05 0.200081 
3.19655e-05 -5.88544e-05 0.200081 
-2.46283e-05 -1.84051e-05 0.200082 
4.18319e-06 2.09035e-06 0.157842 
-9.37895e-05 2.59347e-05 0.20008 
-5.62932e-05 -9.34432e-06 0.150889 
-9.86104e-05 -5.75158e-05 0.200075 
-9.53726e-05 -2.50756e-05 0.151284 
-8.0015e-05 0.00011776 0.20007 
-1.39692e-05 5.52224e-05 0.200083 
-9.37895e-05 2.59347e-05 0.20008 
-4.92106e-05 4.86049e-05 0.157828 
-8.07286e-06 -5.53572e-05 0.0992049 
4.46314e-07 -0.000228302 0.148614 
2.60195e-05 -0.00020753 0.148712 
5.95926e-06 -1.57217e-05 0.0995966 
-9.37895e-05 2.59347e-05 0.20008 
-0.000180467 7.85817e-05 0.200052 
-8.0015e-05 0.00011776 0.20007 
-4.92106e-05 4.86049e-05 0.157828 
2.7465e-06 0.000217646 0.14865 
8.62244e-07 6.50106e-05 0.0992098 
-8.05101e-06 2.79562e-05 0.0996153 
-3.21406e-05 0.000206386 0.148788 
-9.37895e-05 2.59347e-05 0.20008 
-9.86104e-05 -5.75158e-05 0.200075 
-0.000195654 -1.95209e-06 0.200055 
-9.53726e-05 -2.50756e-05 0.151284 
6.1996e-05 8.96588e-05 0.200075 
-1.39692e-05 5.52224e-05 0.200083 
-7.65052e-06 0.000152877 0.200064 
1.22206e-05 6.47679e-05 0.152131 
-9.86104e-05 -5.75158e-05 0.200075 
-9.37895e-05 2.59347e-05 0.20008 
-2.46283e-05 -1.84051e-05 0.200082 
-5.62932e-05 -9.34432e-06 0.150889 
4.21492e-06 3.80124e-05 0.100047 
-7.26406e-06 2.94324e-05 0.100055 
2.04377e-06 2.70331e-05 0.100055 
1.22206e-05 6.47679e-05 0.152131 
-3.43076e-05 -0.000105751 0.200072 
3.19655e-05 -5.88544e-05 0.200081 
2.47556e-05 -0.00017125 0.200062 
3.67195e-06 -6.85529e-05 0.157357 
-2.46283e-05 -1.84051e-05 0.200082 
-1.09149e-05 -2.79555e-05 0.151478 
-3.43076e-05 -0.000105751 0.200072 
-3.58797e-05 -3.95438e-05 0.145899 
-9.37895e-05 2.59347e-05 0.20008 
-4.92106e-05 4.86049e-05 0.157828 
-2.73738e-05 1.18722e-05 0.150379 
-5.62932e-05 -9.34432e-06 0.150889 
0.000131594 4.08422e-05 0.200067 
4.13588e-05 1.00262e-05 0.200081 
6.1996e-05 8.96588e-05 0.200075 
6.27565e-05 1.43088e-05 0.155954 
2.53441e-05 -3.40384e-05 0.100044 
1.54212e-05 -3.3144e-05 0.100052 
1.65415e-05 -4.53499e-05 0.100038 
4.00455e-05 -7.92561e-05 0.158184 
2.5542e-05 -3.21784e-05 0.0997541 
1.82823e-05 -2.44826e-05 0.0996838 
3.71701e-05 -3.97997e-05 0.0994666 
0.000155318 -0.000111349 0.149062 
0.000117563 -3.5786e-05 0.200072 
3.19655e-05 -5.88544e-05 0.200081 
4.13588e-05 1.00262e-05 0.200081 
3.3304e-05 -2.43707e-05 0.154989 
-3.32413e-05 -3.38461e-07 0.100054 
-3.75463e-05 -1.34821e-05 0.100053 
-5.62932e-05 -9.34432e-06 0.150889 
-9.53726e-05 -2.50756e-05 0.151284 
4.13588e-05 1.00262e-05 0.200081 
0.000131594 4.08422e-05 0.200067 
0.000117563 -3.5786e-05 0.200072 
6.27565e-05 1.43088e-05 0.155954 
3.3193e-05 0.000646532 0.199376 
2.7465e-06 0.000217646 0.14865 
-1.45776e-05 0.000976487 0.197751 
2.91073e-05 0.00020296 0.148791 
-9.86104e-05 -5.75158e-05 0.200075 
-5.62932e-05 -9.34432e-06 0.150889 
-2.46283e-05 -1.84051e-05 0.200082 
-3.58797e-05 -3.95438e-05 0.145899 
0.000106414 -0.000123092 0.200054 
2.47556e-05 -0.00017125 0.200062 
3.19655e-05 -5.88544e-05 0.200081 
4.00455e-05 -7.92561e-05 0.158184 
4.13588e-05 1.00262e-05 0.200081 
0.000117563 -3.5786e-05 0.200072 
3.3304e-05 -2.43707e-05 0.154989 
6.27565e-05 1.43088e-05 0.155954 
-1.39692e-05 5.52224e-05 0.200083 
4.18319e-06 2.09035e-06 0.157842 
-2.46283e-05 -1.84051e-05 0.200082 
-2.73738e-05 1.18722e-05 0.150379 
0.000233958 2.59389e-06 0.148646 
0.000203436 -2.7666e-05 0.148866 
0.00092848 2.30666e-05 0.197823 
0.000614334 -2.48593e-05 0.199307 
-1.39692e-05 5.52224e-05 0.200083 
-2.73738e-05 1.18722e-05 0.150379 
-9.37895e-05 2.59347e-05 0.20008 
-4.92106e-05 4.86049e-05 0.157828 
0.000211562 3.80713e-05 0.148778 
5.7718e-05 -5.2275e-06 0.0992211 
0.000233958 2.59389e-06 0.148646 
7.51463e-06 5.33769e-06 0.0995691 
-9.37895e-05 2.59347e-05 0.20008 
-2.73738e-05 1.18722e-05 0.150379 
-2.46283e-05 -1.84051e-05 0.200082 
-5.62932e-05 -9.34432e-06 0.150889 
-1.39692e-05 5.52224e-05 0.200083 
4.13588e-05 1.00262e-05 0.200081 
4.18319e-06 2.09035e-06 0.157842 
2.56084e-05 3.31086e-05 0.156257 
0.000805685 7.78821e-05 0.198286 
0.00092848 2.30666e-05 0.197823 
0.000571084 4.2848e-05 0.19959 
0.000211562 3.80713e-05 0.148778 
2.42034e-05 7.68226e-06 0.100055 
3.39295e-05 4.54892e-07 0.100049 
3.71413e-05 1.30871e-05 0.100046 
6.27565e-05 1.43088e-05 0.155954 
-0.000717163 2.65952e-05 0.199324 
-0.00102946 -2.43382e-05 0.197678 
-0.000203936 3.86377e-05 0.148803 
-0.000219178 1.89781e-06 0.148615 
-3.92297e-05 -0.000615467 0.1995 
-3.18552e-05 -0.000215459 0.148791 
6.52917e-06 -0.000970406 0.197791 
-8.53949e-05 -0.000820891 0.198291 
-3.20611e-06 -1.55851e-05 0.0996728 
-2.62635e-05 -5.66648e-05 0.0993014 
-8.07286e-06 -5.53572e-05 0.0992049 
-3.18552e-05 -0.000215459 0.148791 
-2.46283e-05 -1.84051e-05 0.200082 
-5.62932e-05 -9.34432e-06 0.150889 
-1.09149e-05 -2.79555e-05 0.151478 
-3.58797e-05 -3.95438e-05 0.145899 
-2.73738e-05 1.18722e-05 0.150379 
-1.09149e-05 -2.79555e-05 0.151478 
-2.46283e-05 -1.84051e-05 0.200082 
-5.62932e-05 -9.34432e-06 0.150889 
-0.000195654 -1.95209e-06 0.200055 
-9.86104e-05 -5.75158e-05 0.200075 
-0.000217476 -9.14479e-05 0.200034 
-9.53726e-05 -2.50756e-05 0.151284 
2.91073e-05 0.00020296 0.148791 
8.62244e-07 6.50106e-05 0.0992098 
1.51844e-05 4.87235e-05 0.0993034 
8.49044e-06 3.37106e-05 0.0996727 
-3.32413e-05 -3.38461e-07 0.100054 
-3.75463e-05 -1.34821e-05 0.100053 
-2.48284e-05 -9.27827e-06 0.100057 
-5.62932e-05 -9.34432e-06 0.150889 
6.1996e-05 8.96588e-05 0.200075 
2.56084e-05 3.31086e-05 0.156257 
-1.39692e-05 5.52224e-05 0.200083 
1.22206e-05 6.47679e-05 0.152131 
-1.09149e-05 -2.79555e-05 0.151478 
3.3304e-05 -2.43707e-05 0.154989 
3.19655e-05 -5.88544e-05 0.200081 
3.67195e-06 -6.85529e-05 0.157357 
2.43334e-05 -8.1768e-06 0.0996381 
5.7718e-05 -5.2275e-06 0.0992211 
0.000203436 -2.7666e-05 0.148866 
6.09116e-05 -1.2572e-05 0.0993208 
-9.09223e-06 6.55199e-06 0.099644 
-5.6851e-05 2.21249e-05 0.0993001 
-5.21443e-05 9.30975e-06 0.0991933 
-0.000203936 3.86377e-05 0.148803 
-0.000558029 -0.000365417 0.198639 
-0.000705526 -0.00021913 0.198565 
-0.000431251 -0.000202804 0.199688 
-0.000179493 -9.36412e-05 0.149054 
-1.09149e-05 -2.79555e-05 0.151478 
3.67195e-06 -6.85529e-05 0.157357 
-3.43076e-05 -0.000105751 0.200072 
-3.58797e-05 -3.95438e-05 0.145899 
-5.21443e-05 9.30975e-06 0.0991933 
-4.27965e-05 -3.45967e-05 0.0993173 
-1.75227e-05 -1.27165e-05 0.0996616 
-0.000207445 -2.344e-05 0.14871 
-6.66645e-05 0.000822977 0.19826 
-3.21406e-05 0.000206386 0.148788 
-1.45776e-05 0.000976487 0.197751 
-2.79879e-05 0.000610198 0.199443 
-4.14534e-05 2.0604e-05 0.0993809 
-5.6851e-05 2.21249e-05 0.0993001 
-2.93425e-05 1.29084e-05 0.0997196 
-0.000208361 6.08813e-05 0.148938 
-0.000135786 -0.000175158 0.148955 
-0.00043521 -0.000492102 0.198654 
-0.000375921 -0.000576691 0.198603 
-0.000281937 -0.000371875 0.199758 
0.000219663 -5.4346e-05 0.148874 
3.34416e-05 -1.79446e-05 0.0997097 
6.09116e-05 -1.2572e-05 0.0993208 
6.40586e-05 -3.56762e-05 0.0993838 
-4.81035e-05 -2.4711e-05 0.0994534 
-0.000135786 -0.000175158 0.148955 
-1.94144e-05 -5.22873e-05 0.0994215 
-1.93372e-05 -1.25182e-05 0.0997376 
-5.62932e-05 -9.34432e-06 0.150889 
-3.58797e-05 -3.95438e-05 0.145899 
-9.86104e-05 -5.75158e-05 0.200075 
-9.53726e-05 -2.50756e-05 0.151284 
-0.00102946 -2.43382e-05 0.197678 
-0.000643621 -3.29165e-05 0.199437 
-0.00085406 -7.24145e-05 0.198187 
-0.000207445 -2.344e-05 0.14871 
0.000155318 -0.000111349 0.149062 
3.71701e-05 -3.97997e-05 0.0994666 
2.5542e-05 -3.21784e-05 0.0997541 
5.18791e-05 -3.71255e-05 0.099447 
-0.000481309 0.000205405 0.199639 
-0.000584694 0.000375778 0.198609 
-0.000204699 0.000101989 0.149004 
-0.000698806 0.000254561 0.198524 
-2.86777e-05 -5.59701e-05 0.0993943 
-1.67321e-05 -2.50994e-05 0.0997157 
-1.94144e-05 -5.22873e-05 0.0994215 
-8.45467e-05 -0.000186951 0.14907 
-3.32413e-05 -3.38461e-07 0.100054 
-2.48284e-05 -9.27827e-06 0.100057 
-2.44229e-05 -3.80804e-08 0.100056 
-5.62932e-05 -9.34432e-06 0.150889 
2.04377e-06 2.70331e-05 0.100055 
1.28013e-05 3.08063e-05 0.100052 
4.21492e-06 3.80124e-05 0.100047 
1.22206e-05 6.47679e-05 0.152131 
3.20634e-05 -0.000602932 0.199473 
7.14598e-05 -0.000829809 0.198201 
6.52917e-06 -0.000970406 0.197791 
2.60195e-05 -0.00020753 0.148712 
3.66889e-05 -2.47289e-05 0.099731 
6.40586e-05 -3.56762e-05 0.0993838 
0.000172064 -7.60617e-05 0.149032 
5.18791e-05 -3.71255e-05 0.099447 
0.000207068 -0.000458323 0.199648 
0.000230202 -0.00068432 0.19857 
9.10482e-05 -0.000188372 0.148985 
0.000356364 -0.000578861 0.198601 
0.000709646 0.000231794 0.198506 
0.000478173 0.000209908 0.199621 
0.000599484 0.000364479 0.198585 
0.000205935 9.75277e-05 0.14895 
0.000122264 0.000527901 0.199597 
0.000121127 0.000839014 0.198223 
0.000224226 0.000693757 0.198486 
5.46821e-05 0.000210247 0.148828 
-4.58566e-05 -1.82272e-05 0.100034 
-3.75463e-05 -1.34821e-05 0.100053 
-4.69423e-05 -3.81554e-06 0.100041 
-9.53726e-05 -2.50756e-05 0.151284 
-1.32454e-05 3.75386e-05 0.0997356 
-3.15693e-05 5.56619e-05 0.0994092 
-3.32263e-05 4.86029e-05 0.0994415 
-9.2635e-05 0.00018691 0.149074 
-4.54472e-05 -4.4511e-05 0.0994697 
-0.000141312 -0.000121651 0.149159 
-4.81035e-05 -2.4711e-05 0.0994534 
-4.04487e-05 -1.98403e-05 0.0997295 
3.19655e-05 -5.88544e-05 0.200081 
3.3304e-05 -2.43707e-05 0.154989 
4.00455e-05 -7.92561e-05 0.158184 
3.67195e-06 -6.85529e-05 0.157357 
-3.68981e-05 2.03293e-05 0.0997327 
-4.01072e-05 3.93274e-05 0.099455 
-2.93616e-05 3.27868e-05 0.0994386 
-0.000147047 0.000127438 0.14914 
-4.27965e-05 -3.45967e-05 0.0993173 
-5.8719e-05 -3.32163e-05 0.0994073 
-3.62094e-05 -2.04487e-05 0.0997118 
-0.000198628 -6.74414e-05 0.149035 
-4.54472e-05 -4.4511e-05 0.0994697 
-5.8719e-05 -3.32163e-05 0.0994073 
-0.000179493 -9.36412e-05 0.149054 
-4.32109e-05 -1.97336e-05 0.0997364 
-8.53949e-05 -0.000820891 0.198291 
-0.00012456 -0.000544598 0.199537 
-5.22295e-05 -0.000204147 0.148977 
-0.000241146 -0.00067185 0.198528 
0.000810959 -7.73379e-05 0.198322 
0.000219663 -5.4346e-05 0.148874 
0.000679601 -0.000220403 0.198556 
0.000510146 -0.000106163 0.199675 
8.62244e-07 6.50106e-05 0.0992098 
-2.90284e-05 5.86642e-05 0.099313 
-8.05101e-06 2.79562e-05 0.0996153 
-3.21406e-05 0.000206386 0.148788 
0.000478639 0.000480596 0.198645 
0.000288652 0.000386323 0.199727 
0.000371077 0.000589379 0.198605 
0.000128146 0.000173085 0.148992 
-0.000222461 0.000684546 0.198603 
-0.000369389 0.000559132 0.198625 
-9.2635e-05 0.00018691 0.149074 
-0.00020635 0.000439469 0.199687 
2.84555e-05 -3.35713e-05 0.0993456 
1.2948e-05 -4.26274e-05 0.0996906 
6.22044e-05 -0.000177221 0.148971 
2.7688e-05 -6.24404e-05 0.0994051 
4.36038e-05 1.97496e-05 0.0993876 
5.94503e-05 2.75417e-05 0.0993018 
0.000207544 5.29e-05 0.148945 
3.22432e-05 1.66052e-05 0.0996986 
-0.000372486 0.000298782 0.199652 
-0.000457457 0.000480427 0.198621 
-0.000147047 0.000127438 0.14914 
-0.000584694 0.000375778 0.198609 
-0.000208361 6.08813e-05 0.148938 
-0.000698806 0.000254561 0.198524 
-0.000858318 0.000110012 0.198224 
-0.000568379 0.000104715 0.199547 
3.19655e-05 -5.88544e-05 0.200081 
4.00455e-05 -7.92561e-05 0.158184 
2.47556e-05 -0.00017125 0.200062 
3.67195e-06 -6.85529e-05 0.157357 
-1.80177e-05 3.27343e-05 0.0996951 
-2.90284e-05 5.86642e-05 0.099313 
-3.15693e-05 5.56619e-05 0.0994092 
-5.42633e-05 0.000187363 0.149034 
0.000121127 0.000839014 0.198223 
3.3193e-05 0.000646532 0.199376 
-1.45776e-05 0.000976487 0.197751 
2.91073e-05 0.00020296 0.148791 
0.000128146 0.000173085 0.148992 
3.26229e-05 5.59097e-05 0.0994266 
4.43e-05 3.0154e-05 0.099453 
2.00884e-05 1.34031e-05 0.0997219 
-0.000858318 0.000110012 0.198224 
-0.00102946 -2.43382e-05 0.197678 
-0.000203936 3.86377e-05 0.148803 
-0.000717163 2.65952e-05 0.199324 
5.95926e-06 -1.57217e-05 0.0995966 
2.60195e-05 -0.00020753 0.148712 
-8.07286e-06 -5.53572e-05 0.0992049 
2.84555e-05 -3.35713e-05 0.0993456 
5.94503e-05 2.75417e-05 0.0993018 
5.7718e-05 -5.2275e-06 0.0992211 
0.000211562 3.80713e-05 0.148778 
7.51463e-06 5.33769e-06 0.0995691 
-2.86777e-05 -5.59701e-05 0.0993943 
-2.62635e-05 -5.66648e-05 0.0993014 
-1.83496e-05 -2.33838e-05 0.0996842 
-5.22295e-05 -0.000204147 0.148977 
-1.95758e-05 -2.81997e-05 0.100051 
-1.81185e-05 -1.82362e-05 0.100055 
-2.64787e-05 -1.9666e-05 0.100054 
-3.58797e-05 -3.95438e-05 0.145899 
9.33216e-05 0.000175703 0.149056 
2.98249e-05 3.3154e-05 0.0994139 
3.26229e-05 5.59097e-05 0.0994266 
1.66274e-05 2.8631e-05 0.0996962 
9.10482e-05 -0.000188372 0.148985 
2.7688e-05 -6.24404e-05 0.0994051 
1.29394e-05 -3.06464e-05 0.0996941 
3.77479e-05 -3.7668e-05 0.09946 
4.43e-05 3.0154e-05 0.099453 
4.79964e-05 4.43546e-05 0.0994337 
0.000151385 0.00011925 0.149091 
2.60351e-05 3.02084e-05 0.0996995 
0.000387817 -0.000299588 0.199624 
0.000474709 -0.000482868 0.1986 
0.000155318 -0.000111349 0.149062 
0.00060301 -0.000351801 0.198596 
0.000709646 0.000231794 0.198506 
0.000805685 7.78821e-05 0.198286 
0.000572138 0.00012917 0.199385 
0.000207544 5.29e-05 0.148945 
0.000810959 -7.73379e-05 0.198322 
0.00092848 2.30666e-05 0.197823 
0.000203436 -2.7666e-05 0.148866 
0.000614334 -2.48593e-05 0.199307 
-0.000117562 0.000149613 0.149127 
-0.000457457 0.000480427 0.198621 
-0.000309526 0.000384151 0.199483 
-0.000369389 0.000559132 0.198625 
0.000230202 -0.00068432 0.19857 
7.14598e-05 -0.000829809 0.198201 
0.000117021 -0.000539884 0.199445 
6.22044e-05 -0.000177221 0.148971 
-0.000705526 -0.00021913 0.198565 
-0.00085406 -7.24145e-05 0.198187 
-0.000578786 -0.000115865 0.199462 
-0.000198628 -6.74414e-05 0.149035 
-2.46283e-05 -1.84051e-05 0.200082 
-2.73738e-05 1.18722e-05 0.150379 
4.18319e-06 2.09035e-06 0.157842 
-1.09149e-05 -2.79555e-05 0.151478 
-6.66645e-05 0.000822977 0.19826 
-0.000222461 0.000684546 0.198603 
-5.42633e-05 0.000187363 0.149034 
-0.000108641 0.000555786 0.199462 
1.82823e-05 -2.44826e-05 0.0996838 
3.71701e-05 -3.97997e-05 0.0994666 
0.000114199 -0.00014036 0.149119 
3.77479e-05 -3.7668e-05 0.09946 
8.78564e-06 1.69935e-05 0.0996257 
2.98249e-05 3.3154e-05 0.0994139 
1.51844e-05 4.87235e-05 0.0993034 
5.46821e-05 0.000210247 0.148828 
0.000172064 -7.60617e-05 0.149032 
0.00060301 -0.000351801 0.198596 
0.000679601 -0.000220403 0.198556 
0.000470021 -0.000214704 0.199503 
0.000599484 0.000364479 0.198585 
0.000403265 0.000299758 0.199549 
0.000478639 0.000480596 0.198645 
0.000151385 0.00011925 0.149091 
4.79964e-05 4.43546e-05 0.0994337 
4.36038e-05 1.97496e-05 0.0993876 
0.000205935 9.75277e-05 0.14895 
1.22695e-05 1.95146e-05 0.0996311 
0.000114199 -0.00014036 0.149119 
0.000356364 -0.000578861 0.198601 
0.000474709 -0.000482868 0.1986 
0.000309034 -0.000402878 0.199427 
-1.16305e-05 1.19241e-05 0.0996345 
-2.93616e-05 3.27868e-05 0.0994386 
-4.14534e-05 2.0604e-05 0.0993809 
-0.000204699 0.000101989 0.149004 
-0.000364036 -0.000315265 0.19953 
-0.00043521 -0.000492102 0.198654 
-0.000558029 -0.000365417 0.198639 
-0.000141312 -0.000121651 0.149159 
-0.000241146 -0.00067185 0.198528 
-8.45467e-05 -0.000186951 0.14907 
-0.000375921 -0.000576691 0.198603 
-0.000237601 -0.000487351 0.199448 
-2.42514e-05 2.85041e-05 0.0996595 
-3.32263e-05 4.86029e-05 0.0994415 
-4.01072e-05 3.93274e-05 0.099455 
-0.000117562 0.000149613 0.149127 
0.000371077 0.000589379 0.198605 
0.000232799 0.00049479 0.199393 
0.000224226 0.000693757 0.198486 
9.33216e-05 0.000175703 0.149056 
6.05317e-05 -7.46322e-06 0.100022 
0.000117563 -3.5786e-05 0.200072 
4.56621e-05 3.1971e-06 0.100042 
4.09096e-05 -1.10796e-05 0.100043 
6.05317e-05 -7.46322e-06 0.100022 
4.56621e-05 3.1971e-06 0.100042 
0.000117563 -3.5786e-05 0.200072 
0.00021536 -6.60223e-06 0.200039 
-0.000217476 -9.14479e-05 0.200034 
-5.5533e-05 -1.24286e-05 0.099958 
-4.55699e-05 -7.44938e-06 0.100018 
-4.58569e-05 -2.07977e-05 0.100003 
-0.000217476 -9.14479e-05 0.200034 
-4.55699e-05 -7.44938e-06 0.100018 
-5.5533e-05 -1.24286e-05 0.099958 
-0.000323947 -3.66112e-05 0.199957 
-2.95201e-05 -5.41367e-05 0.0999965 
-6.25002e-05 -0.000367434 0.1999 
-4.73694e-05 -0.000204094 0.200041 
-0.000135603 -0.000268826 0.199972 
-4.73694e-05 -0.000204094 0.200041 
-6.25002e-05 -0.000367434 0.1999 
-2.95201e-05 -5.41367e-05 0.0999965 
-1.47519e-05 -6.37192e-05 0.0999789 
2.47556e-05 -0.00017125 0.200062 
1.62911e-06 -6.71259e-05 0.0999911 
-5.55103e-06 -5.86472e-05 0.100019 
5.28136e-06 -5.4799e-05 0.100032 
-5.55103e-06 -5.86472e-05 0.100019 
1.62911e-06 -6.71259e-05 0.0999911 
2.47556e-05 -0.00017125 0.200062 
1.79435e-05 -0.000302394 0.199991 
-9.53726e-05 -2.50756e-05 0.151284 
-3.32413e-05 -3.38461e-07 0.100054 
-3.9052e-05 1.28844e-05 0.100048 
-5.62932e-05 -9.34432e-06 0.150889 
-9.53726e-05 -2.50756e-05 0.151284 
-3.9052e-05 1.28844e-05 0.100048 
-3.32413e-05 -3.38461e-07 0.100054 
-4.69423e-05 -3.81554e-06 0.100041 
-9.53726e-05 -2.50756e-05 0.151284 
-5.21181e-05 7.20726e-06 0.100023 
-3.9052e-05 1.28844e-05 0.100048 
-4.69423e-05 -3.81554e-06 0.100041 
-9.53726e-05 -2.50756e-05 0.151284 
-3.9052e-05 1.28844e-05 0.100048 
-5.21181e-05 7.20726e-06 0.100023 
-0.000195654 -1.95209e-06 0.200055 
3.84617e-05 -2.06054e-05 0.0998836 
0.000387817 -0.000299588 0.199624 
0.000262779 -0.00029797 0.199816 
2.5542e-05 -3.21784e-05 0.0997541 
3.84617e-05 -2.06054e-05 0.0998836 
0.000262779 -0.00029797 0.199816 
0.000387817 -0.000299588 0.199624 
0.000320652 -0.000179116 0.199874 
0.000145874 0.000127657 0.200051 
5.26181e-05 3.07291e-05 0.0999722 
3.83034e-05 4.32617e-05 0.0999912 
0.000284184 0.000196041 0.199918 
3.83034e-05 4.32617e-05 0.0999912 
5.26181e-05 3.07291e-05 0.0999722 
0.000145874 0.000127657 0.200051 
4.24837e-05 3.40717e-05 0.100015 
8.82513e-05 -0.00023561 0.200013 
1.62911e-06 -6.71259e-05 0.0999911 
2.47556e-05 -0.00017125 0.200062 
1.68971e-05 -5.55476e-05 0.100016 
2.47556e-05 -0.00017125 0.200062 
1.62911e-06 -6.71259e-05 0.0999911 
8.82513e-05 -0.00023561 0.200013 
1.79435e-05 -0.000302394 0.199991 
1.22206e-05 6.47679e-05 0.152131 
8.51397e-06 2.01482e-05 0.100056 
3.50379e-07 1.46364e-05 0.10006 
2.04377e-06 2.70331e-05 0.100055 
1.22206e-05 6.47679e-05 0.152131 
3.50379e-07 1.46364e-05 0.10006 
8.51397e-06 2.01482e-05 0.100056 
2.56084e-05 3.31086e-05 0.156257 
-3.58797e-05 -3.95438e-05 0.145899 
-1.05306e-05 -1.09753e-05 0.100059 
-9.02739e-06 -2.23435e-05 0.100056 
-1.81185e-05 -1.82362e-05 0.100055 
-3.58797e-05 -3.95438e-05 0.145899 
-9.02739e-06 -2.23435e-05 0.100056 
-1.05306e-05 -1.09753e-05 0.100059 
-1.09149e-05 -2.79555e-05 0.151478 
0.000117021 -0.000539884 0.199445 
5.95926e-06 -1.57217e-05 0.0995966 
9.15213e-06 -3.90423e-05 0.0998458 
1.2948e-05 -4.26274e-05 0.0996906 
9.15213e-06 -3.90423e-05 0.0998458 
5.95926e-06 -1.57217e-05 0.0995966 
0.000117021 -0.000539884 0.199445 
3.20634e-05 -0.000602932 0.199473 
0.000167176 0.000257869 0.199972 
2.00214e-05 6.22632e-05 0.0999638 
7.29176e-05 0.000199333 0.200046 
8.50239e-05 0.000341188 0.199923 
7.29176e-05 0.000199333 0.200046 
2.00214e-05 6.22632e-05 0.0999638 
0.000167176 0.000257869 0.199972 
3.36434e-05 5.82349e-05 0.0999934 
3.3304e-05 -2.43707e-05 0.154989 
4.18319e-06 2.09035e-06 0.157842 
-2.63817e-07 -1.56048e-05 0.100058 
-1.09149e-05 -2.79555e-05 0.151478 
-5.62932e-05 -9.34432e-06 0.150889 
-1.85941e-05 7.45005e-06 0.100058 
-1.49658e-05 -5.09375e-07 0.100058 
-2.44229e-05 -3.80804e-08 0.100056 
-5.62932e-05 -9.34432e-06 0.150889 
-1.49658e-05 -5.09375e-07 0.100058 
-1.85941e-05 7.45005e-06 0.100058 
-2.73738e-05 1.18722e-05 0.150379 
3.67195e-06 -6.85529e-05 0.157357 
1.35306e-05 -1.9621e-05 0.100056 
-1.09149e-05 -2.79555e-05 0.151478 
3.3304e-05 -2.43707e-05 0.154989 
3.67195e-06 -6.85529e-05 0.157357 
-1.09149e-05 -2.79555e-05 0.151478 
1.35306e-05 -1.9621e-05 0.100056 
2.82143e-06 -2.87493e-05 0.100054 
-2.79879e-05 0.000610198 0.199443 
8.49044e-06 3.37106e-05 0.0996727 
2.7465e-06 0.000217646 0.14865 
3.3193e-05 0.000646532 0.199376 
2.7465e-06 0.000217646 0.14865 
8.49044e-06 3.37106e-05 0.0996727 
-2.79879e-05 0.000610198 0.199443 
-8.05101e-06 2.79562e-05 0.0996153 
-1.80177e-05 3.27343e-05 0.0996951 
-2.79879e-05 0.000610198 0.199443 
-3.21406e-05 0.000206386 0.148788 
-0.000108641 0.000555786 0.199462 
-3.21406e-05 0.000206386 0.148788 
-2.79879e-05 0.000610198 0.199443 
-1.80177e-05 3.27343e-05 0.0996951 
-8.05101e-06 2.79562e-05 0.0996153 
-0.000465418 -6.19477e-05 0.199773 
-3.62094e-05 -2.04487e-05 0.0997118 
-0.000354828 -0.000128404 0.199897 
-0.000578786 -0.000115865 0.199462 
-0.000465418 -6.19477e-05 0.199773 
-0.000354828 -0.000128404 0.199897 
-3.62094e-05 -2.04487e-05 0.0997118 
-5.57768e-05 -1.71737e-05 0.0998385 
-9.53726e-05 -2.50756e-05 0.151284 
-4.58569e-05 -2.07977e-05 0.100003 
-3.91604e-05 -2.92381e-05 0.100026 
-0.000217476 -9.14479e-05 0.200034 
-9.53726e-05 -2.50756e-05 0.151284 
-3.91604e-05 -2.92381e-05 0.100026 
-4.58569e-05 -2.07977e-05 0.100003 
-4.58566e-05 -1.82272e-05 0.100034 
3.84617e-05 -2.06054e-05 0.0998836 
0.000470021 -0.000214704 0.199503 
4.83184e-05 -1.35016e-05 0.0999022 
0.000320652 -0.000179116 0.199874 
3.84617e-05 -2.06054e-05 0.0998836 
4.83184e-05 -1.35016e-05 0.0999022 
0.000470021 -0.000214704 0.199503 
3.66889e-05 -2.47289e-05 0.099731 
0.000122264 0.000527901 0.199597 
2.91073e-05 0.00020296 0.148791 
0.000121127 0.000839014 0.198223 
5.46821e-05 0.000210247 0.148828 
0.000121127 0.000839014 0.198223 
2.91073e-05 0.00020296 0.148791 
0.000122264 0.000527901 0.199597 
3.3193e-05 0.000646532 0.199376 
-0.000148037 -0.000409557 0.199807 
-6.25002e-05 -0.000367434 0.1999 
-9.14808e-06 -3.27901e-05 0.0998338 
-2.73231e-05 -6.16719e-05 0.0999002 
-9.14808e-06 -3.27901e-05 0.0998338 
-6.25002e-05 -0.000367434 0.1999 
-0.000148037 -0.000409557 0.199807 
-0.00012456 -0.000544598 0.199537 
-9.14808e-06 -3.27901e-05 0.0998338 
-1.83496e-05 -2.33838e-05 0.0996842 
-0.000148037 -0.000409557 0.199807 
-2.73231e-05 -6.16719e-05 0.0999002 
-0.000148037 -0.000409557 0.199807 
-1.83496e-05 -2.33838e-05 0.0996842 
-9.14808e-06 -3.27901e-05 0.0998338 
-0.00012456 -0.000544598 0.199537 
-4.71991e-05 -3.14745e-05 0.0998614 
-4.32109e-05 -1.97336e-05 0.0997364 
-0.000337529 -0.000236286 0.199798 
-0.000431251 -0.000202804 0.199688 
-4.71991e-05 -3.14745e-05 0.0998614 
-0.000337529 -0.000236286 0.199798 
-4.32109e-05 -1.97336e-05 0.0997364 
-4.04487e-05 -1.98403e-05 0.0997295 
-0.000364036 -0.000315265 0.19953 
-0.000337529 -0.000236286 0.199798 
-4.32109e-05 -1.97336e-05 0.0997364 
-0.000431251 -0.000202804 0.199688 
-0.000364036 -0.000315265 0.19953 
-4.32109e-05 -1.97336e-05 0.0997364 
-0.000337529 -0.000236286 0.199798 
-4.04487e-05 -1.98403e-05 0.0997295 
-1.16305e-05 1.19241e-05 0.0996345 
-0.000372486 0.000298782 0.199652 
-4.6685e-05 2.01706e-05 0.0998478 
-3.68981e-05 2.03293e-05 0.0997327 
-1.16305e-05 1.19241e-05 0.0996345 
-4.6685e-05 2.01706e-05 0.0998478 
-0.000372486 0.000298782 0.199652 
-0.000481309 0.000205405 0.199639 
3.66889e-05 -2.47289e-05 0.099731 
0.000510146 -0.000106163 0.199675 
0.000219663 -5.4346e-05 0.148874 
3.34416e-05 -1.79446e-05 0.0997097 
3.66889e-05 -2.47289e-05 0.099731 
0.000219663 -5.4346e-05 0.148874 
0.000510146 -0.000106163 0.199675 
0.000470021 -0.000214704 0.199503 
3.3304e-05 -2.43707e-05 0.154989 
6.64819e-06 -2.61503e-06 0.100059 
-2.63817e-07 -1.56048e-05 0.100058 
4.18319e-06 2.09035e-06 0.157842 
3.3304e-05 -2.43707e-05 0.154989 
-2.63817e-07 -1.56048e-05 0.100058 
6.64819e-06 -2.61503e-06 0.100059 
1.0665e-05 -1.07206e-05 0.100056 
3.34416e-05 -1.79446e-05 0.0997097 
0.000614334 -2.48593e-05 0.199307 
0.000471929 -2.38257e-05 0.199766 
0.000510146 -0.000106163 0.199675 
0.000471929 -2.38257e-05 0.199766 
0.000614334 -2.48593e-05 0.199307 
3.34416e-05 -1.79446e-05 0.0997097 
2.43334e-05 -8.1768e-06 0.0996381 
0.000471929 -2.38257e-05 0.199766 
5.28329e-05 -8.39764e-06 0.0998817 
3.34416e-05 -1.79446e-05 0.0997097 
0.000510146 -0.000106163 0.199675 
3.34416e-05 -1.79446e-05 0.0997097 
5.28329e-05 -8.39764e-06 0.0998817 
0.000471929 -2.38257e-05 0.199766 
2.43334e-05 -8.1768e-06 0.0996381 
SCALARS VonMises float 
LOOKUP_TABLE default
100.018 100.018 100.018 100.018 100.021 100.021 100.021 100.021 100.01 100.01 100.01 100.01 100.01 100.01 100.01 100.01 100.009 100.009 100.009 100.009 100.025 100.025 100.025 100.025 99.9916 99.9916 99.9916 99.9916 100.016 100.016 100.016 100.016 100.014 100.014 100.014 100.014 100.014 100.014 100.014 100.014 100.01 100.01 100.01 100.01 100.021 100.021 100.021 100.021 99.9856 99.9856 99.9856 99.9856 100.035 100.035 100.035 100.035 99.9823 99.9823 99.9823 99.9823 99.9854 99.9854 99.9854 99.9854 100.015 100.015 100.015 100.015 99.9993 99.9993 99.9993 99.9993 100.022 100.022 100.022 100.022 99.9872 99.9872 99.9872 99.9872 100.022 100.022 100.022 100.022 100.023 100.023 100.023 100.023 100.015 100.015 100.015 100.015 100.035 100.035 100.035 100.035 99.8697 99.8697 99.8697 99.8697 100.009 100.009 100.009 100.009 99.9974 99.9974 99.9974 99.9974 100.014 100.014 100.014 100.014 100.022 100.022 100.022 100.022 99.982 99.982 99.982 99.982 100.023 100.023 100.023 100.023 99.951 99.951 99.951 99.951 100.01 100.01 100.01 100.01 100.01 100.01 100.01 100.01 100.006 100.006 100.006 100.006 100.026 100.026 100.026 100.026 99.9557 99.9557 99.9557 99.9557 100.01 100.01 100.01 100.01 100.018 100.018 100.018 100.018 100.037 100.037 100.037 100.037 100.026 100.026 100.026 100.026 99.8762 99.8762 99.8762 99.8762 100.003 100.003 100.003 100.003 100.016 100.016 100.016 100.016 100.033 100.033 100.033 100.033 100.016 100.016 100.016 100.016 99.9956 99.9956 99.9956 99.9956 100.015 100.015 100.015 100.015 100.016 100.016 100.016 100.016 99.9897 99.9897 99.9897 99.9897 100.019 100.019 100.019 100.019 100.006 100.006 100.006 100.006 100.029 100.029 100.029 100.029 99.9908 99.9908 99.9908 99.9908 100.016 100.016 100.016 100.016 100.027 100.027 100.027 100.027 100.013 100.013 100.013 100.013 99.995 99.995 99.995 99.995 99.9848 99.9848 99.9848 99.9848 100.006 100.006 100.006 100.006 100.021 100.021 100.021 100.021 99.9924 99.9924 99.9924 99.9924 100.019 100.019 100.019 100.019 100.021 100.021 100.021 100.021 100.043 100.043 100.043 100.043 100.016 100.016 100.016 100.016 99.9899 99.9899 99.9899 99.9899 99.9976 99.9976 99.9976 99.9976 100.018 100.018 100.018 100.018 99.9894 99.9894 99.9894 99.9894 100.015 100.015 100.015 100.015 100.014 100.014 100.014 100.014 100.018 100.018 100.018 100.018 100.02 100.02 100.02 100.02 99.9806 99.9806 99.9806 99.9806 100.004 100.004 100.004 100.004 99.9527 99.9527 99.9527 99.9527 99.9424 99.9424 99.9424 99.9424 100.018 100.018 100.018 100.018 100.016 100.016 100.016 100.016 100.002 100.002 100.002 100.002 100.015 100.015 100.015 100.015 99.9563 99.9563 99.9563 99.9563 100.01 100.01 100.01 100.01 100.028 100.028 100.028 100.028 99.9906 99.9906 99.9906 99.9906 100.015 100.015 100.015 100.015 100.016 100.016 100.016 100.016 99.8798 99.8798 99.8798 99.8798 100.017 100.017 100.017 100.017 99.9901 99.9901 99.9901 99.9901 100.031 100.031 100.031 100.031 99.9492 99.9492 99.9492 99.9492 100.029 100.029 100.029 100.029 100.014 100.014 100.014 100.014 99.9016 99.9016 99.9016 99.9016 100.041 100.041 100.041 100.041 100.039 100.039 100.039 100.039 100.018 100.018 100.018 100.018 100.008 100.008 100.008 100.008 100.02 100.02 100.02 100.02 99.9384 99.9384 99.9384 99.9384 99.9724 99.9724 99.9724 99.9724 99.6496 99.6496 99.6496 99.6496 100.02 100.02 100.02 100.02 99.8497 99.8497 99.8497 99.8497 99.9756 99.9756 99.9756 99.9756 100.02 100.02 100.02 100.02 99.6712 99.6712 99.6712 99.6712 100.01 100.01 100.01 100.01 100.024 100.024 100.024 100.024 99.9951 99.9951 99.9951 99.9951 100.021 100.021 100.021 100.021 100.013 100.013 100.013 100.013 99.8873 99.8873 99.8873 99.8873 100.01 100.01 100.01 100.01 100.049 100.049 100.049 100.049 100.02 100.02 100.02 100.02 100.019 100.019 100.019 100.019 100.028 100.028 100.028 100.028 100.01 100.01 100.01 100.01 100.014 100.014 100.014 100.014 100.023 100.023 100.023 100.023 100.023 100.023 100.023 100.023 100.013 100.013 100.013 100.013 100.011 100.011 100.011 100.011 99.6522 99.6522 99.6522 99.6522 100.034 100.034 100.034 100.034 99.8917 99.8917 99.8917 99.8917 100.017 100.017 100.017 100.017 100.027 100.027 100.027 100.027 100.025 100.025 100.025 100.025 100.002 100.002 100.002 100.002 99.9854 99.9854 99.9854 99.9854 100.02 100.02 100.02 100.02 100.042 100.042 100.042 100.042 100.019 100.019 100.019 100.019 99.6585 99.6585 99.6585 99.6585 99.8642 99.8642 99.8642 99.8642 99.9979 99.9979 99.9979 99.9979 100.016 100.016 100.016 100.016 99.9834 99.9834 99.9834 99.9834 100.034 100.034 100.034 100.034 99.9062 99.9062 99.9062 99.9062 100.026 100.026 100.026 100.026 100.011 100.011 100.011 100.011 100.038 100.038 100.038 100.038 99.9458 99.9458 99.9458 99.9458 99.6428 99.6428 99.6428 99.6428 99.9646 99.9646 99.9646 99.9646 100.014 100.014 100.014 100.014 100.023 100.023 100.023 100.023 99.9698 99.9698 99.9698 99.9698 100.04 100.04 100.04 100.04 100.028 100.028 100.028 100.028 99.9842 99.9842 99.9842 99.9842 100.021 100.021 100.021 100.021 99.9732 99.9732 99.9732 99.9732 99.9874 99.9874 99.9874 99.9874 100.016 100.016 100.016 100.016 99.9616 99.9616 99.9616 99.9616 100.036 100.036 100.036 100.036 100.031 100.031 100.031 100.031 99.8445 99.8445 99.8445 99.8445 99.9864 99.9864 99.9864 99.9864 99.9719 99.9719 99.9719 99.9719 100.013 100.013 100.013 100.013 100.033 100.033 100.033 100.033 99.9962 99.9962 99.9962 99.9962 100.02 100.02 100.02 100.02 100.01 100.01 100.01 100.01 99.8464 99.8464 99.8464 99.8464 100.046 100.046 100.046 100.046 99.9974 99.9974 99.9974 99.9974 100.015 100.015 100.015 100.015 99.9948 99.9948 99.9948 99.9948 99.9548 99.9548 99.9548 99.9548 99.8309 99.8309 99.8309 99.8309 100.018 100.018 100.018 100.018 100.036 100.036 100.036 100.036 100.026 100.026 100.026 100.026 100.019 100.019 100.019 100.019 100.01 100.01 100.01 100.01 99.8856 99.8856 99.8856 99.8856 99.8279 99.8279 99.8279 99.8279 100.034 100.034 100.034 100.034 99.898 99.898 99.898 99.898 100.009 100.009 100.009 100.009 100.031 100.031 100.031 100.031 99.7061 99.7061 99.7061 99.7061 100.01 100.01 100.01 100.01 99.6963 99.6963 99.6963 99.6963 100.042 100.042 100.042 100.042 99.8847 99.8847 99.8847 99.8847 99.669 99.669 99.669 99.669 100.016 100.016 100.016 100.016 100.013 100.013 100.013 100.013 100.016 100.016 100.016 100.016 99.6563 99.6563 99.6563 99.6563 99.8636 99.8636 99.8636 99.8636 99.9407 99.9407 99.9407 99.9407 99.6249 99.6249 99.6249 99.6249 100.014 100.014 100.014 100.014 100.015 100.015 100.015 100.015 99.9925 99.9925 99.9925 99.9925 99.7325 99.7325 99.7325 99.7325 100.015 100.015 100.015 100.015 100.015 100.015 100.015 100.015 99.9883 99.9883 99.9883 99.9883 100.042 100.042 100.042 100.042 99.9803 99.9803 99.9803 99.9803 100.021 100.021 100.021 100.021 99.9719 99.9719 99.9719 99.9719 99.6231 99.6231 99.6231 99.6231 99.9792 99.9792 99.9792 99.9792 100.027 100.027 100.027 100.027 99.7135 99.7135 99.7135 99.7135 99.9978 99.9978 99.9978 99.9978 99.9566 99.9566 99.9566 99.9566 99.9981 99.9981 99.9981 99.9981 99.9962 99.9962 99.9962 99.9962 100.012 100.012 100.012 100.012 99.9156 99.9156 99.9156 99.9156 100.019 100.019 100.019 100.019 99.9684 99.9684 99.9684 99.9684 100.005 100.005 100.005 100.005 99.9674 99.9674 99.9674 99.9674 99.9992 99.9992 99.9992 99.9992 99.9581 99.9581 99.9581 99.9581 100.005 100.005 100.005 100.005 100.04 100.04 100.04 100.04 100.028 100.028 100.028 100.028 99.9954 99.9954 99.9954 99.9954 100.046 100.046 100.046 100.046 99.7457 99.7457 99.7457 99.7457 100.021 100.021 100.021 100.021 99.8728 99.8728 99.8728 99.8728 100.044 100.044 100.044 100.044 100.002 100.002 100.002 100.002 100.019 100.019 100.019 100.019 100.04 100.04 100.04 100.04 100.02 100.02 100.02 100.02 99.9955 99.9955 99.9955 99.9955 99.9911 99.9911 99.9911 99.9911 100.018 100.018 100.018 100.018 99.6924 99.6924 99.6924 99.6924 100.027 100.027 100.027 100.027 99.9662 99.9662 99.9662 99.9662 99.9781 99.9781 99.9781 99.9781 100.043 100.043 100.043 100.043 99.9373 99.9373 99.9373 99.9373 100.041 100.041 100.041 100.041 99.9984 99.9984 99.9984 99.9984 100.041 100.041 100.041 100.041 99.9601 99.9601 99.9601 99.9601 99.9309 99.9309 99.9309 99.9309 100.029 100.029 100.029 100.029 100.022 100.022 100.022 100.022 99.9525 99.9525 99.9525 99.9525 100.047 100.047 100.047 100.047 99.9729 99.9729 99.9729 99.9729 99.6553 99.6553 99.6553 99.6553 99.9711 99.9711 99.9711 99.9711 99.853 99.853 99.853 99.853 99.6464 99.6464 99.6464 99.6464 99.7243 99.7243 99.7243 99.7243 100.004 100.004 100.004 100.004 99.8813 99.8813 99.8813 99.8813 99.9612 99.9612 99.9612 99.9612 99.9721 99.9721 99.9721 99.9721 100.038 100.038 100.038 100.038 99.9125 99.9125 99.9125 99.9125 99.9985 99.9985 99.9985 99.9985 100.004 100.004 100.004 100.004 100.008 100.008 100.008 100.008 99.9894 99.9894 99.9894 99.9894 99.9793 99.9793 99.9793 99.9793 99.822 99.822 99.822 99.822 99.6706 99.6706 99.6706 99.6706 100.019 100.019 100.019 100.019 99.9734 99.9734 99.9734 99.9734 99.9619 99.9619 99.9619 99.9619 99.9847 99.9847 99.9847 99.9847 99.978 99.978 99.978 99.978 100.034 100.034 100.034 100.034 99.9113 99.9113 99.9113 99.9113 99.9186 99.9186 99.9186 99.9186 100.011 100.011 100.011 100.011 99.9192 99.9192 99.9192 99.9192 99.7111 99.7111 99.7111 99.7111 99.9944 99.9944 99.9944 99.9944 100.047 100.047 100.047 100.047 99.6984 99.6984 99.6984 99.6984 99.9489 99.9489 99.9489 99.9489 99.8385 99.8385 99.8385 99.8385 99.9844 99.9844 99.9844 99.9844 99.7514 99.7514 99.7514 99.7514 100.047 100.047 100.047 100.047 99.9674 99.9674 99.9674 99.9674 100.029 100.029 100.029 100.029 100.015 100.015 100.015 100.015 99.9825 99.9825 99.9825 99.9825 100.031 100.031 100.031 100.031 99.6458 99.6458 99.6458 99.6458 99.7134 99.7134 99.7134 99.7134 100.004 100.004 100.004 100.004 99.9967 99.9967 99.9967 99.9967 99.6904 99.6904 99.6904 99.6904 99.7544 99.7544 99.7544 99.7544 99.6269 99.6269 99.6269 99.6269 100.031 100.031 100.031 100.031 100.043 100.043 100.043 100.043 99.9549 99.9549 99.9549 99.9549 100.029 100.029 100.029 100.029 99.7068 99.7068 99.7068 99.7068 99.7146 99.7146 99.7146 99.7146 99.7444 99.7444 99.7444 99.7444 99.7139 99.7139 99.7139 99.7139 99.6293 99.6293 99.6293 99.6293 99.7125 99.7125 99.7125 99.7125 99.7345 99.7345 99.7345 99.7345 99.6404 99.6404 99.6404 99.6404 100.028 100.028 100.028 100.028 99.6835 99.6835 99.6835 99.6835 99.9705 99.9705 99.9705 99.9705 100.015 100.015 100.015 100.015 99.7293 99.7293 99.7293 99.7293 99.6505 99.6505 99.6505 99.6505 100.032 100.032 100.032 100.032 99.6788 99.6788 99.6788 99.6788 99.9133 99.9133 99.9133 99.9133 99.8837 99.8837 99.8837 99.8837 99.9214 99.9214 99.9214 99.9214 99.9708 99.9708 99.9708 99.9708 100.034 100.034 100.034 100.034 99.8537 99.8537 99.8537 99.8537 99.7188 99.7188 99.7188 99.7188 99.7072 99.7072 99.7072 99.7072 100.028 100.028 100.028 100.028 99.7047 99.7047 99.7047 99.7047 100.012 100.012 100.012 100.012 99.8423 99.8423 99.8423 99.8423 99.9428 99.9428 99.9428 99.9428 99.6227 99.6227 99.6227 99.6227 99.9256 99.9256 99.9256 99.9256 99.8993 99.8993 99.8993 99.8993 99.8986 99.8986 99.8986 99.8986 99.7266 99.7266 99.7266 99.7266 99.7219 99.7219 99.7219 99.7219 99.6764 99.6764 99.6764 99.6764 100.011 100.011 100.011 100.011 100.028 100.028 100.028 100.028 99.9894 99.9894 99.9894 99.9894 100.027 100.027 100.027 100.027 100.028 100.028 100.028 100.028 99.6965 99.6965 99.6965 99.6965 99.5855 99.5855 99.5855 99.5855 99.7322 99.7322 99.7322 99.7322 99.8627 99.8627 99.8627 99.8627 100.008 100.008 100.008 100.008 99.7057 99.7057 99.7057 99.7057 99.7512 99.7512 99.7512 99.7512 99.866 99.866 99.866 99.866 100.021 100.021 100.021 100.021 99.6571 99.6571 99.6571 99.6571 99.7066 99.7066 99.7066 99.7066 99.9638 99.9638 99.9638 99.9638 99.8809 99.8809 99.8809 99.8809 100.021 100.021 100.021 100.021 99.8308 99.8308 99.8308 99.8308 100.005 100.005 100.005 100.005 99.7256 99.7256 99.7256 99.7256 99.6896 99.6896 99.6896 99.6896 100.03 100.03 100.03 100.03 100.047 100.047 100.047 100.047 99.7354 99.7354 99.7354 99.7354 100.02 100.02 100.02 100.02 99.8817 99.8817 99.8817 99.8817 99.8735 99.8735 99.8735 99.8735 99.9249 99.9249 99.9249 99.9249 99.9083 99.9083 99.9083 99.9083 99.7534 99.7534 99.7534 99.7534 100.052 100.052 100.052 100.052 99.6569 99.6569 99.6569 99.6569 100.018 100.018 100.018 100.018 99.9137 99.9137 99.9137 99.9137 99.6834 99.6834 99.6834 99.6834 100.005 100.005 100.005 100.005 99.7771 99.7771 99.7771 99.7771 99.7632 99.7632 99.7632 99.7632 99.8663 99.8663 99.8663 99.8663 99.9067 99.9067 99.9067 99.9067 99.7334 99.7334 99.7334 99.7334 100.019 100.019 100.019 100.019 99.9581 99.9581 99.9581 99.9581 99.7303 99.7303 99.7303 99.7303 99.6705 99.6705 99.6705 99.6705 100.043 100.043 100.043 100.043 100.009 100.009 100.009 100.009 99.8863 99.8863 99.8863 99.8863 99.6962 99.6962 99.6962 99.6962 99.88 99.88 99.88 99.88 99.6459 99.6459 99.6459 99.6459 99.9822 99.9822 99.9822 99.9822 100.024 100.024 100.024 100.024 99.708 99.708 99.708 99.708 99.8828 99.8828 99.8828 99.8828 99.8493 99.8493 99.8493 99.8493 100.041 100.041 100.041 100.041 99.7128 99.7128 99.7128 99.7128 99.7778 99.7778 99.7778 99.7778 99.6729 99.6729 99.6729 99.6729 99.9786 99.9786 99.9786 99.9786 99.9505 99.9505 99.9505 99.9505 99.73 99.73 99.73 99.73 99.9002 99.9002 99.9002 99.9002 100.03 100.03 100.03 100.03 99.9016 99.9016 99.9016 99.9016 99.6458 99.6458 99.6458 99.6458 99.9765 99.9765 99.9765 99.9765 99.9924 99.9924 99.9924 99.9924 99.7796 99.7796 99.7796 99.7796 100.017 100.017 100.017 100.017 100.019 100.019 100.019 100.019 99.936 99.936 99.936 99.936 99.6491 99.6491 99.6491 99.6491 99.6985 99.6985 99.6985 99.6985 99.8467 99.8467 99.8467 99.8467 99.7291 99.7291 99.7291 99.7291 99.9051 99.9051 99.9051 99.9051 99.6762 99.6762 99.6762 99.6762 99.7106 99.7106 99.7106 99.7106 99.9154 99.9154 99.9154 99.9154 100.034 100.034 100.034 100.034 99.9933 99.9933 99.9933 99.9933 99.6994 99.6994 99.6994 99.6994 99.8596 99.8596 99.8596 99.8596 99.9743 99.9743 99.9743 99.9743 99.9924 99.9924 99.9924 99.9924 99.7322 99.7322 99.7322 99.7322 99.8146 99.8146 99.8146 99.8146 99.6705 99.6705 99.6705 99.6705 100.018 100.018 100.018 100.018 99.7165 99.7165 99.7165 99.7165 99.821 99.821 99.821 99.821 100.036 100.036 100.036 100.036 99.9025 99.9025 99.9025 99.9025 99.7134 99.7134 99.7134 99.7134 100.033 100.033 100.033 100.033 99.9028 99.9028 99.9028 99.9028 99.9019 99.9019 99.9019 99.9019 99.6876 99.6876 99.6876 99.6876 99.644 99.644 99.644 99.644 99.8382 99.8382 99.8382 99.8382 100.039 100.039 100.039 100.039 99.6667 99.6667 99.6667 99.6667 99.9029 99.9029 99.9029 99.9029 99.7329 99.7329 99.7329 99.7329 99.9037 99.9037 99.9037 99.9037 100.048 100.048 100.048 100.048 100.028 100.028 100.028 100.028 100.036 100.036 100.036 100.036 99.6705 99.6705 99.6705 99.6705 100.031 100.031 100.031 100.031 99.945 99.945 99.945 99.945 99.9622 99.9622 99.9622 99.9622 99.6502 99.6502 99.6502 99.6502 99.8868 99.8868 99.8868 99.8868 99.693 99.693 99.693 99.693 100.016 100.016 100.016 100.016 99.9051 99.9051 99.9051 99.9051 99.8614 99.8614 99.8614 99.8614 99.978 99.978 99.978 99.978 99.6947 99.6947 99.6947 99.6947 100.017 100.017 100.017 100.017 99.7449 99.7449 99.7449 99.7449 99.722 99.722 99.722 99.722 99.7198 99.7198 99.7198 99.7198 99.7095 99.7095 99.7095 99.7095 99.695 99.695 99.695 99.695 99.7264 99.7264 99.7264 99.7264 99.9217 99.9217 99.9217 99.9217 99.7144 99.7144 99.7144 99.7144 99.7007 99.7007 99.7007 99.7007 99.8293 99.8293 99.8293 99.8293 99.734 99.734 99.734 99.734 100.029 100.029 100.029 100.029 100.019 100.019 100.019 100.019 99.822 99.822 99.822 99.822 100.015 100.015 100.015 100.015 99.6511 99.6511 99.6511 99.6511 99.7037 99.7037 99.7037 99.7037 99.9478 99.9478 99.9478 99.9478 99.703 99.703 99.703 99.703 100.029 100.029 100.029 100.029 99.9261 99.9261 99.9261 99.9261 100.026 100.026 100.026 100.026 99.7651 99.7651 99.7651 99.7651 99.8697 99.8697 99.8697 99.8697 99.973 99.973 99.973 99.973 100.04 100.04 100.04 100.04 99.9804 99.9804 99.9804 99.9804 99.9605 99.9605 99.9605 99.9605 99.8682 99.8682 99.8682 99.8682 99.8668 99.8668 99.8668 99.8668 99.7792 99.7792 99.7792 99.7792 99.9205 99.9205 99.9205 99.9205 99.9672 99.9672 99.9672 99.9672 99.6908 99.6908 99.6908 99.6908 99.9358 99.9358 99.9358 99.9358 99.9008 99.9008 99.9008 99.9008 100.027 100.027 100.027 100.027 100.015 100.015 100.015 100.015 99.9575 99.9575 99.9575 99.9575 99.6937 99.6937 99.6937 99.6937 99.9085 99.9085 99.9085 99.9085 99.8926 99.8926 99.8926 99.8926 99.9877 99.9877 99.9877 99.9877 99.8807 99.8807 99.8807 99.8807 99.7426 99.7426 99.7426 99.7426 99.9084 99.9084 99.9084 99.9084 99.8796 99.8796 99.8796 99.8796 99.9372 99.9372 99.9372 99.9372 99.644 99.644 99.644 99.644 99.8458 99.8458 99.8458 99.8458 99.8338 99.8338 99.8338 99.8338 99.8338 99.8338 99.8338 99.8338 99.8688 99.8688 99.8688 99.8688 99.7739 99.7739 99.7739 99.7739 99.8442 99.8442 99.8442 99.8442 99.9793 99.9793 99.9793 99.9793 99.6419 99.6419 99.6419 99.6419 99.9965 99.9965 99.9965 99.9965 99.6862 99.6862 99.6862 99.6862 99.6814 99.6814 99.6814 99.6814 99.6412 99.6412 99.6412 99.6412 99.7389 99.7389 99.7389 99.7389 99.6601 99.6601 99.6601 99.6601 99.9395 99.9395 99.9395 99.9395 99.7474 99.7474 99.7474 99.7474 99.771 99.771 99.771 99.771 99.9712 99.9712 99.9712 99.9712 99.699 99.699 99.699 99.699 99.9623 99.9623 99.9623 99.9623 99.9605 99.9605 99.9605 99.9605 99.9595 99.9595 99.9595 99.9595 99.6941 99.6941 99.6941 99.6941 99.9022 99.9022 99.9022 99.9022 100.014 100.014 100.014 100.014 99.934 99.934 99.934 99.934 100.047 100.047 100.047 100.047 99.9051 99.9051 99.9051 99.9051 99.6807 99.6807 99.6807 99.6807 99.8834 99.8834 99.8834 99.8834 99.4018 99.4018 99.4018 99.4018 99.7274 99.7274 99.7274 99.7274 100.018 100.018 100.018 100.018 99.6971 99.6971 99.6971 99.6971 99.9544 99.9544 99.9544 99.9544 99.7747 99.7747 99.7747 99.7747 100.026 100.026 100.026 100.026 99.978 99.978 99.978 99.978 99.8453 99.8453 99.8453 99.8453 99.7496 99.7496 99.7496 99.7496 99.9841 99.9841 99.9841 99.9841 100.019 100.019 100.019 100.019 99.7783 99.7783 99.7783 99.7783 99.736 99.736 99.736 99.736 99.3575 99.3575 99.3575 99.3575 99.6948 99.6948 99.6948 99.6948 99.8252 99.8252 99.8252 99.8252 99.6381 99.6381 99.6381 99.6381 99.7318 99.7318 99.7318 99.7318 99.8465 99.8465 99.8465 99.8465 99.7118 99.7118 99.7118 99.7118 100.035 100.035 100.035 100.035 99.8533 99.8533 99.8533 99.8533 100.023 100.023 100.023 100.023 99.7429 99.7429 99.7429 99.7429 100.035 100.035 100.035 100.035 100.029 100.029 100.029 100.029 100.019 100.019 100.019 100.019 100.003 100.003 100.003 100.003 99.8812 99.8812 99.8812 99.8812 99.7383 99.7383 99.7383 99.7383 99.8593 99.8593 99.8593 99.8593 99.9226 99.9226 99.9226 99.9226 99.6962 99.6962 99.6962 99.6962 99.7323 99.7323 99.7323 99.7323 99.8628 99.8628 99.8628 99.8628 99.9789 99.9789 99.9789 99.9789 100.04 100.04 100.04 100.04 99.6908 99.6908 99.6908 99.6908 99.7076 99.7076 99.7076 99.7076 99.7552 99.7552 99.7552 99.7552 99.6771 99.6771 99.6771 99.6771 100.015 100.015 100.015 100.015 99.6837 99.6837 99.6837 99.6837 99.8601 99.8601 99.8601 99.8601 99.9793 99.9793 99.9793 99.9793 99.3343 99.3343 99.3343 99.3343 100.013 100.013 100.013 100.013 100.03 100.03 100.03 100.03 99.9726 99.9726 99.9726 99.9726 99.9712 99.9712 99.9712 99.9712 99.76 99.76 99.76 99.76 100.033 100.033 100.033 100.033 99.973 99.973 99.973 99.973 99.9726 99.9726 99.9726 99.9726 100.029 100.029 100.029 100.029 99.4955 99.4955 99.4955 99.4955 99.8211 99.8211 99.8211 99.8211 99.7845 99.7845 99.7845 99.7845 99.7589 99.7589 99.7589 99.7589 99.6928 99.6928 99.6928 99.6928 99.7351 99.7351 99.7351 99.7351 99.3227 99.3227 99.3227 99.3227 99.8478 99.8478 99.8478 99.8478 99.7106 99.7106 99.7106 99.7106 99.9822 99.9822 99.9822 99.9822 99.4673 99.4673 99.4673 99.4673 99.4267 99.4267 99.4267 99.4267 99.7408 99.7408 99.7408 99.7408 100.014 100.014 100.014 100.014 99.7502 99.7502 99.7502 99.7502 99.7734 99.7734 99.7734 99.7734 99.6893 99.6893 99.6893 99.6893 99.7835 99.7835 99.7835 99.7835 99.7992 99.7992 99.7992 99.7992 99.905 99.905 99.905 99.905 100.053 100.053 100.053 100.053 99.289 99.289 99.289 99.289 99.9718 99.9718 99.9718 99.9718 99.7157 99.7157 99.7157 99.7157 100.029 100.029 100.029 100.029 99.374 99.374 99.374 99.374 99.7804 99.7804 99.7804 99.7804 99.7832 99.7832 99.7832 99.7832 99.3818 99.3818 99.3818 99.3818 99.4161 99.4161 99.4161 99.4161 99.8697 99.8697 99.8697 99.8697 99.735 99.735 99.735 99.735 99.9804 99.9804 99.9804 99.9804 99.8467 99.8467 99.8467 99.8467 99.8505 99.8505 99.8505 99.8505 99.4915 99.4915 99.4915 99.4915 99.9452 99.9452 99.9452 99.9452 99.8137 99.8137 99.8137 99.8137 100.058 100.058 100.058 100.058 99.8453 99.8453 99.8453 99.8453 99.4531 99.4531 99.4531 99.4531 99.7414 99.7414 99.7414 99.7414 100.017 100.017 100.017 100.017 99.7157 99.7157 99.7157 99.7157 99.9243 99.9243 99.9243 99.9243 100.014 100.014 100.014 100.014 99.7148 99.7148 99.7148 99.7148 99.8458 99.8458 99.8458 99.8458 99.9497 99.9497 99.9497 99.9497 99.9146 99.9146 99.9146 99.9146 99.4847 99.4847 99.4847 99.4847 99.7393 99.7393 99.7393 99.7393 100.016 100.016 100.016 100.016 99.4315 99.4315 99.4315 99.4315 99.6616 99.6616 99.6616 99.6616 99.448 99.448 99.448 99.448 99.66 99.66 99.66 99.66 99.3846 99.3846 99.3846 99.3846 99.4011 99.4011 99.4011 99.4011 99.9154 99.9154 99.9154 99.9154 99.967 99.967 99.967 99.967 99.917 99.917 99.917 99.917 100.039 100.039 100.039 100.039 99.934 99.934 99.934 99.934 99.3548 99.3548 99.3548 99.3548 99.3674 99.3674 99.3674 99.3674 99.6727 99.6727 99.6727 99.6727 99.6838 99.6838 99.6838 99.6838 99.3341 99.3341 99.3341 99.3341 99.6986 99.6986 99.6986 99.6986 99.9026 99.9026 99.9026 99.9026 99.6728 99.6728 99.6728 99.6728 99.4076 99.4076 99.4076 99.4076 99.4719 99.4719 99.4719 99.4719 100.019 100.019 100.019 100.019 99.3305 99.3305 99.3305 99.3305 99.3643 99.3643 99.3643 99.3643 99.8618 99.8618 99.8618 99.8618 100.018 100.018 100.018 100.018 99.768 99.768 99.768 99.768 99.7597 99.7597 99.7597 99.7597 99.1988 99.1988 99.1988 99.1988 99.4137 99.4137 99.4137 99.4137 99.3542 99.3542 99.3542 99.3542 99.8812 99.8812 99.8812 99.8812 99.9052 99.9052 99.9052 99.9052 99.7305 99.7305 99.7305 99.7305 99.7308 99.7308 99.7308 99.7308 99.9213 99.9213 99.9213 99.9213 99.9067 99.9067 99.9067 99.9067 100.039 100.039 100.039 100.039 99.7562 99.7562 99.7562 99.7562 99.3707 99.3707 99.3707 99.3707 100.02 100.02 100.02 100.02 99.7196 99.7196 99.7196 99.7196 99.5043 99.5043 99.5043 99.5043 99.8125 99.8125 99.8125 99.8125 100.05 100.05 100.05 100.05 99.2506 99.2506 99.2506 99.2506 99.6986 99.6986 99.6986 99.6986 99.4987 99.4987 99.4987 99.4987 100.019 100.019 100.019 100.019 99.9323 99.9323 99.9323 99.9323 99.7974 99.7974 99.7974 99.7974 99.8688 99.8688 99.8688 99.8688 99.476 99.476 99.476 99.476 99.7022 99.7022 99.7022 99.7022 99.4515 99.4515 99.4515 99.4515 99.9941 99.9941 99.9941 99.9941 99.7245 99.7245 99.7245 99.7245 99.4813 99.4813 99.4813 99.4813 99.2858 99.2858 99.2858 99.2858 99.4905 99.4905 99.4905 99.4905 99.9002 99.9002 99.9002 99.9002 99.206 99.206 99.206 99.206 99.7494 99.7494 99.7494 99.7494 99.2141 99.2141 99.2141 99.2141 100.03 100.03 100.03 100.03 99.6949 99.6949 99.6949 99.6949 99.4938 99.4938 99.4938 99.4938 99.8039 99.8039 99.8039 99.8039 99.8516 99.8516 99.8516 99.8516 99.9022 99.9022 99.9022 99.9022 99.9287 99.9287 99.9287 99.9287 99.2129 99.2129 99.2129 99.2129 99.2797 99.2797 99.2797 99.2797 99.8915 99.8915 99.8915 99.8915 99.8681 99.8681 99.8681 99.8681 99.9912 99.9912 99.9912 99.9912 99.8629 99.8629 99.8629 99.8629 99.4897 99.4897 99.4897 99.4897 99.4668 99.4668 99.4668 99.4668 99.4294 99.4294 99.4294 99.4294 99.9722 99.9722 99.9722 99.9722 99.9026 99.9026 99.9026 99.9026 99.8315 99.8315 99.8315 99.8315 99.858 99.858 99.858 99.858 99.3727 99.3727 99.3727 99.3727 99.9233 99.9233 99.9233 99.9233 99.225 99.225 99.225 99.225 99.3921 99.3921 99.3921 99.3921 99.442 99.442 99.442 99.442 99.4855 99.4855 99.4855 99.4855 100.027 100.027 100.027 100.027 99.8557 99.8557 99.8557 99.8557 100.038 100.038 100.038 100.038 99.8672 99.8672 99.8672 99.8672 100.013 100.013 100.013 100.013 100.056 100.056 100.056 100.056 99.8781 99.8781 99.8781 99.8781 99.4218 99.4218 99.4218 99.4218 99.9037 99.9037 99.9037 99.9037 99.4877 99.4877 99.4877 99.4877 99.8458 99.8458 99.8458 99.8458 99.4801 99.4801 99.4801 99.4801 99.4997 99.4997 99.4997 99.4997 99.2513 99.2513 99.2513 99.2513 99.9162 99.9162 99.9162 99.9162 99.8817 99.8817 99.8817 99.8817 100.038 100.038 100.038 100.038 99.8533 99.8533 99.8533 99.8533 99.463 99.463 99.463 99.463 99.4883 99.4883 99.4883 99.4883 99.3373 99.3373 99.3373 99.3373 99.2829 99.2829 99.2829 99.2829 99.7357 99.7357 99.7357 99.7357 99.3593 99.3593 99.3593 99.3593 99.5281 99.5281 99.5281 99.5281 99.123 99.123 99.123 99.123 99.8868 99.8868 99.8868 99.8868 99.4238 99.4238 99.4238 99.4238 99.3896 99.3896 99.3896 99.3896 99.4144 99.4144 99.4144 99.4144 99.283 99.283 99.283 99.283 99.7633 99.7633 99.7633 99.7633 99.2964 99.2964 99.2964 99.2964 99.4987 99.4987 99.4987 99.4987 99.4668 99.4668 99.4668 99.4668 100.018 100.018 100.018 100.018 99.4877 99.4877 99.4877 99.4877 100.016 100.016 100.016 100.016 99.4841 99.4841 99.4841 99.4841 99.2927 99.2927 99.2927 99.2927 99.8478 99.8478 99.8478 99.8478 99.3074 99.3074 99.3074 99.3074 99.7472 99.7472 99.7472 99.7472 100.016 100.016 100.016 100.016 99.2554 99.2554 99.2554 99.2554 99.3453 99.3453 99.3453 99.3453 100.017 100.017 100.017 100.017 99.4417 99.4417 99.4417 99.4417 99.858 99.858 99.858 99.858 99.9405 99.9405 99.9405 99.9405 99.2524 99.2524 99.2524 99.2524 99.395 99.395 99.395 99.395 99.4136 99.4136 99.4136 99.4136 100.017 100.017 100.017 100.017 99.4412 99.4412 99.4412 99.4412 99.9213 99.9213 99.9213 99.9213 99.3572 99.3572 99.3572 99.3572 99.4897 99.4897 99.4897 99.4897 100.01 100.01 100.01 100.01 99.4917 99.4917 99.4917 99.4917 100.016 100.016 100.016 100.016 100.015 100.015 100.015 100.015 100.06 100.06 100.06 100.06 99.3884 99.3884 99.3884 99.3884 99.4794 99.4794 99.4794 99.4794 100.036 100.036 100.036 100.036 99.4446 99.4446 99.4446 99.4446 99.3313 99.3313 99.3313 99.3313 99.3686 99.3686 99.3686 99.3686 99.408 99.408 99.408 99.408 100.059 100.059 100.059 100.059 99.0795 99.0795 99.0795 99.0795 99.4938 99.4938 99.4938 99.4938 99.3808 99.3808 99.3808 99.3808 99.2928 99.2928 99.2928 99.2928 100.047 100.047 100.047 100.047 99.3059 99.3059 99.3059 99.3059 99.4772 99.4772 99.4772 99.4772 100.06 100.06 100.06 100.06 99.0918 99.0918 99.0918 99.0918 99.4207 99.4207 99.4207 99.4207 100.014 100.014 100.014 100.014 100.023 100.023 100.023 100.023 99.4126 99.4126 99.4126 99.4126 100.02 100.02 100.02 100.02 100.048 100.048 100.048 100.048 99.1303 99.1303 99.1303 99.1303 99.4319 99.4319 99.4319 99.4319 99.3264 99.3264 99.3264 99.3264 100.018 100.018 100.018 100.018 100.012 100.012 100.012 100.012 100.027 100.027 100.027 100.027 99.2382 99.2382 99.2382 99.2382 99.2638 99.2638 99.2638 99.2638 99.2568 99.2568 99.2568 99.2568 99.5192 99.5192 99.5192 99.5192 99.4319 99.4319 99.4319 99.4319 100.018 100.018 100.018 100.018 99.0983 99.0983 99.0983 99.0983 99.3969 99.3969 99.3969 99.3969 100.054 100.054 100.054 100.054 99.4749 99.4749 99.4749 99.4749 99.8683 99.8683 99.8683 99.8683 99.3793 99.3793 99.3793 99.3793 99.3641 99.3641 99.3641 99.3641 99.3587 99.3587 99.3587 99.3587 99.2927 99.2927 99.2927 99.2927 99.3387 99.3387 99.3387 99.3387 100.038 100.038 100.038 100.038 99.1097 99.1097 99.1097 99.1097 99.0858 99.0858 99.0858 99.0858 100.02 100.02 100.02 100.02 99.5192 99.5192 99.5192 99.5192 99.3158 99.3158 99.3158 99.3158 100.052 100.052 100.052 100.052 99.5503 99.5503 99.5503 99.5503 100.017 100.017 100.017 100.017 99.2025 99.2025 99.2025 99.2025 100.023 100.023 100.023 100.023 100.058 100.058 100.058 100.058 99.5503 99.5503 99.5503 99.5503 100.026 100.026 100.026 100.026 99.4513 99.4513 99.4513 99.4513 100.013 100.013 100.013 100.013 100.013 100.013 100.013 100.013 99.1225 99.1225 99.1225 99.1225 100.051 100.051 100.051 100.051 99.2868 99.2868 99.2868 99.2868 100.018 100.018 100.018 100.018 99.0978 99.0978 99.0978 99.0978 100.015 100.015 100.015 100.015 100.011 100.011 100.011 100.011 100.059 100.059 100.059 100.059 99.2592 99.2592 99.2592 99.2592 100.056 100.056 100.056 100.056 99.2478 99.2478 99.2478 99.2478 100.017 100.017 100.017 100.017 100.05 100.05 100.05 100.05 100.019 100.019 100.019 100.019 100.029 100.029 100.029 100.029 100.019 100.019 100.019 100.019 100.066 100.066 100.066 100.066 100.07 100.07 100.07 100.07 100.064 100.064 100.064 100.064 100.05 100.05 100.05 100.05 100.052 100.052 100.052 100.052 100.06 100.06 100.06 100.06 100.064 100.064 100.064 100.064 100.07 100.07 100.07 100.07 100.054 100.054 100.054 100.054 100.06 100.06 100.06 100.06 99.0701 99.0701 99.0701 99.0701 100.06 100.06 100.06 100.06 99.1247 99.1247 99.1247 99.1247 100.05 100.05 100.05 100.05 100.059 100.059 100.059 100.059 100.062 100.062 100.062 100.062 100.015 100.015 100.015 100.015 100.056 100.056 100.056 100.056 100.055 100.055 100.055 100.055 100.045 100.045 100.045 100.045 100.058 100.058 100.058 100.058 99.4419 99.4419 99.4419 99.4419 100.011 100.011 100.011 100.011 100.063 100.063 100.063 100.063 100.031 100.031 100.031 100.031 100.058 100.058 100.058 100.058 99.2573 99.2573 99.2573 99.2573 100.053 100.053 100.053 100.053 100.052 100.052 100.052 100.052 100.054 100.054 100.054 100.054 100.061 100.061 100.061 100.061 99.2867 99.2867 99.2867 99.2867 100.056 100.056 100.056 100.056 99.1094 99.1094 99.1094 99.1094 100.057 100.057 100.057 100.057 100.059 100.059 100.059 100.059 99.3313 99.3313 99.3313 99.3313 100.015 100.015 100.015 100.015 99.2524 99.2524 99.2524 99.2524 99.3305 99.3305 99.3305 99.3305 99.1389 99.1389 99.1389 99.1389 100.05 100.05 100.05 100.05 100.05 100.05 100.05 100.05 100.05 100.05 100.05 100.05 99.1529 99.1529 99.1529 99.1529 100.019 100.019 100.019 100.019 100.054 100.054 100.054 100.054 100.045 100.045 100.045 100.045 99.2178 99.2178 99.2178 99.2178 99.1508 99.1508 99.1508 99.1508 99.4987 99.4987 99.4987 99.4987 100.041 100.041 100.041 100.041 99.0752 99.0752 99.0752 99.0752 99.3387 99.3387 99.3387 99.3387 99.2308 99.2308 99.2308 99.2308 99.2208 99.2208 99.2208 99.2208 99.5503 99.5503 99.5503 99.5503 99.2656 99.2656 99.2656 99.2656 100.042 100.042 100.042 100.042 99.395 99.395 99.395 99.395 99.3906 99.3906 99.3906 99.3906 99.5281 99.5281 99.5281 99.5281 99.3678 99.3678 99.3678 99.3678 100.018 100.018 100.018 100.018 100.016 100.016 100.016 100.016 99.4207 99.4207 99.4207 99.4207 99.3263 99.3263 99.3263 99.3263 99.4897 99.4897 99.4897 99.4897 99.4938 99.4938 99.4938 99.4938 99.4772 99.4772 99.4772 99.4772 100.011 100.011 100.011 100.011 99.4687 99.4687 99.4687 99.4687 99.3497 99.3497 99.3497 99.3497 100.047 100.047 100.047 100.047 99.3973 99.3973 99.3973 99.3973 99.3262 99.3262 99.3262 99.3262 99.3396 99.3396 99.3396 99.3396 99.4011 99.4011 99.4011 99.4011 99.4319 99.4319 99.4319 99.4319 99.1417 99.1417 99.1417 99.1417 99.5192 99.5192 99.5192 99.5192 99.4668 99.4668 99.4668 99.4668 99.3317 99.3317 99.3317 99.3317 99.4749 99.4749 99.4749 99.4749 99.292 99.292 99.292 99.292 99.4136 99.4136 99.4136 99.4136 100.048 100.048 100.048 100.048 99.2574 99.2574 99.2574 99.2574 99.3366 99.3366 99.3366 99.3366 99.3035 99.3035 99.3035 99.3035 99.3059 99.3059 99.3059 99.3059 99.0929 99.0929 99.0929 99.0929 99.126 99.126 99.126 99.126 99.2489 99.2489 99.2489 99.2489 100.014 100.014 100.014 100.014 99.3635 99.3635 99.3635 99.3635 99.3271 99.3271 99.3271 99.3271 99.4015 99.4015 99.4015 99.4015 99.4877 99.4877 99.4877 99.4877 99.3658 99.3658 99.3658 99.3658 99.2967 99.2967 99.2967 99.2967 99.5179 99.5179 99.5179 99.5179 99.3977 99.3977 99.3977 99.3977 99.3689 99.3689 99.3689 99.3689 100.051 100.051 100.051 100.051 99.4229 99.4229 99.4229 99.4229 99.4115 99.4115 99.4115 99.4115 99.1859 99.1859 99.1859 99.1859 99.4649 99.4649 99.4649 99.4649 99.4558 99.4558 99.4558 99.4558 99.264 99.264 99.264 99.264 99.4793 99.4793 99.4793 99.4793 99.2345 99.2345 99.2345 99.2345 99.4381 99.4381 99.4381 99.4381 99.4138 99.4138 99.4138 99.4138 99.3352 99.3352 99.3352 99.3352 99.4477 99.4477 99.4477 99.4477 100.004 100.004 100.004 100.004 100.043 100.043 100.043 100.043 100.003 100.003 100.003 100.003 99.9454 99.9454 99.9454 99.9454 99.9695 99.9695 99.9695 99.9695 99.9965 99.9965 99.9965 99.9965 99.9839 99.9839 99.9839 99.9839 100.014 100.014 100.014 100.014 100.006 100.006 100.006 100.006 100.032 100.032 100.032 100.032 100.006 100.006 100.006 100.006 100.016 100.016 100.016 100.016 99.7258 99.7258 99.7258 99.7258 99.8837 99.8837 99.8837 99.8837 99.9652 99.9652 99.9652 99.9652 100.015 100.015 100.015 100.015 99.9911 99.9911 99.9911 99.9911 100.002 100.002 100.002 100.002 100.026 100.026 100.026 100.026 100.012 100.012 100.012 100.012 100.012 100.012 100.012 100.012 100.028 100.028 100.028 100.028 99.6675 99.6675 99.6675 99.6675 99.6527 99.6527 99.6527 99.6527 99.9638 99.9638 99.9638 99.9638 99.9837 99.9837 99.9837 99.9837 100.04 100.04 100.04 100.04 100.013 100.013 100.013 100.013 100.029 100.029 100.029 100.029 100.025 100.025 100.025 100.025 100.038 100.038 100.038 100.038 99.6335 99.6335 99.6335 99.6335 99.5896 99.5896 99.5896 99.5896 99.6566 99.6566 99.6566 99.6566 99.7156 99.7156 99.7156 99.7156 99.819 99.819 99.819 99.819 99.7083 99.7083 99.7083 99.7083 99.996 99.996 99.996 99.996 100.028 100.028 100.028 100.028 99.8785 99.8785 99.8785 99.8785 99.6985 99.6985 99.6985 99.6985 99.3366 99.3366 99.3366 99.3366 99.4021 99.4021 99.4021 99.4021 99.6602 99.6602 99.6602 99.6602 99.8628 99.8628 99.8628 99.8628 99.8338 99.8338 99.8338 99.8338 99.9232 99.9232 99.9232 99.9232 99.8566 99.8566 99.8566 99.8566 99.8101 99.8101 99.8101 99.8101 99.7279 99.7279 99.7279 99.7279 99.7364 99.7364 99.7364 99.7364 99.7627 99.7627 99.7627 99.7627 99.7794 99.7794 99.7794 99.7794 99.7492 99.7492 99.7492 99.7492 99.7555 99.7555 99.7555 99.7555 100.012 100.012 100.012 100.012 100.029 100.029 100.029 100.029 99.6361 99.6361 99.6361 99.6361 99.7097 99.7097 99.7097 99.7097 99.8178 99.8178 99.8178 99.8178 99.7734 99.7734 99.7734 99.7734 99.9933 99.9933 99.9933 99.9933 99.9911 99.9911 99.9911 99.9911 100.009 100.009 100.009 100.009 100.001 100.001 100.001 100.001 99.9994 99.9994 99.9994 99.9994 99.9735 99.9735 99.9735 99.9735 100.014 100.014 100.014 100.014 100.009 100.009 100.009 100.009 100.012 100.012 100.012 100.012 99.9999 99.9999 99.9999 99.9999 99.995 99.995 99.995 99.995 99.9922 99.9922 99.9922 99.9922 99.9769 99.9769 99.9769 99.9769 99.9913 99.9913 99.9913 99.9913 99.9921 99.9921 99.9921 99.9921 99.9949 99.9949 99.9949 99.9949 99.9983 99.9983 99.9983 99.9983 100.003 100.003 100.003 100.003 99.9887 99.9887 99.9887 99.9887 100.021 100.021 100.021 100.021 99.9665 99.9665 99.9665 99.9665 99.9778 99.9778 99.9778 99.9778 99.9768 99.9768 99.9768 99.9768 99.9557 99.9557 99.9557 99.9557 100.001 100.001 100.001 100.001 100.006 100.006 100.006 100.006 100.004 100.004 100.004 100.004 100.02 100.02 100.02 100.02 99.9906 99.9906 99.9906 99.9906 99.9677 99.9677 99.9677 99.9677 99.9816 99.9816 99.9816 99.9816 100.013 100.013 100.013 100.013 100.009 100.009 100.009 100.009 100.01 100.01 100.01 100.01 99.979 99.979 99.979 99.979 99.9878 99.9878 99.9878 99.9878 100.003 100.003 100.003 100.003 100.003 100.003 100.003 100.003 99.9747 99.9747 99.9747 99.9747 100.029 100.029 100.029 100.029 99.939 99.939 99.939 99.939 99.9981 99.9981 99.9981 99.9981 100.005 100.005 100.005 100.005 99.9726 99.9726 99.9726 99.9726 100.027 100.027 100.027 100.027 100.003 100.003 100.003 100.003 100.015 100.015 100.015 100.015 100.001 100.001 100.001 100.001 100.001 100.001 100.001 100.001 99.9957 99.9957 99.9957 99.9957 100.014 100.014 100.014 100.014 99.9618 99.9618 99.9618 99.9618 100.002 100.002 100.002 100.002 99.9964 99.9964 99.9964 99.9964 99.9707 99.9707 99.9707 99.9707 100.011 100.011 100.011 100.011 100.002 100.002 100.002 100.002 99.9922 99.9922 99.9922 99.9922 99.9458 99.9458 99.9458 99.9458 100.015 100.015 100.015 100.015 100.003 100.003 100.003 100.003 99.9538 99.9538 99.9538 99.9538 100.006 100.006 100.006 100.006 99.9462 99.9462 99.9462 99.9462 100.011 100.011 100.011 100.011 99.9972 99.9972 99.9972 99.9972 100.004 100.004 100.004 100.004 99.9641 99.9641 99.9641 99.9641 100.001 100.001 100.001 100.001 100.004 100.004 100.004 100.004 99.9752 99.9752 99.9752 99.9752 100.019 100.019 100.019 100.019 100.014 100.014 100.014 100.014 100.015 100.015 100.015 100.015 100.012 100.012 100.012 100.012 99.9773 99.9773 99.9773 99.9773 100 100 100 100 100.017 100.017 100.017 100.017 100.001 100.001 100.001 100.001 100.008 100.008 100.008 100.008 99.9861 99.9861 99.9861 99.9861 100.007 100.007 100.007 100.007 99.9694 99.9694 99.9694 99.9694 99.9997 99.9997 99.9997 99.9997 99.9589 99.9589 99.9589 99.9589 100.002 100.002 100.002 100.002 99.9656 99.9656 99.9656 99.9656 99.999 99.999 99.999 99.999 99.99 99.99 99.99 99.99 99.9447 99.9447 99.9447 99.9447 99.9611 99.9611 99.9611 99.9611 100.002 100.002 100.002 100.002 100.008 100.008 100.008 100.008 99.9653 99.9653 99.9653 99.9653 99.9567 99.9567 99.9567 99.9567 99.9904 99.9904 99.9904 99.9904 100.006 100.006 100.006 100.006 100.007 100.007 100.007 100.007 100.011 100.011 100.011 100.011 99.986 99.986 99.986 99.986 99.8471 99.8471 99.8471 99.8471 100.007 100.007 100.007 100.007 99.9386 99.9386 99.9386 99.9386 99.9313 99.9313 99.9313 99.9313 99.9436 99.9436 99.9436 99.9436 99.9458 99.9458 99.9458 99.9458 99.9602 99.9602 99.9602 99.9602 99.9168 99.9168 99.9168 99.9168 99.9681 99.9681 99.9681 99.9681 99.9615 99.9615 99.9615 99.9615 99.9742 99.9742 99.9742 99.9742 100.009 100.009 100.009 100.009 99.9364 99.9364 99.9364 99.9364 100.022 100.022 100.022 100.022 99.999 99.999 99.999 99.999 99.9948 99.9948 99.9948 99.9948 99.9413 99.9413 99.9413 99.9413 100.009 100.009 100.009 100.009 99.9788 99.9788 99.9788 99.9788 99.965 99.965 99.965 99.965 100.009 100.009 100.009 100.009 100.015 100.015 100.015 100.015 99.9821 99.9821 99.9821 99.9821 99.9811 99.9811 99.9811 99.9811 100.015 100.015 100.015 100.015 99.9541 99.9541 99.9541 99.9541 99.9811 99.9811 99.9811 99.9811 100.002 100.002 100.002 100.002 99.8877 99.8877 99.8877 99.8877 99.9493 99.9493 99.9493 99.9493 99.9626 99.9626 99.9626 99.9626 99.9988 99.9988 99.9988 99.9988 99.7383 99.7383 99.7383 99.7383 99.8794 99.8794 99.8794 99.8794 99.9537 99.9537 99.9537 99.9537 100.003 100.003 100.003 100.003 99.9942 99.9942 99.9942 99.9942 99.9237 99.9237 99.9237 99.9237 99.9965 99.9965 99.9965 99.9965 100.021 100.021 100.021 100.021 99.9638 99.9638 99.9638 99.9638 99.9765 99.9765 99.9765 99.9765 99.9731 99.9731 99.9731 99.9731 99.9234 99.9234 99.9234 99.9234 100.002 100.002 100.002 100.002 100.002 100.002 100.002 100.002 100.007 100.007 100.007 100.007 99.9932 99.9932 99.9932 99.9932 99.9361 99.9361 99.9361 99.9361 99.9782 99.9782 99.9782 99.9782 100.009 100.009 100.009 100.009 99.9651 99.9651 99.9651 99.9651 99.9966 99.9966 99.9966 99.9966 100.008 100.008 100.008 100.008 99.9735 99.9735 99.9735 99.9735 99.9926 99.9926 99.9926 99.9926 99.9251 99.9251 99.9251 99.9251 99.95 99.95 99.95 99.95 99.8813 99.8813 99.8813 99.8813 100.004 100.004 100.004 100.004 99.8684 99.8684 99.8684 99.8684 99.9421 99.9421 99.9421 99.9421 100.027 100.027 100.027 100.027 100.012 100.012 100.012 100.012 99.9737 99.9737 99.9737 99.9737 100.012 100.012 100.012 100.012 99.9508 99.9508 99.9508 99.9508 99.9621 99.9621 99.9621 99.9621 100.011 100.011 100.011 100.011 100.003 100.003 100.003 100.003 99.9498 99.9498 99.9498 99.9498 99.8878 99.8878 99.8878 99.8878 99.7673 99.7673 99.7673 99.7673 100.015 100.015 100.015 100.015 99.9212 99.9212 99.9212 99.9212 99.922 99.922 99.922 99.922 99.9545 99.9545 99.9545 99.9545 100.02 100.02 100.02 100.02 100.007 100.007 100.007 100.007 99.9786 99.9786 99.9786 99.9786 99.9306 99.9306 99.9306 99.9306 99.9285 99.9285 99.9285 99.9285 99.9859 99.9859 99.9859 99.9859 99.9471 99.9471 99.9471 99.9471 99.9349 99.9349 99.9349 99.9349 99.8409 99.8409 99.8409 99.8409 99.9702 99.9702 99.9702 99.9702 99.7915 99.7915 99.7915 99.7915 99.9505 99.9505 99.9505 99.9505 99.9779 99.9779 99.9779 99.9779 99.7015 99.7015 99.7015 99.7015 100.007 100.007 100.007 100.007 99.9894 99.9894 99.9894 99.9894 100.002 100.002 100.002 100.002 99.7998 99.7998 99.7998 99.7998 99.9063 99.9063 99.9063 99.9063 99.9921 99.9921 99.9921 99.9921 99.8043 99.8043 99.8043 99.8043 99.9207 99.9207 99.9207 99.9207 100.002 100.002 100.002 100.002 99.9128 99.9128 99.9128 99.9128 99.8206 99.8206 99.8206 99.8206 100.014 100.014 100.014 100.014 100.009 100.009 100.009 100.009 99.9398 99.9398 99.9398 99.9398 99.9172 99.9172 99.9172 99.9172 100.002 100.002 100.002 100.002 99.9134 99.9134 99.9134 99.9134 99.9149 99.9149 99.9149 99.9149 99.8072 99.8072 99.8072 99.8072 99.9941 99.9941 99.9941 99.9941 99.9885 99.9885 99.9885 99.9885 99.7434 99.7434 99.7434 99.7434 100.01 100.01 100.01 100.01 99.745 99.745 99.745 99.745 99.982 99.982 99.982 99.982 100.018 100.018 100.018 100.018 99.9492 99.9492 99.9492 99.9492 100 100 100 100 100.011 100.011 100.011 100.011 99.9018 99.9018 99.9018 99.9018 99.9488 99.9488 99.9488 99.9488 99.978 99.978 99.978 99.978 99.937 99.937 99.937 99.937 99.8859 99.8859 99.8859 99.8859 100.004 100.004 100.004 100.004 99.94 99.94 99.94 99.94 99.9861 99.9861 99.9861 99.9861 100.015 100.015 100.015 100.015 99.9218 99.9218 99.9218 99.9218 99.9372 99.9372 99.9372 99.9372 99.9754 99.9754 99.9754 99.9754 99.9463 99.9463 99.9463 99.9463 99.965 99.965 99.965 99.965 99.9523 99.9523 99.9523 99.9523 99.9807 99.9807 99.9807 99.9807 99.9248 99.9248 99.9248 99.9248 99.9499 99.9499 99.9499 99.9499 100.007 100.007 100.007 100.007 100.01 100.01 100.01 100.01 100.017 100.017 100.017 100.017 99.8475 99.8475 99.8475 99.8475 99.9867 99.9867 99.9867 99.9867 99.9852 99.9852 99.9852 99.9852 99.913 99.913 99.913 99.913 99.9642 99.9642 99.9642 99.9642 99.9741 99.9741 99.9741 99.9741 99.9359 99.9359 99.9359 99.9359 100.013 100.013 100.013 100.013 99.9211 99.9211 99.9211 99.9211 100.013 100.013 100.013 100.013 99.9053 99.9053 99.9053 99.9053 99.9863 99.9863 99.9863 99.9863 100.02 100.02 100.02 100.02 99.8675 99.8675 99.8675 99.8675 99.959 99.959 99.959 99.959 99.9333 99.9333 99.9333 99.9333 99.8028 99.8028 99.8028 99.8028 99.8135 99.8135 99.8135 99.8135 99.9983 99.9983 99.9983 99.9983 99.9432 99.9432 99.9432 99.9432 99.7676 99.7676 99.7676 99.7676 99.8893 99.8893 99.8893 99.8893 99.9211 99.9211 99.9211 99.9211 99.9017 99.9017 99.9017 99.9017 99.9157 99.9157 99.9157 99.9157 99.9986 99.9986 99.9986 99.9986 99.8964 99.8964 99.8964 99.8964 99.9567 99.9567 99.9567 99.9567 99.9015 99.9015 99.9015 99.9015 100.012 100.012 100.012 100.012 99.9383 99.9383 99.9383 99.9383 99.9669 99.9669 99.9669 99.9669 99.9523 99.9523 99.9523 99.9523 100.017 100.017 100.017 100.017 100.003 100.003 100.003 100.003 99.8542 99.8542 99.8542 99.8542 99.7416 99.7416 99.7416 99.7416 99.9171 99.9171 99.9171 99.9171 99.933 99.933 99.933 99.933 99.9556 99.9556 99.9556 99.9556 99.9892 99.9892 99.9892 99.9892 99.9341 99.9341 99.9341 99.9341 99.9002 99.9002 99.9002 99.9002 99.928 99.928 99.928 99.928 100.002 100.002 100.002 100.002 99.88 99.88 99.88 99.88 99.9842 99.9842 99.9842 99.9842 99.9007 99.9007 99.9007 99.9007 99.9035 99.9035 99.9035 99.9035 99.9094 99.9094 99.9094 99.9094 99.9009 99.9009 99.9009 99.9009 99.9373 99.9373 99.9373 99.9373 99.915 99.915 99.915 99.915 99.9143 99.9143 99.9143 99.9143 99.9586 99.9586 99.9586 99.9586 99.9028 99.9028 99.9028 99.9028 99.9856 99.9856 99.9856 99.9856 100.013 100.013 100.013 100.013 100.011 100.011 100.011 100.011 99.9906 99.9906 99.9906 99.9906 99.8321 99.8321 99.8321 99.8321 99.7656 99.7656 99.7656 99.7656 100.009 100.009 100.009 100.009 99.9279 99.9279 99.9279 99.9279 99.7868 99.7868 99.7868 99.7868 99.8877 99.8877 99.8877 99.8877 99.6201 99.6201 99.6201 99.6201 99.9907 99.9907 99.9907 99.9907 99.9647 99.9647 99.9647 99.9647 100.005 100.005 100.005 100.005 99.9908 99.9908 99.9908 99.9908 99.7996 99.7996 99.7996 99.7996 99.8704 99.8704 99.8704 99.8704 99.9091 99.9091 99.9091 99.9091 99.9206 99.9206 99.9206 99.9206 99.7161 99.7161 99.7161 99.7161 99.7172 99.7172 99.7172 99.7172 99.8703 99.8703 99.8703 99.8703 99.9195 99.9195 99.9195 99.9195 99.9881 99.9881 99.9881 99.9881 99.7376 99.7376 99.7376 99.7376 99.9115 99.9115 99.9115 99.9115 99.9167 99.9167 99.9167 99.9167 99.9764 99.9764 99.9764 99.9764 99.7521 99.7521 99.7521 99.7521 99.8839 99.8839 99.8839 99.8839 99.7833 99.7833 99.7833 99.7833 99.9807 99.9807 99.9807 99.9807 99.7773 99.7773 99.7773 99.7773 99.8654 99.8654 99.8654 99.8654 100.001 100.001 100.001 100.001 99.9615 99.9615 99.9615 99.9615 99.9442 99.9442 99.9442 99.9442 99.7873 99.7873 99.7873 99.7873 99.9857 99.9857 99.9857 99.9857 99.7545 99.7545 99.7545 99.7545 99.9284 99.9284 99.9284 99.9284 99.9332 99.9332 99.9332 99.9332 99.9354 99.9354 99.9354 99.9354 99.7862 99.7862 99.7862 99.7862 99.9054 99.9054 99.9054 99.9054 99.8657 99.8657 99.8657 99.8657 99.8718 99.8718 99.8718 99.8718 99.8129 99.8129 99.8129 99.8129 99.8621 99.8621 99.8621 99.8621 99.7219 99.7219 99.7219 99.7219 100.017 100.017 100.017 100.017 99.9885 99.9885 99.9885 99.9885 99.9732 99.9732 99.9732 99.9732 99.9935 99.9935 99.9935 99.9935 99.7321 99.7321 99.7321 99.7321 99.9113 99.9113 99.9113 99.9113 99.6909 99.6909 99.6909 99.6909 99.7775 99.7775 99.7775 99.7775 99.8002 99.8002 99.8002 99.8002 100.012 100.012 100.012 100.012 99.8477 99.8477 99.8477 99.8477 99.8946 99.8946 99.8946 99.8946 99.8645 99.8645 99.8645 99.8645 99.8984 99.8984 99.8984 99.8984 100.003 100.003 100.003 100.003 99.9203 99.9203 99.9203 99.9203 99.843 99.843 99.843 99.843 99.9742 99.9742 99.9742 99.9742 100.002 100.002 100.002 100.002 99.9058 99.9058 99.9058 99.9058 99.9358 99.9358 99.9358 99.9358 99.869 99.869 99.869 99.869 99.783 99.783 99.783 99.783 99.9853 99.9853 99.9853 99.9853 99.9009 99.9009 99.9009 99.9009 99.8956 99.8956 99.8956 99.8956 100.011 100.011 100.011 100.011 99.9737 99.9737 99.9737 99.9737 99.9226 99.9226 99.9226 99.9226 99.8774 99.8774 99.8774 99.8774 99.8691 99.8691 99.8691 99.8691 99.9364 99.9364 99.9364 99.9364 99.9502 99.9502 99.9502 99.9502 99.7106 99.7106 99.7106 99.7106 99.8689 99.8689 99.8689 99.8689 99.9316 99.9316 99.9316 99.9316 99.7182 99.7182 99.7182 99.7182 99.9353 99.9353 99.9353 99.9353 99.8563 99.8563 99.8563 99.8563 99.9751 99.9751 99.9751 99.9751 99.9546 99.9546 99.9546 99.9546 99.8663 99.8663 99.8663 99.8663 99.7838 99.7838 99.7838 99.7838 99.7617 99.7617 99.7617 99.7617 99.9061 99.9061 99.9061 99.9061 99.8219 99.8219 99.8219 99.8219 99.8482 99.8482 99.8482 99.8482 99.7172 99.7172 99.7172 99.7172 99.9291 99.9291 99.9291 99.9291 99.9203 99.9203 99.9203 99.9203 99.9622 99.9622 99.9622 99.9622 99.6013 99.6013 99.6013 99.6013 99.8281 99.8281 99.8281 99.8281 99.7962 99.7962 99.7962 99.7962 99.841 99.841 99.841 99.841 99.9909 99.9909 99.9909 99.9909 99.8362 99.8362 99.8362 99.8362 99.82 99.82 99.82 99.82 99.9521 99.9521 99.9521 99.9521 99.9124 99.9124 99.9124 99.9124 99.7654 99.7654 99.7654 99.7654 99.8373 99.8373 99.8373 99.8373 99.9231 99.9231 99.9231 99.9231 100.004 100.004 100.004 100.004 100.009 100.009 100.009 100.009 99.8895 99.8895 99.8895 99.8895 99.9653 99.9653 99.9653 99.9653 99.9858 99.9858 99.9858 99.9858 99.8546 99.8546 99.8546 99.8546 99.7565 99.7565 99.7565 99.7565 99.935 99.935 99.935 99.935 100.017 100.017 100.017 100.017 99.9346 99.9346 99.9346 99.9346 100.01 100.01 100.01 100.01 99.8835 99.8835 99.8835 99.8835 99.9786 99.9786 99.9786 99.9786 99.8117 99.8117 99.8117 99.8117 99.7425 99.7425 99.7425 99.7425 99.9766 99.9766 99.9766 99.9766 99.8791 99.8791 99.8791 99.8791 99.8739 99.8739 99.8739 99.8739 99.911 99.911 99.911 99.911 99.692 99.692 99.692 99.692 99.7948 99.7948 99.7948 99.7948 99.9255 99.9255 99.9255 99.9255 99.8666 99.8666 99.8666 99.8666 99.8671 99.8671 99.8671 99.8671 99.9481 99.9481 99.9481 99.9481 99.8288 99.8288 99.8288 99.8288 100.015 100.015 100.015 100.015 99.8152 99.8152 99.8152 99.8152 99.8883 99.8883 99.8883 99.8883 99.6645 99.6645 99.6645 99.6645 99.9988 99.9988 99.9988 99.9988 99.8727 99.8727 99.8727 99.8727 99.9117 99.9117 99.9117 99.9117 99.8843 99.8843 99.8843 99.8843 99.8917 99.8917 99.8917 99.8917 99.8891 99.8891 99.8891 99.8891 99.9906 99.9906 99.9906 99.9906 99.8958 99.8958 99.8958 99.8958 99.8505 99.8505 99.8505 99.8505 99.7771 99.7771 99.7771 99.7771 99.5569 99.5569 99.5569 99.5569 99.7393 99.7393 99.7393 99.7393 99.8978 99.8978 99.8978 99.8978 99.7749 99.7749 99.7749 99.7749 99.9685 99.9685 99.9685 99.9685 99.7356 99.7356 99.7356 99.7356 99.8647 99.8647 99.8647 99.8647 99.9081 99.9081 99.9081 99.9081 99.9879 99.9879 99.9879 99.9879 99.9592 99.9592 99.9592 99.9592 99.7226 99.7226 99.7226 99.7226 99.9893 99.9893 99.9893 99.9893 99.8864 99.8864 99.8864 99.8864 99.9367 99.9367 99.9367 99.9367 99.6464 99.6464 99.6464 99.6464 99.7935 99.7935 99.7935 99.7935 99.7645 99.7645 99.7645 99.7645 100.003 100.003 100.003 100.003 99.8714 99.8714 99.8714 99.8714 99.8044 99.8044 99.8044 99.8044 99.8565 99.8565 99.8565 99.8565 99.8701 99.8701 99.8701 99.8701 100.004 100.004 100.004 100.004 99.8364 99.8364 99.8364 99.8364 99.9062 99.9062 99.9062 99.9062 99.9247 99.9247 99.9247 99.9247 99.7774 99.7774 99.7774 99.7774 99.7716 99.7716 99.7716 99.7716 99.7064 99.7064 99.7064 99.7064 99.8328 99.8328 99.8328 99.8328 99.7527 99.7527 99.7527 99.7527 99.7025 99.7025 99.7025 99.7025 99.8993 99.8993 99.8993 99.8993 99.9396 99.9396 99.9396 99.9396 99.9923 99.9923 99.9923 99.9923 100.006 100.006 100.006 100.006 99.7388 99.7388 99.7388 99.7388 100.005 100.005 100.005 100.005 99.7946 99.7946 99.7946 99.7946 99.858 99.858 99.858 99.858 99.8863 99.8863 99.8863 99.8863 99.7622 99.7622 99.7622 99.7622 99.985 99.985 99.985 99.985 99.9164 99.9164 99.9164 99.9164 99.8896 99.8896 99.8896 99.8896 99.9173 99.9173 99.9173 99.9173 99.7667 99.7667 99.7667 99.7667 99.8438 99.8438 99.8438 99.8438 99.9611 99.9611 99.9611 99.9611 99.8502 99.8502 99.8502 99.8502 99.794 99.794 99.794 99.794 99.9483 99.9483 99.9483 99.9483 99.794 99.794 99.794 99.794 99.9509 99.9509 99.9509 99.9509 99.8706 99.8706 99.8706 99.8706 100.005 100.005 100.005 100.005 99.7394 99.7394 99.7394 99.7394 99.9938 99.9938 99.9938 99.9938 100.01 100.01 100.01 100.01 99.9918 99.9918 99.9918 99.9918 100.006 100.006 100.006 100.006 99.9299 99.9299 99.9299 99.9299 99.8646 99.8646 99.8646 99.8646 99.8661 99.8661 99.8661 99.8661 99.881 99.881 99.881 99.881 99.8528 99.8528 99.8528 99.8528 99.9881 99.9881 99.9881 99.9881 99.942 99.942 99.942 99.942 100.011 100.011 100.011 100.011 99.9473 99.9473 99.9473 99.9473 99.9174 99.9174 99.9174 99.9174 99.5846 99.5846 99.5846 99.5846 99.7522 99.7522 99.7522 99.7522 99.7185 99.7185 99.7185 99.7185 99.7069 99.7069 99.7069 99.7069 99.8056 99.8056 99.8056 99.8056 99.8204 99.8204 99.8204 99.8204 99.9606 99.9606 99.9606 99.9606 99.8184 99.8184 99.8184 99.8184 99.9364 99.9364 99.9364 99.9364 99.8735 99.8735 99.8735 99.8735 99.6639 99.6639 99.6639 99.6639 99.7968 99.7968 99.7968 99.7968 99.7142 99.7142 99.7142 99.7142 99.9032 99.9032 99.9032 99.9032 99.829 99.829 99.829 99.829 99.8875 99.8875 99.8875 99.8875 99.8487 99.8487 99.8487 99.8487 99.8608 99.8608 99.8608 99.8608 99.8518 99.8518 99.8518 99.8518 99.8858 99.8858 99.8858 99.8858 99.9945 99.9945 99.9945 99.9945 99.8104 99.8104 99.8104 99.8104 99.9933 99.9933 99.9933 99.9933 99.8555 99.8555 99.8555 99.8555 99.808 99.808 99.808 99.808 100.009 100.009 100.009 100.009 99.8189 99.8189 99.8189 99.8189 99.9167 99.9167 99.9167 99.9167 99.7811 99.7811 99.7811 99.7811 99.7064 99.7064 99.7064 99.7064 99.8437 99.8437 99.8437 99.8437 99.3312 99.3312 99.3312 99.3312 99.8297 99.8297 99.8297 99.8297 99.8849 99.8849 99.8849 99.8849 99.7306 99.7306 99.7306 99.7306 100.006 100.006 100.006 100.006 99.9468 99.9468 99.9468 99.9468 99.8815 99.8815 99.8815 99.8815 99.8216 99.8216 99.8216 99.8216 99.7498 99.7498 99.7498 99.7498 99.9359 99.9359 99.9359 99.9359 99.8589 99.8589 99.8589 99.8589 99.9697 99.9697 99.9697 99.9697 99.859 99.859 99.859 99.859 99.9274 99.9274 99.9274 99.9274 99.1634 99.1634 99.1634 99.1634 99.7791 99.7791 99.7791 99.7791 99.8381 99.8381 99.8381 99.8381 99.5807 99.5807 99.5807 99.5807 99.741 99.741 99.741 99.741 99.895 99.895 99.895 99.895 99.6082 99.6082 99.6082 99.6082 99.9574 99.9574 99.9574 99.9574 99.75 99.75 99.75 99.75 99.8853 99.8853 99.8853 99.8853 99.9464 99.9464 99.9464 99.9464 99.9024 99.9024 99.9024 99.9024 99.9834 99.9834 99.9834 99.9834 100.001 100.001 100.001 100.001 99.8694 99.8694 99.8694 99.8694 99.7903 99.7903 99.7903 99.7903 99.8087 99.8087 99.8087 99.8087 99.8933 99.8933 99.8933 99.8933 99.9146 99.9146 99.9146 99.9146 99.6118 99.6118 99.6118 99.6118 99.9232 99.9232 99.9232 99.9232 99.9715 99.9715 99.9715 99.9715 99.8463 99.8463 99.8463 99.8463 99.9699 99.9699 99.9699 99.9699 99.9399 99.9399 99.9399 99.9399 99.763 99.763 99.763 99.763 99.9451 99.9451 99.9451 99.9451 99.6687 99.6687 99.6687 99.6687 100.006 100.006 100.006 100.006 99.8004 99.8004 99.8004 99.8004 99.9762 99.9762 99.9762 99.9762 99.8257 99.8257 99.8257 99.8257 99.193 99.193 99.193 99.193 99.8833 99.8833 99.8833 99.8833 99.9835 99.9835 99.9835 99.9835 99.783 99.783 99.783 99.783 99.8253 99.8253 99.8253 99.8253 99.9479 99.9479 99.9479 99.9479 99.987 99.987 99.987 99.987 99.8387 99.8387 99.8387 99.8387 99.7971 99.7971 99.7971 99.7971 99.9866 99.9866 99.9866 99.9866 99.7801 99.7801 99.7801 99.7801 99.8385 99.8385 99.8385 99.8385 98.995 98.995 98.995 98.995 99.8368 99.8368 99.8368 99.8368 99.705 99.705 99.705 99.705 99.8691 99.8691 99.8691 99.8691 99.7191 99.7191 99.7191 99.7191 99.185 99.185 99.185 99.185 99.8191 99.8191 99.8191 99.8191 99.8362 99.8362 99.8362 99.8362 99.4416 99.4416 99.4416 99.4416 99.9282 99.9282 99.9282 99.9282 99.2433 99.2433 99.2433 99.2433 100.013 100.013 100.013 100.013 99.8367 99.8367 99.8367 99.8367 99.8548 99.8548 99.8548 99.8548 99.7418 99.7418 99.7418 99.7418 99.7831 99.7831 99.7831 99.7831 99.964 99.964 99.964 99.964 99.7925 99.7925 99.7925 99.7925 99.9158 99.9158 99.9158 99.9158 99.9997 99.9997 99.9997 99.9997 99.0731 99.0731 99.0731 99.0731 99.6368 99.6368 99.6368 99.6368 99.9866 99.9866 99.9866 99.9866 99.1991 99.1991 99.1991 99.1991 99.9716 99.9716 99.9716 99.9716 99.975 99.975 99.975 99.975 99.1803 99.1803 99.1803 99.1803 99.1976 99.1976 99.1976 99.1976 99.7762 99.7762 99.7762 99.7762 99.7861 99.7861 99.7861 99.7861 99.8364 99.8364 99.8364 99.8364 99.9789 99.9789 99.9789 99.9789 99.9517 99.9517 99.9517 99.9517 99.4304 99.4304 99.4304 99.4304 99.8009 99.8009 99.8009 99.8009 99.9775 99.9775 99.9775 99.9775 99.9143 99.9143 99.9143 99.9143 99.7434 99.7434 99.7434 99.7434 99.8434 99.8434 99.8434 99.8434 99.0763 99.0763 99.0763 99.0763 100.013 100.013 100.013 100.013 99.6174 99.6174 99.6174 99.6174 99.9743 99.9743 99.9743 99.9743 100.01 100.01 100.01 100.01 99.8818 99.8818 99.8818 99.8818 99.7539 99.7539 99.7539 99.7539 99.999 99.999 99.999 99.999 99.965 99.965 99.965 99.965 99.2532 99.2532 99.2532 99.2532 99.9309 99.9309 99.9309 99.9309 100.004 100.004 100.004 100.004 98.937 98.937 98.937 98.937 99.6102 99.6102 99.6102 99.6102 99.0071 99.0071 99.0071 99.0071 99.853 99.853 99.853 99.853 99.2291 99.2291 99.2291 99.2291 98.9216 98.9216 98.9216 98.9216 99.8099 99.8099 99.8099 99.8099 99.8288 99.8288 99.8288 99.8288 99.9892 99.9892 99.9892 99.9892 98.7481 98.7481 98.7481 98.7481 99.9703 99.9703 99.9703 99.9703 99.7994 99.7994 99.7994 99.7994 99.2385 99.2385 99.2385 99.2385 99.6289 99.6289 99.6289 99.6289 99.6214 99.6214 99.6214 99.6214 99.1584 99.1584 99.1584 99.1584 99.6008 99.6008 99.6008 99.6008 99.7826 99.7826 99.7826 99.7826 99.691 99.691 99.691 99.691 99.7019 99.7019 99.7019 99.7019 99.277 99.277 99.277 99.277 98.9184 98.9184 98.9184 98.9184 100 100 100 100 98.7511 98.7511 98.7511 98.7511 98.7016 98.7016 98.7016 98.7016 99.8385 99.8385 99.8385 99.8385 100.001 100.001 100.001 100.001 99.7812 99.7812 99.7812 99.7812 99.9335 99.9335 99.9335 99.9335 98.9915 98.9915 98.9915 98.9915 98.8898 98.8898 98.8898 98.8898 99.1579 99.1579 99.1579 99.1579 99.7566 99.7566 99.7566 99.7566 99.849 99.849 99.849 99.849 99.7409 99.7409 99.7409 99.7409 99.9346 99.9346 99.9346 99.9346 99.7913 99.7913 99.7913 99.7913 99.7794 99.7794 99.7794 99.7794 99.9711 99.9711 99.9711 99.9711 99.8746 99.8746 99.8746 99.8746 99.2644 99.2644 99.2644 99.2644 100.004 100.004 100.004 100.004 99.6513 99.6513 99.6513 99.6513 99.0213 99.0213 99.0213 99.0213 99.8446 99.8446 99.8446 99.8446 99.8703 99.8703 99.8703 99.8703 99.8538 99.8538 99.8538 99.8538 99.0751 99.0751 99.0751 99.0751 99.5858 99.5858 99.5858 99.5858 98.9534 98.9534 98.9534 98.9534 99.9529 99.9529 99.9529 99.9529 99.9784 99.9784 99.9784 99.9784 99.8682 99.8682 99.8682 99.8682 99.023 99.023 99.023 99.023 99.7556 99.7556 99.7556 99.7556 99.9563 99.9563 99.9563 99.9563 99.0119 99.0119 99.0119 99.0119 99.8559 99.8559 99.8559 99.8559 99.8941 99.8941 99.8941 99.8941 98.9039 98.9039 98.9039 98.9039 99.0145 99.0145 99.0145 99.0145 99.0926 99.0926 99.0926 99.0926 99.7965 99.7965 99.7965 99.7965 98.9629 98.9629 98.9629 98.9629 99.8303 99.8303 99.8303 99.8303 99.01 99.01 99.01 99.01 99.9886 99.9886 99.9886 99.9886 99.9537 99.9537 99.9537 99.9537 98.9294 98.9294 98.9294 98.9294 99.9762 99.9762 99.9762 99.9762 99.9875 99.9875 99.9875 99.9875 99.7622 99.7622 99.7622 99.7622 99.9869 99.9869 99.9869 99.9869 98.9577 98.9577 98.9577 98.9577 99.1186 99.1186 99.1186 99.1186 99.9864 99.9864 99.9864 99.9864 99.942 99.942 99.942 99.942 99.8439 99.8439 99.8439 99.8439 99.9248 99.9248 99.9248 99.9248 98.8848 98.8848 98.8848 98.8848 99.2945 99.2945 99.2945 99.2945 98.9496 98.9496 98.9496 98.9496 99.8249 99.8249 99.8249 99.8249 99.7645 99.7645 99.7645 99.7645 99.9625 99.9625 99.9625 99.9625 99.787 99.787 99.787 99.787 99.1263 99.1263 99.1263 99.1263 99.9792 99.9792 99.9792 99.9792 99.024 99.024 99.024 99.024 99.1776 99.1776 99.1776 99.1776 98.8954 98.8954 98.8954 98.8954 99.0087 99.0087 99.0087 99.0087 99.9851 99.9851 99.9851 99.9851 99.7376 99.7376 99.7376 99.7376 99.9697 99.9697 99.9697 99.9697 99.9705 99.9705 99.9705 99.9705 100.01 100.01 100.01 100.01 99.9141 99.9141 99.9141 99.9141 99.9661 99.9661 99.9661 99.9661 99.195 99.195 99.195 99.195 98.8787 98.8787 98.8787 98.8787 99.7728 99.7728 99.7728 99.7728 99.7412 99.7412 99.7412 99.7412 98.931 98.931 98.931 98.931 98.9478 98.9478 98.9478 98.9478 99.0744 99.0744 99.0744 99.0744 99.7896 99.7896 99.7896 99.7896 99.7798 99.7798 99.7798 99.7798 98.8759 98.8759 98.8759 98.8759 99.9713 99.9713 99.9713 99.9713 99.7365 99.7365 99.7365 99.7365 98.8076 98.8076 98.8076 98.8076 99.1387 99.1387 99.1387 99.1387 98.9362 98.9362 98.9362 98.9362 99.9254 99.9254 99.9254 99.9254 99.2344 99.2344 99.2344 99.2344 99.0418 99.0418 99.0418 99.0418 98.8478 98.8478 98.8478 98.8478 99.7873 99.7873 99.7873 99.7873 99.2708 99.2708 99.2708 99.2708 99.239 99.239 99.239 99.239 99.2232 99.2232 99.2232 99.2232 99.0872 99.0872 99.0872 99.0872 99.9977 99.9977 99.9977 99.9977 98.0706 98.0706 98.0706 98.0706 98.9338 98.9338 98.9338 98.9338 98.8965 98.8965 98.8965 98.8965 98.7876 98.7876 98.7876 98.7876 100.014 100.014 100.014 100.014 100.017 100.017 100.017 100.017 98.9799 98.9799 98.9799 98.9799 98.0887 98.0887 98.0887 98.0887 99.7264 99.7264 99.7264 99.7264 99.1142 99.1142 99.1142 99.1142 99.7366 99.7366 99.7366 99.7366 100.009 100.009 100.009 100.009 99.1063 99.1063 99.1063 99.1063 98.6986 98.6986 98.6986 98.6986 100.004 100.004 100.004 100.004 99.7569 99.7569 99.7569 99.7569 99.2118 99.2118 99.2118 99.2118 99.8057 99.8057 99.8057 99.8057 98.9554 98.9554 98.9554 98.9554 98.9875 98.9875 98.9875 98.9875 98.7392 98.7392 98.7392 98.7392 100.019 100.019 100.019 100.019 99.3561 99.3561 99.3561 99.3561 99.7689 99.7689 99.7689 99.7689 98.8462 98.8462 98.8462 98.8462 99.2613 99.2613 99.2613 99.2613 100.023 100.023 100.023 100.023 99.0388 99.0388 99.0388 99.0388 100.015 100.015 100.015 100.015 100.01 100.01 100.01 100.01 99.909 99.909 99.909 99.909 99.2235 99.2235 99.2235 99.2235 99.0411 99.0411 99.0411 99.0411 99.9747 99.9747 99.9747 99.9747 99.368 99.368 99.368 99.368 98.7133 98.7133 98.7133 98.7133 99.0755 99.0755 99.0755 99.0755 98.5263 98.5263 98.5263 98.5263 99.8966 99.8966 99.8966 99.8966 98.9483 98.9483 98.9483 98.9483 98.7848 98.7848 98.7848 98.7848 98.556 98.556 98.556 98.556 98.1201 98.1201 98.1201 98.1201 99.9521 99.9521 99.9521 99.9521 98.888 98.888 98.888 98.888 98.6699 98.6699 98.6699 98.6699 99.9124 99.9124 99.9124 99.9124 98.8046 98.8046 98.8046 98.8046 98.6138 98.6138 98.6138 98.6138 100.008 100.008 100.008 100.008 99.9956 99.9956 99.9956 99.9956 99.3125 99.3125 99.3125 99.3125 100.008 100.008 100.008 100.008 99.9528 99.9528 99.9528 99.9528 98.844 98.844 98.844 98.844 98.979 98.979 98.979 98.979 99.119 99.119 99.119 99.119 100.026 100.026 100.026 100.026 100.014 100.014 100.014 100.014 99.9906 99.9906 99.9906 99.9906 99.0938 99.0938 99.0938 99.0938 97.9067 97.9067 97.9067 97.9067 97.8201 97.8201 97.8201 97.8201 98.9839 98.9839 98.9839 98.9839 98.677 98.677 98.677 98.677 100.003 100.003 100.003 100.003 98.8031 98.8031 98.8031 98.8031 99.2129 99.2129 99.2129 99.2129 99.9272 99.9272 99.9272 99.9272 99.7463 99.7463 99.7463 99.7463 98.8661 98.8661 98.8661 98.8661 98.6296 98.6296 98.6296 98.6296 99.2064 99.2064 99.2064 99.2064 98.5767 98.5767 98.5767 98.5767 98.0957 98.0957 98.0957 98.0957 98.6007 98.6007 98.6007 98.6007 99.9689 99.9689 99.9689 99.9689 98.8098 98.8098 98.8098 98.8098 98.7681 98.7681 98.7681 98.7681 100.005 100.005 100.005 100.005 98.8784 98.8784 98.8784 98.8784 99.2581 99.2581 99.2581 99.2581 99.8972 99.8972 99.8972 99.8972 98.9889 98.9889 98.9889 98.9889 100.007 100.007 100.007 100.007 98.9844 98.9844 98.9844 98.9844 100.035 100.035 100.035 100.035 99.9386 99.9386 99.9386 99.9386 98.9811 98.9811 98.9811 98.9811 99.991 99.991 99.991 99.991 99.28 99.28 99.28 99.28 100.012 100.012 100.012 100.012 100.013 100.013 100.013 100.013 98.8114 98.8114 98.8114 98.8114 99.9292 99.9292 99.9292 99.9292 98.082 98.082 98.082 98.082 100.015 100.015 100.015 100.015 98.7852 98.7852 98.7852 98.7852 100.01 100.01 100.01 100.01 100.015 100.015 100.015 100.015 99.9398 99.9398 99.9398 99.9398 97.9222 97.9222 97.9222 97.9222 99.9272 99.9272 99.9272 99.9272 97.8302 97.8302 97.8302 97.8302 100.003 100.003 100.003 100.003 99.948 99.948 99.948 99.948 100.003 100.003 100.003 100.003 99.9894 99.9894 99.9894 99.9894 100.015 100.015 100.015 100.015 99.9177 99.9177 99.9177 99.9177 99.9237 99.9237 99.9237 99.9237 99.9192 99.9192 99.9192 99.9192 99.9476 99.9476 99.9476 99.9476 99.8873 99.8873 99.8873 99.8873 99.9114 99.9114 99.9114 99.9114 99.9194 99.9194 99.9194 99.9194 99.9259 99.9259 99.9259 99.9259 99.9248 99.9248 99.9248 99.9248 99.9008 99.9008 99.9008 99.9008 98.7762 98.7762 98.7762 98.7762 99.8981 99.8981 99.8981 99.8981 98.8262 98.8262 98.8262 98.8262 99.8852 99.8852 99.8852 99.8852 99.8983 99.8983 99.8983 99.8983 99.9151 99.9151 99.9151 99.9151 100.019 100.019 100.019 100.019 99.8978 99.8978 99.8978 99.8978 99.9283 99.9283 99.9283 99.9283 99.9487 99.9487 99.9487 99.9487 99.9006 99.9006 99.9006 99.9006 100.015 100.015 100.015 100.015 99.2577 99.2577 99.2577 99.2577 99.917 99.917 99.917 99.917 99.9854 99.9854 99.9854 99.9854 99.9005 99.9005 99.9005 99.9005 97.9173 97.9173 97.9173 97.9173 99.9321 99.9321 99.9321 99.9321 99.8746 99.8746 99.8746 99.8746 99.9254 99.9254 99.9254 99.9254 99.935 99.935 99.935 99.935 98.0983 98.0983 98.0983 98.0983 99.9293 99.9293 99.9293 99.9293 98.7873 98.7873 98.7873 98.7873 99.9325 99.9325 99.9325 99.9325 99.938 99.938 99.938 99.938 98.3542 98.3542 98.3542 98.3542 100.013 100.013 100.013 100.013 97.8394 97.8394 97.8394 97.8394 98.2818 98.2818 98.2818 98.2818 99.0413 99.0413 99.0413 99.0413 99.9527 99.9527 99.9527 99.9527 99.9486 99.9486 99.9486 99.9486 99.8705 99.8705 99.8705 99.8705 99.0603 99.0603 99.0603 99.0603 100.008 100.008 100.008 100.008 99.9305 99.9305 99.9305 99.9305 99.9517 99.9517 99.9517 99.9517 99.1741 99.1741 99.1741 99.1741 99.0739 99.0739 99.0739 99.0739 98.77 98.77 98.77 98.77 99.9402 99.9402 99.9402 99.9402 98.8464 98.8464 98.8464 98.8464 98.2296 98.2296 98.2296 98.2296 99.2008 99.2008 99.2008 99.2008 99.0771 99.0771 99.0771 99.0771 99.1264 99.1264 99.1264 99.1264 99.0662 99.0662 99.0662 99.0662 99.947 99.947 99.947 99.947 98.2183 98.2183 98.2183 98.2183 99.3016 99.3016 99.3016 99.3016 98.8845 98.8845 98.8845 98.8845 99.381 99.381 99.381 99.381 100.007 100.007 100.007 100.007 100.015 100.015 100.015 100.015 98.3035 98.3035 98.3035 98.3035 99.3254 99.3254 99.3254 99.3254 98.8316 98.8316 98.8316 98.8316 98.8085 98.8085 98.8085 98.8085 98.6517 98.6517 98.6517 98.6517 100.025 100.025 100.025 100.025 99.2776 99.2776 99.2776 99.2776 99.4773 99.4773 99.4773 99.4773 99.9521 99.9521 99.9521 99.9521 99.3321 99.3321 99.3321 99.3321 99.2632 99.2632 99.2632 99.2632 99.2375 99.2375 99.2375 99.2375 98.5461 98.5461 98.5461 98.5461 98.7312 98.7312 98.7312 98.7312 98.998 98.998 98.998 98.998 98.9133 98.9133 98.9133 98.9133 98.8125 98.8125 98.8125 98.8125 99.3037 99.3037 99.3037 99.3037 99.302 99.302 99.302 99.302 98.7378 98.7378 98.7378 98.7378 98.5336 98.5336 98.5336 98.5336 99.9102 99.9102 99.9102 99.9102 99.2521 99.2521 99.2521 99.2521 98.0812 98.0812 98.0812 98.0812 99.1759 99.1759 99.1759 99.1759 98.027 98.027 98.027 98.027 98.8311 98.8311 98.8311 98.8311 98.9873 98.9873 98.9873 98.9873 99.2537 99.2537 99.2537 99.2537 100.011 100.011 100.011 100.011 99.3726 99.3726 99.3726 99.3726 99.1842 99.1842 99.1842 99.1842 99.3941 99.3941 99.3941 99.3941 98.6656 98.6656 98.6656 98.6656 98.4918 98.4918 98.4918 98.4918 98.1596 98.1596 98.1596 98.1596 98.7932 98.7932 98.7932 98.7932 98.363 98.363 98.363 98.363 98.4467 98.4467 98.4467 98.4467 99.9487 99.9487 99.9487 99.9487 98.5444 98.5444 98.5444 98.5444 99.4018 99.4018 99.4018 99.4018 99.0186 99.0186 99.0186 99.0186 98.695 98.695 98.695 98.695 98.6596 98.6596 98.6596 98.6596 99.1459 99.1459 99.1459 99.1459 98.5524 98.5524 98.5524 98.5524 99.1348 99.1348 99.1348 99.1348 98.6057 98.6057 98.6057 98.6057 98.657 98.657 98.657 98.657 99.2854 99.2854 99.2854 99.2854 98.562 98.562 98.562 98.562 99.9929 99.9929 99.9929 99.9929 99.9484 99.9484 99.9484 99.9484 99.991 99.991 99.991 99.991 99.9259 99.9259 99.9259 99.9259 99.8577 99.8577 99.8577 99.8577 99.8883 99.8883 99.8883 99.8883 100.003 100.003 100.003 100.003 99.9227 99.9227 99.9227 99.9227 99.9883 99.9883 99.9883 99.9883 100.022 100.022 100.022 100.022 100.018 100.018 100.018 100.018 99.9801 99.9801 99.9801 99.9801 99.8073 99.8073 99.8073 99.8073 99.7939 99.7939 99.7939 99.7939 99.8954 99.8954 99.8954 99.8954 100.007 100.007 100.007 100.007 99.9434 99.9434 99.9434 99.9434 99.8803 99.8803 99.8803 99.8803 100.011 100.011 100.011 100.011 99.9885 99.9885 99.9885 99.9885 100.008 100.008 100.008 100.008 99.99 99.99 99.99 99.99 99.7988 99.7988 99.7988 99.7988 99.7972 99.7972 99.7972 99.7972 99.8344 99.8344 99.8344 99.8344 99.9343 99.9343 99.9343 99.9343 99.9693 99.9693 99.9693 99.9693 100.007 100.007 100.007 100.007 99.9899 99.9899 99.9899 99.9899 99.9683 99.9683 99.9683 99.9683 99.9863 99.9863 99.9863 99.9863 99.9607 99.9607 99.9607 99.9607 99.8366 99.8366 99.8366 99.8366 99.8789 99.8789 99.8789 99.8789 99.8497 99.8497 99.8497 99.8497 99.6115 99.6115 99.6115 99.6115 99.879 99.879 99.879 99.879 99.9773 99.9773 99.9773 99.9773 100.03 100.03 100.03 100.03 99.8355 99.8355 99.8355 99.8355 99.7912 99.7912 99.7912 99.7912 98.6328 98.6328 98.6328 98.6328 98.7351 98.7351 98.7351 98.7351 99.9085 99.9085 99.9085 99.9085 99.7479 99.7479 99.7479 99.7479 99.9641 99.9641 99.9641 99.9641 99.7492 99.7492 99.7492 99.7492 99.894 99.894 99.894 99.894 99.961 99.961 99.961 99.961 99.7762 99.7762 99.7762 99.7762 99.7874 99.7874 99.7874 99.7874 99.9311 99.9311 99.9311 99.9311 99.8456 99.8456 99.8456 99.8456 99.9049 99.9049 99.9049 99.9049 99.8282 99.8282 99.8282 99.8282 99.9832 99.9832 99.9832 99.9832 100.004 100.004 100.004 100.004 99.7238 99.7238 99.7238 99.7238 99.6266 99.6266 99.6266 99.6266 99.9273 99.9273 99.9273 99.9273 99.9734 99.9734 99.9734 99.9734 
VECTORS Strain float 
6.36067e-05 9.28094e-05 1.0005 
6.36067e-05 9.28094e-05 1.0005 
6.36067e-05 9.28094e-05 1.0005 
6.36067e-05 9.28094e-05 1.0005 
-1.52539e-05 2.75743e-05 1.00048 
-1.52539e-05 2.75743e-05 1.00048 
-1.52539e-05 2.75743e-05 1.00048 
-1.52539e-05 2.75743e-05 1.00048 
1.00724e-05 0.000122087 1.00044 
1.00724e-05 0.000122087 1.00044 
1.00724e-05 0.000122087 1.00044 
1.00724e-05 0.000122087 1.00044 
-4.08178e-05 4.56356e-05 1.0004 
-4.08178e-05 4.56356e-05 1.0004 
-4.08178e-05 4.56356e-05 1.0004 
-4.08178e-05 4.56356e-05 1.0004 
-4.6406e-05 5.55744e-05 1.0004 
-4.6406e-05 5.55744e-05 1.0004 
-4.6406e-05 5.55744e-05 1.0004 
-4.6406e-05 5.55744e-05 1.0004 
8.27439e-05 0.000105829 1.00049 
8.27439e-05 0.000105829 1.00049 
8.27439e-05 0.000105829 1.00049 
8.27439e-05 0.000105829 1.00049 
0.000127995 5.1211e-05 1.00022 
0.000127995 5.1211e-05 1.00022 
0.000127995 5.1211e-05 1.00022 
0.000127995 5.1211e-05 1.00022 
6.0515e-05 5.07463e-05 1.00044 
6.0515e-05 5.07463e-05 1.00044 
6.0515e-05 5.07463e-05 1.00044 
6.0515e-05 5.07463e-05 1.00044 
-4.74418e-05 5.44434e-05 1.00047 
-4.74418e-05 5.44434e-05 1.00047 
-4.74418e-05 5.44434e-05 1.00047 
-4.74418e-05 5.44434e-05 1.00047 
5.35751e-05 1.95363e-05 1.00044 
5.35751e-05 1.95363e-05 1.00044 
5.35751e-05 1.95363e-05 1.00044 
5.35751e-05 1.95363e-05 1.00044 
1.03427e-05 -3.1133e-05 1.00036 
1.03427e-05 -3.1133e-05 1.00036 
1.03427e-05 -3.1133e-05 1.00036 
1.03427e-05 -3.1133e-05 1.00036 
5.77196e-05 0.000111962 1.0005 
5.77196e-05 0.000111962 1.0005 
5.77196e-05 0.000111962 1.0005 
5.77196e-05 0.000111962 1.0005 
6.15225e-06 -7.00158e-05 1.00017 
6.15225e-06 -7.00158e-05 1.00017 
6.15225e-06 -7.00158e-05 1.00017 
6.15225e-06 -7.00158e-05 1.00017 
-3.4393e-05 6.54754e-05 1.00059 
-3.4393e-05 6.54754e-05 1.00059 
-3.4393e-05 6.54754e-05 1.00059 
-3.4393e-05 6.54754e-05 1.00059 
9.86728e-05 -4.58037e-05 1.00013 
9.86728e-05 -4.58037e-05 1.00013 
9.86728e-05 -4.58037e-05 1.00013 
9.86728e-05 -4.58037e-05 1.00013 
3.58337e-06 -6.90956e-05 1.00017 
3.58337e-06 -6.90956e-05 1.00017 
3.58337e-06 -6.90956e-05 1.00017 
3.58337e-06 -6.90956e-05 1.00017 
6.83495e-05 -2.20644e-05 1.00046 
6.83495e-05 -2.20644e-05 1.00046 
6.83495e-05 -2.20644e-05 1.00046 
6.83495e-05 -2.20644e-05 1.00046 
-6.50515e-05 -2.43097e-05 1.00028 
-6.50515e-05 -2.43097e-05 1.00028 
-6.50515e-05 -2.43097e-05 1.00028 
-6.50515e-05 -2.43097e-05 1.00028 
0.000165833 -2.05334e-06 1.00037 
0.000165833 -2.05334e-06 1.00037 
0.000165833 -2.05334e-06 1.00037 
0.000165833 -2.05334e-06 1.00037 
-6.86483e-05 7.36341e-05 1.00015 
-6.86483e-05 7.36341e-05 1.00015 
-6.86483e-05 7.36341e-05 1.00015 
-6.86483e-05 7.36341e-05 1.00015 
-9.01983e-05 6.07622e-05 1.00045 
-9.01983e-05 6.07622e-05 1.00045 
-9.01983e-05 6.07622e-05 1.00045 
-9.01983e-05 6.07622e-05 1.00045 
-0.000135262 -0.000126681 1.00043 
-0.000135262 -0.000126681 1.00043 
-0.000135262 -0.000126681 1.00043 
-0.000135262 -0.000126681 1.00043 
-2.14929e-05 0.000136944 1.00038 
-2.14929e-05 0.000136944 1.00038 
-2.14929e-05 0.000136944 1.00038 
-2.14929e-05 0.000136944 1.00038 
6.48282e-05 5.92885e-05 1.00053 
6.48282e-05 5.92885e-05 1.00053 
6.48282e-05 5.92885e-05 1.00053 
6.48282e-05 5.92885e-05 1.00053 
0.000489351 1.13432e-05 0.998866 
0.000489351 1.13432e-05 0.998866 
0.000489351 1.13432e-05 0.998866 
0.000489351 1.13432e-05 0.998866 
0.000127658 -1.17138e-05 1.0003 
0.000127658 -1.17138e-05 1.0003 
0.000127658 -1.17138e-05 1.0003 
0.000127658 -1.17138e-05 1.0003 
2.34356e-05 -7.33903e-05 1.00019 
2.34356e-05 -7.33903e-05 1.00019 
2.34356e-05 -7.33903e-05 1.00019 
2.34356e-05 -7.33903e-05 1.00019 
-5.97796e-05 4.06961e-05 1.0004 
-5.97796e-05 4.06961e-05 1.0004 
-5.97796e-05 4.06961e-05 1.0004 
-5.97796e-05 4.06961e-05 1.0004 
1.73325e-05 9.83099e-05 1.00044 
1.73325e-05 9.83099e-05 1.00044 
1.73325e-05 9.83099e-05 1.00044 
1.73325e-05 9.83099e-05 1.00044 
5.71952e-05 -8.95863e-05 1.00013 
5.71952e-05 -8.95863e-05 1.00013 
5.71952e-05 -8.95863e-05 1.00013 
5.71952e-05 -8.95863e-05 1.00013 
0.000122548 0.000147079 1.00038 
0.000122548 0.000147079 1.00038 
0.000122548 0.000147079 1.00038 
0.000122548 0.000147079 1.00038 
-0.000338976 0.000182665 0.999545 
-0.000338976 0.000182665 0.999545 
-0.000338976 0.000182665 0.999545 
-0.000338976 0.000182665 0.999545 
3.69237e-05 -0.000115248 1.0004 
3.69237e-05 -0.000115248 1.0004 
3.69237e-05 -0.000115248 1.0004 
3.69237e-05 -0.000115248 1.0004 
-6.08617e-06 4.69016e-05 1.00028 
-6.08617e-06 4.69016e-05 1.00028 
-6.08617e-06 4.69016e-05 1.00028 
-6.08617e-06 4.69016e-05 1.00028 
-9.02271e-05 6.68129e-06 1.00017 
-9.02271e-05 6.68129e-06 1.00017 
-9.02271e-05 6.68129e-06 1.00017 
-9.02271e-05 6.68129e-06 1.00017 
7.22912e-06 -9.51034e-05 1.00037 
7.22912e-06 -9.51034e-05 1.00037 
7.22912e-06 -9.51034e-05 1.00037 
7.22912e-06 -9.51034e-05 1.00037 
0.000128022 8.87106e-06 0.999739 
0.000128022 8.87106e-06 0.999739 
0.000128022 8.87106e-06 0.999739 
0.000128022 8.87106e-06 0.999739 
-0.000165631 -2.06256e-05 1.00023 
-0.000165631 -2.06256e-05 1.00023 
-0.000165631 -2.06256e-05 1.00023 
-0.000165631 -2.06256e-05 1.00023 
-8.58797e-05 5.56613e-05 1.00052 
-8.58797e-05 5.56613e-05 1.00052 
-8.58797e-05 5.56613e-05 1.00052 
-8.58797e-05 5.56613e-05 1.00052 
-1.99827e-05 8.29655e-05 1.00059 
-1.99827e-05 8.29655e-05 1.00059 
-1.99827e-05 8.29655e-05 1.00059 
-1.99827e-05 8.29655e-05 1.00059 
-4.64785e-05 -5.0056e-05 1.0004 
-4.64785e-05 -5.0056e-05 1.0004 
-4.64785e-05 -5.0056e-05 1.0004 
-4.64785e-05 -5.0056e-05 1.0004 
1.60263e-05 -0.000942002 0.998787 
1.60263e-05 -0.000942002 0.998787 
1.60263e-05 -0.000942002 0.998787 
1.60263e-05 -0.000942002 0.998787 
7.17024e-05 3.4983e-05 1.00028 
7.17024e-05 3.4983e-05 1.00028 
7.17024e-05 3.4983e-05 1.00028 
7.17024e-05 3.4983e-05 1.00028 
-7.24594e-05 3.43435e-05 1.0005 
-7.24594e-05 3.43435e-05 1.0005 
-7.24594e-05 3.43435e-05 1.0005 
-7.24594e-05 3.43435e-05 1.0005 
6.92842e-05 -4.1982e-05 1.00049 
6.92842e-05 -4.1982e-05 1.00049 
6.92842e-05 -4.1982e-05 1.00049 
6.92842e-05 -4.1982e-05 1.00049 
-0.000105026 -2.81512e-05 1.00036 
-0.000105026 -2.81512e-05 1.00036 
-0.000105026 -2.81512e-05 1.00036 
-0.000105026 -2.81512e-05 1.00036 
0.00020109 -0.000159773 1.00006 
0.00020109 -0.000159773 1.00006 
0.00020109 -0.000159773 1.00006 
0.00020109 -0.000159773 1.00006 
-4.21625e-05 5.48371e-05 1.00044 
-4.21625e-05 5.48371e-05 1.00044 
-4.21625e-05 5.48371e-05 1.00044 
-4.21625e-05 5.48371e-05 1.00044 
-0.00015534 -2.59018e-05 1.0005 
-0.00015534 -2.59018e-05 1.0005 
-0.00015534 -2.59018e-05 1.0005 
-0.00015534 -2.59018e-05 1.0005 
-8.97338e-06 3.06176e-06 1.00017 
-8.97338e-06 3.06176e-06 1.00017 
-8.97338e-06 3.06176e-06 1.00017 
-8.97338e-06 3.06176e-06 1.00017 
2.46918e-05 -1.0388e-05 1.00044 
2.46918e-05 -1.0388e-05 1.00044 
2.46918e-05 -1.0388e-05 1.00044 
2.46918e-05 -1.0388e-05 1.00044 
1.32075e-05 -8.91884e-05 1.00019 
1.32075e-05 -8.91884e-05 1.00019 
1.32075e-05 -8.91884e-05 1.00019 
1.32075e-05 -8.91884e-05 1.00019 
1.63618e-05 6.90466e-05 1.00044 
1.63618e-05 6.90466e-05 1.00044 
1.63618e-05 6.90466e-05 1.00044 
1.63618e-05 6.90466e-05 1.00044 
3.78431e-05 -1.86195e-06 1.00017 
3.78431e-05 -1.86195e-06 1.00017 
3.78431e-05 -1.86195e-06 1.00017 
3.78431e-05 -1.86195e-06 1.00017 
7.02583e-05 -2.82376e-05 1.00046 
7.02583e-05 -2.82376e-05 1.00046 
7.02583e-05 -2.82376e-05 1.00046 
7.02583e-05 -2.82376e-05 1.00046 
0.000115498 -5.24051e-05 1.0005 
0.000115498 -5.24051e-05 1.0005 
0.000115498 -5.24051e-05 1.0005 
0.000115498 -5.24051e-05 1.0005 
5.79899e-05 3.76509e-05 1.00044 
5.79899e-05 3.76509e-05 1.00044 
5.79899e-05 3.76509e-05 1.00044 
5.79899e-05 3.76509e-05 1.00044 
1.51476e-05 -5.24008e-05 1.00017 
1.51476e-05 -5.24008e-05 1.00017 
1.51476e-05 -5.24008e-05 1.00017 
1.51476e-05 -5.24008e-05 1.00017 
2.23136e-05 4.2675e-05 1.00006 
2.23136e-05 4.2675e-05 1.00006 
2.23136e-05 4.2675e-05 1.00006 
2.23136e-05 4.2675e-05 1.00006 
5.86056e-05 0.000253437 1.00022 
5.86056e-05 0.000253437 1.00022 
5.86056e-05 0.000253437 1.00022 
5.86056e-05 0.000253437 1.00022 
8.32199e-05 -1.66491e-06 1.00046 
8.32199e-05 -1.66491e-06 1.00046 
8.32199e-05 -1.66491e-06 1.00046 
8.32199e-05 -1.66491e-06 1.00046 
1.60589e-05 -3.18881e-05 1.00018 
1.60589e-05 -3.18881e-05 1.00018 
1.60589e-05 -3.18881e-05 1.00018 
1.60589e-05 -3.18881e-05 1.00018 
9.70224e-05 -0.0001808 1.00033 
9.70224e-05 -0.0001808 1.00033 
9.70224e-05 -0.0001808 1.00033 
9.70224e-05 -0.0001808 1.00033 
-9.24599e-05 -1.97123e-05 1.0005 
-9.24599e-05 -1.97123e-05 1.0005 
-9.24599e-05 -1.97123e-05 1.0005 
-9.24599e-05 -1.97123e-05 1.0005 
-2.76973e-05 0.000135612 1.00053 
-2.76973e-05 0.000135612 1.00053 
-2.76973e-05 0.000135612 1.00053 
-2.76973e-05 0.000135612 1.00053 
-4.39743e-05 5.73233e-05 1.00047 
-4.39743e-05 5.73233e-05 1.00047 
-4.39743e-05 5.73233e-05 1.00047 
-4.39743e-05 5.73233e-05 1.00047 
-4.4196e-06 -5.22208e-05 1.00017 
-4.4196e-06 -5.22208e-05 1.00017 
-4.4196e-06 -5.22208e-05 1.00017 
-4.4196e-06 -5.22208e-05 1.00017 
-4.24256e-05 5.16497e-05 1.00022 
-4.24256e-05 5.16497e-05 1.00022 
-4.24256e-05 5.16497e-05 1.00022 
-4.24256e-05 5.16497e-05 1.00022 
-0.000122915 -3.98688e-05 1.0003 
-0.000122915 -3.98688e-05 1.0003 
-0.000122915 -3.98688e-05 1.0003 
-0.000122915 -3.98688e-05 1.0003 
-4.52803e-06 -2.54757e-05 1.00011 
-4.52803e-06 -2.54757e-05 1.00011 
-4.52803e-06 -2.54757e-05 1.00011 
-4.52803e-06 -2.54757e-05 1.00011 
-7.12079e-05 2.07378e-05 1.00041 
-7.12079e-05 2.07378e-05 1.00041 
-7.12079e-05 2.07378e-05 1.00041 
-7.12079e-05 2.07378e-05 1.00041 
-0.000109961 9.90762e-05 1.00038 
-0.000109961 9.90762e-05 1.00038 
-0.000109961 9.90762e-05 1.00038 
-0.000109961 9.90762e-05 1.00038 
3.7737e-05 -5.88337e-05 1.00041 
3.7737e-05 -5.88337e-05 1.00041 
3.7737e-05 -5.88337e-05 1.00041 
3.7737e-05 -5.88337e-05 1.00041 
0.000100211 5.54775e-05 1.00046 
0.000100211 5.54775e-05 1.00046 
0.000100211 5.54775e-05 1.00046 
0.000100211 5.54775e-05 1.00046 
-2.65845e-06 -0.000355002 0.999829 
-2.65845e-06 -0.000355002 0.999829 
-2.65845e-06 -0.000355002 0.999829 
-2.65845e-06 -0.000355002 0.999829 
3.96622e-05 -9.35701e-05 1.00019 
3.96622e-05 -9.35701e-05 1.00019 
3.96622e-05 -9.35701e-05 1.00019 
3.96622e-05 -9.35701e-05 1.00019 
-9.83826e-06 1.30664e-06 0.999739 
-9.83826e-06 1.30664e-06 0.999739 
-9.83826e-06 1.30664e-06 0.999739 
-9.83826e-06 1.30664e-06 0.999739 
0.000240215 4.96503e-05 0.999634 
0.000240215 4.96503e-05 0.999634 
0.000240215 4.96503e-05 0.999634 
0.000240215 4.96503e-05 0.999634 
-4.12161e-05 -3.28182e-05 1.00052 
-4.12161e-05 -3.28182e-05 1.00052 
-4.12161e-05 -3.28182e-05 1.00052 
-4.12161e-05 -3.28182e-05 1.00052 
-5.86313e-05 8.74604e-05 1.00043 
-5.86313e-05 8.74604e-05 1.00043 
-5.86313e-05 8.74604e-05 1.00043 
-5.86313e-05 8.74604e-05 1.00043 
3.38005e-05 3.20124e-05 1.00027 
3.38005e-05 3.20124e-05 1.00027 
3.38005e-05 3.20124e-05 1.00027 
3.38005e-05 3.20124e-05 1.00027 
7.5283e-05 5.37829e-05 1.00046 
7.5283e-05 5.37829e-05 1.00046 
7.5283e-05 5.37829e-05 1.00046 
7.5283e-05 5.37829e-05 1.00046 
0.000137841 -4.7595e-05 0.99975 
0.000137841 -4.7595e-05 0.99975 
0.000137841 -4.7595e-05 0.99975 
0.000137841 -4.7595e-05 0.99975 
-8.9965e-05 -7.38718e-05 1.00045 
-8.9965e-05 -7.38718e-05 1.00045 
-8.9965e-05 -7.38718e-05 1.00045 
-8.9965e-05 -7.38718e-05 1.00045 
-7.91479e-05 -7.0008e-05 1.00051 
-7.91479e-05 -7.0008e-05 1.00051 
-7.91479e-05 -7.0008e-05 1.00051 
-7.91479e-05 -7.0008e-05 1.00051 
4.17422e-05 -3.68354e-05 1.00011 
4.17422e-05 -3.68354e-05 1.00011 
4.17422e-05 -3.68354e-05 1.00011 
4.17422e-05 -3.68354e-05 1.00011 
-3.86869e-05 -5.3441e-05 1.00027 
-3.86869e-05 -5.3441e-05 1.00027 
-3.86869e-05 -5.3441e-05 1.00027 
-3.86869e-05 -5.3441e-05 1.00027 
2.90673e-05 4.11023e-05 1.00038 
2.90673e-05 4.11023e-05 1.00038 
2.90673e-05 4.11023e-05 1.00038 
2.90673e-05 4.11023e-05 1.00038 
0.000463928 -2.24517e-05 0.998867 
0.000463928 -2.24517e-05 0.998867 
0.000463928 -2.24517e-05 0.998867 
0.000463928 -2.24517e-05 0.998867 
2.97832e-05 0.000105832 1.00051 
2.97832e-05 0.000105832 1.00051 
2.97832e-05 0.000105832 1.00051 
2.97832e-05 0.000105832 1.00051 
7.90078e-05 4.91264e-06 1.0002 
7.90078e-05 4.91264e-06 1.0002 
7.90078e-05 4.91264e-06 1.0002 
7.90078e-05 4.91264e-06 1.0002 
-0.000108912 -0.000205924 1.00045 
-0.000108912 -0.000205924 1.00045 
-0.000108912 -0.000205924 1.00045 
-0.000108912 -0.000205924 1.00045 
8.02959e-05 -0.000526684 0.999458 
8.02959e-05 -0.000526684 0.999458 
8.02959e-05 -0.000526684 0.999458 
8.02959e-05 -0.000526684 0.999458 
0.000210373 -4.51808e-05 1.00042 
0.000210373 -4.51808e-05 1.00042 
0.000210373 -4.51808e-05 1.00042 
0.000210373 -4.51808e-05 1.00042 
-4.15271e-05 3.31187e-05 1.00048 
-4.15271e-05 3.31187e-05 1.00048 
-4.15271e-05 3.31187e-05 1.00048 
-4.15271e-05 3.31187e-05 1.00048 
0.000143816 0.000342954 0.999182 
0.000143816 0.000342954 0.999182 
0.000143816 0.000342954 0.999182 
0.000143816 0.000342954 0.999182 
8.78134e-05 7.56441e-05 1.00052 
8.78134e-05 7.56441e-05 1.00052 
8.78134e-05 7.56441e-05 1.00052 
8.78134e-05 7.56441e-05 1.00052 
-3.3403e-05 7.49877e-05 1.00055 
-3.3403e-05 7.49877e-05 1.00055 
-3.3403e-05 7.49877e-05 1.00055 
-3.3403e-05 7.49877e-05 1.00055 
-7.18538e-05 3.37819e-05 1.00051 
-7.18538e-05 3.37819e-05 1.00051 
-7.18538e-05 3.37819e-05 1.00051 
-7.18538e-05 3.37819e-05 1.00051 
-4.88256e-05 -2.05634e-05 1.00028 
-4.88256e-05 -2.05634e-05 1.00028 
-4.88256e-05 -2.05634e-05 1.00028 
-4.88256e-05 -2.05634e-05 1.00028 
8.3846e-06 -0.000106673 1.00047 
8.3846e-06 -0.000106673 1.00047 
8.3846e-06 -0.000106673 1.00047 
8.3846e-06 -0.000106673 1.00047 
-6.0682e-05 4.1167e-05 0.999566 
-6.0682e-05 4.1167e-05 0.999566 
-6.0682e-05 4.1167e-05 0.999566 
-6.0682e-05 4.1167e-05 0.999566 
-5.03181e-05 -7.35441e-05 0.999934 
-5.03181e-05 -7.35441e-05 0.999934 
-5.03181e-05 -7.35441e-05 0.999934 
-5.03181e-05 -7.35441e-05 0.999934 
-0.000984677 -0.000358327 0.996208 
-0.000984677 -0.000358327 0.996208 
-0.000984677 -0.000358327 0.996208 
-0.000984677 -0.000358327 0.996208 
-0.000113385 0.000106879 1.00051 
-0.000113385 0.000106879 1.00051 
-0.000113385 0.000106879 1.00051 
-0.000113385 0.000106879 1.00051 
0.000612636 0.000290068 0.998544 
0.000612636 0.000290068 0.998544 
0.000612636 0.000290068 0.998544 
0.000612636 0.000290068 0.998544 
0.000330828 -3.97026e-05 0.99991 
0.000330828 -3.97026e-05 0.99991 
0.000330828 -3.97026e-05 0.99991 
0.000330828 -3.97026e-05 0.99991 
0.000191056 0.000224346 1.00033 
0.000191056 0.000224346 1.00033 
0.000191056 0.000224346 1.00033 
0.000191056 0.000224346 1.00033 
0.000175224 -0.00116204 0.996274 
0.000175224 -0.00116204 0.996274 
0.000175224 -0.00116204 0.996274 
0.000175224 -0.00116204 0.996274 
-9.64212e-05 0.000270123 1.00023 
-9.64212e-05 0.000270123 1.00023 
-9.64212e-05 0.000270123 1.00023 
-9.64212e-05 0.000270123 1.00023 
-0.000191725 2.78901e-05 1.00036 
-0.000191725 2.78901e-05 1.00036 
-0.000191725 2.78901e-05 1.00036 
-0.000191725 2.78901e-05 1.00036 
-8.1058e-05 -0.000376006 1.00005 
-8.1058e-05 -0.000376006 1.00005 
-8.1058e-05 -0.000376006 1.00005 
-8.1058e-05 -0.000376006 1.00005 
2.24965e-05 3.05077e-05 1.00028 
2.24965e-05 3.05077e-05 1.00028 
2.24965e-05 3.05077e-05 1.00028 
2.24965e-05 3.05077e-05 1.00028 
-3.53596e-05 3.9635e-06 1.00019 
-3.53596e-05 3.9635e-06 1.00019 
-3.53596e-05 3.9635e-06 1.00019 
-3.53596e-05 3.9635e-06 1.00019 
0.00056782 -0.000193438 0.998862 
0.00056782 -0.000193438 0.998862 
0.00056782 -0.000193438 0.998862 
0.00056782 -0.000193438 0.998862 
1.03335e-07 5.27298e-05 1.00028 
1.03335e-07 5.27298e-05 1.00028 
1.03335e-07 5.27298e-05 1.00028 
1.03335e-07 5.27298e-05 1.00028 
4.58215e-07 0.000139447 1.00052 
4.58215e-07 0.000139447 1.00052 
4.58215e-07 0.000139447 1.00052 
4.58215e-07 0.000139447 1.00052 
3.35597e-05 -0.000102882 1.0004 
3.35597e-05 -0.000102882 1.0004 
3.35597e-05 -0.000102882 1.0004 
3.35597e-05 -0.000102882 1.0004 
-5.49326e-06 2.97807e-05 1.00053 
-5.49326e-06 2.97807e-05 1.00053 
-5.49326e-06 2.97807e-05 1.00053 
-5.49326e-06 2.97807e-05 1.00053 
4.03318e-06 -0.000113872 1.00048 
4.03318e-06 -0.000113872 1.00048 
4.03318e-06 -0.000113872 1.00048 
4.03318e-06 -0.000113872 1.00048 
-0.000301482 6.92683e-05 1.00024 
-0.000301482 6.92683e-05 1.00024 
-0.000301482 6.92683e-05 1.00024 
-0.000301482 6.92683e-05 1.00024 
-0.00013256 -7.56934e-06 1.00046 
-0.00013256 -7.56934e-06 1.00046 
-0.00013256 -7.56934e-06 1.00046 
-0.00013256 -7.56934e-06 1.00046 
0.000120248 -4.79201e-05 1.00045 
0.000120248 -4.79201e-05 1.00045 
0.000120248 -4.79201e-05 1.00045 
0.000120248 -4.79201e-05 1.00045 
-0.000176605 2.77709e-05 1.0004 
-0.000176605 2.77709e-05 1.0004 
-0.000176605 2.77709e-05 1.0004 
-0.000176605 2.77709e-05 1.0004 
8.94971e-05 4.45079e-05 1.00045 
8.94971e-05 4.45079e-05 1.00045 
8.94971e-05 4.45079e-05 1.00045 
8.94971e-05 4.45079e-05 1.00045 
0.000119223 8.28709e-06 1.00041 
0.000119223 8.28709e-06 1.00041 
0.000119223 8.28709e-06 1.00041 
0.000119223 8.28709e-06 1.00041 
0.000195868 -0.00123732 0.996188 
0.000195868 -0.00123732 0.996188 
0.000195868 -0.00123732 0.996188 
0.000195868 -0.00123732 0.996188 
-6.9692e-05 3.33855e-05 1.00055 
-6.9692e-05 3.33855e-05 1.00055 
-6.9692e-05 3.33855e-05 1.00055 
-6.9692e-05 3.33855e-05 1.00055 
0.000547438 0.000331574 0.999038 
0.000547438 0.000331574 0.999038 
0.000547438 0.000331574 0.999038 
0.000547438 0.000331574 0.999038 
-7.5984e-05 3.50926e-05 1.00045 
-7.5984e-05 3.50926e-05 1.00045 
-7.5984e-05 3.50926e-05 1.00045 
-7.5984e-05 3.50926e-05 1.00045 
0.000215538 -5.34411e-05 1.00042 
0.000215538 -5.34411e-05 1.00042 
0.000215538 -5.34411e-05 1.00042 
0.000215538 -5.34411e-05 1.00042 
5.79941e-05 -6.05471e-05 1.00046 
5.79941e-05 -6.05471e-05 1.00046 
5.79941e-05 -6.05471e-05 1.00046 
5.79941e-05 -6.05471e-05 1.00046 
0.000144095 8.51818e-05 1.00017 
0.000144095 8.51818e-05 1.00017 
0.000144095 8.51818e-05 1.00017 
0.000144095 8.51818e-05 1.00017 
0.000294597 -7.5959e-06 0.999876 
0.000294597 -7.5959e-06 0.999876 
0.000294597 -7.5959e-06 0.999876 
0.000294597 -7.5959e-06 0.999876 
2.69653e-05 5.32038e-05 1.00029 
2.69653e-05 5.32038e-05 1.00029 
2.69653e-05 5.32038e-05 1.00029 
2.69653e-05 5.32038e-05 1.00029 
-0.000103825 2.52688e-05 1.00054 
-0.000103825 2.52688e-05 1.00054 
-0.000103825 2.52688e-05 1.00054 
-0.000103825 2.52688e-05 1.00054 
-2.70016e-05 -3.86805e-06 1.00053 
-2.70016e-05 -3.86805e-06 1.00053 
-2.70016e-05 -3.86805e-06 1.00053 
-2.70016e-05 -3.86805e-06 1.00053 
-0.000944249 -0.000268976 0.996192 
-0.000944249 -0.000268976 0.996192 
-0.000944249 -0.000268976 0.996192 
-0.000944249 -0.000268976 0.996192 
0.000775006 -2.32867e-05 0.998645 
0.000775006 -2.32867e-05 0.998645 
0.000775006 -2.32867e-05 0.998645 
0.000775006 -2.32867e-05 0.998645 
0.000178068 -0.000166552 1.00016 
0.000178068 -0.000166552 1.00016 
0.000178068 -0.000166552 1.00016 
0.000178068 -0.000166552 1.00016 
8.66331e-06 -0.000144948 1.00048 
8.66331e-06 -0.000144948 1.00048 
8.66331e-06 -0.000144948 1.00048 
8.66331e-06 -0.000144948 1.00048 
4.05953e-05 -2.97009e-05 1.00012 
4.05953e-05 -2.97009e-05 1.00012 
4.05953e-05 -2.97009e-05 1.00012 
4.05953e-05 -2.97009e-05 1.00012 
0.000226519 6.90491e-05 1.00038 
0.000226519 6.90491e-05 1.00038 
0.000226519 6.90491e-05 1.00038 
0.000226519 6.90491e-05 1.00038 
0.00103976 -0.000133923 0.998843 
0.00103976 -0.000133923 0.998843 
0.00103976 -0.000133923 0.998843 
0.00103976 -0.000133923 0.998843 
4.80114e-05 9.68021e-05 1.00046 
4.80114e-05 9.68021e-05 1.00046 
4.80114e-05 9.68021e-05 1.00046 
4.80114e-05 9.68021e-05 1.00046 
-0.000152288 0.000100608 1.00018 
-0.000152288 0.000100608 1.00018 
-0.000152288 0.000100608 1.00018 
-0.000152288 0.000100608 1.00018 
-6.89209e-05 2.84589e-05 1.00055 
-6.89209e-05 2.84589e-05 1.00055 
-6.89209e-05 2.84589e-05 1.00055 
-6.89209e-05 2.84589e-05 1.00055 
0.000229031 8.66903e-05 0.999649 
0.000229031 8.66903e-05 0.999649 
0.000229031 8.66903e-05 0.999649 
0.000229031 8.66903e-05 0.999649 
0.00134141 0.000221486 0.99602 
0.00134141 0.000221486 0.99602 
0.00134141 0.000221486 0.99602 
0.00134141 0.000221486 0.99602 
0.000277312 0.000333933 0.999676 
0.000277312 0.000333933 0.999676 
0.000277312 0.000333933 0.999676 
0.000277312 0.000333933 0.999676 
8.49496e-05 -2.87349e-05 1.00048 
8.49496e-05 -2.87349e-05 1.00048 
8.49496e-05 -2.87349e-05 1.00048 
8.49496e-05 -2.87349e-05 1.00048 
-6.41207e-05 -5.25023e-05 1.0005 
-6.41207e-05 -5.25023e-05 1.0005 
-6.41207e-05 -5.25023e-05 1.0005 
-6.41207e-05 -5.25023e-05 1.0005 
4.34477e-06 -2.3216e-05 0.999992 
4.34477e-06 -2.3216e-05 0.999992 
4.34477e-06 -2.3216e-05 0.999992 
4.34477e-06 -2.3216e-05 0.999992 
-0.00011533 -0.000126004 1.00048 
-0.00011533 -0.000126004 1.00048 
-0.00011533 -0.000126004 1.00048 
-0.00011533 -0.000126004 1.00048 
5.48814e-05 0.000108171 1.0005 
5.48814e-05 0.000108171 1.0005 
5.48814e-05 0.000108171 1.0005 
5.48814e-05 0.000108171 1.0005 
-3.8896e-05 0.000222876 0.999937 
-3.8896e-05 0.000222876 0.999937 
-3.8896e-05 0.000222876 0.999937 
-3.8896e-05 0.000222876 0.999937 
-3.9553e-06 1.54424e-05 1.00032 
-3.9553e-06 1.54424e-05 1.00032 
-3.9553e-06 1.54424e-05 1.00032 
-3.9553e-06 1.54424e-05 1.00032 
5.53147e-06 -2.78782e-05 0.999992 
5.53147e-06 -2.78782e-05 0.999992 
5.53147e-06 -2.78782e-05 0.999992 
5.53147e-06 -2.78782e-05 0.999992 
-2.04581e-05 -0.000455356 0.999898 
-2.04581e-05 -0.000455356 0.999898 
-2.04581e-05 -0.000455356 0.999898 
-2.04581e-05 -0.000455356 0.999898 
0.000103748 8.97887e-05 1.00041 
0.000103748 8.97887e-05 1.00041 
0.000103748 8.97887e-05 1.00041 
0.000103748 8.97887e-05 1.00041 
0.000163562 -2.09127e-05 0.999744 
0.000163562 -2.09127e-05 0.999744 
0.000163562 -2.09127e-05 0.999744 
0.000163562 -2.09127e-05 0.999744 
-5.79584e-05 -0.000199675 1.0004 
-5.79584e-05 -0.000199675 1.0004 
-5.79584e-05 -0.000199675 1.0004 
-5.79584e-05 -0.000199675 1.0004 
0.000139487 0.000171747 1.00047 
0.000139487 0.000171747 1.00047 
0.000139487 0.000171747 1.00047 
0.000139487 0.000171747 1.00047 
0.000592362 0.000544627 0.99847 
0.000592362 0.000544627 0.99847 
0.000592362 0.000544627 0.99847 
0.000592362 0.000544627 0.99847 
7.80574e-05 -0.000150146 1.00001 
7.80574e-05 -0.000150146 1.00001 
7.80574e-05 -0.000150146 1.00001 
7.80574e-05 -0.000150146 1.00001 
0.000331483 -3.25345e-05 0.999774 
0.000331483 -3.25345e-05 0.999774 
0.000331483 -3.25345e-05 0.999774 
0.000331483 -3.25345e-05 0.999774 
-7.27155e-05 -0.000266545 1.00021 
-7.27155e-05 -0.000266545 1.00021 
-7.27155e-05 -0.000266545 1.00021 
-7.27155e-05 -0.000266545 1.00021 
-3.97382e-05 3.15311e-05 1.00045 
-3.97382e-05 3.15311e-05 1.00045 
-3.97382e-05 3.15311e-05 1.00045 
-3.97382e-05 3.15311e-05 1.00045 
1.6055e-05 -0.00014402 1.00008 
1.6055e-05 -0.00014402 1.00008 
1.6055e-05 -0.00014402 1.00008 
1.6055e-05 -0.00014402 1.00008 
0.000148993 1.95648e-05 1.00041 
0.000148993 1.95648e-05 1.00041 
0.000148993 1.95648e-05 1.00041 
0.000148993 1.95648e-05 1.00041 
-7.83303e-05 3.30492e-05 1.00019 
-7.83303e-05 3.30492e-05 1.00019 
-7.83303e-05 3.30492e-05 1.00019 
-7.83303e-05 3.30492e-05 1.00019 
-0.000730601 0.000526417 0.998557 
-0.000730601 0.000526417 0.998557 
-0.000730601 0.000526417 0.998557 
-0.000730601 0.000526417 0.998557 
5.46184e-06 3.96369e-05 1.00058 
5.46184e-06 3.96369e-05 1.00058 
5.46184e-06 3.96369e-05 1.00058 
5.46184e-06 3.96369e-05 1.00058 
-2.64026e-05 1.56678e-05 1.00011 
-2.64026e-05 1.56678e-05 1.00011 
-2.64026e-05 1.56678e-05 1.00011 
-2.64026e-05 1.56678e-05 1.00011 
3.50904e-05 5.37392e-05 1.00049 
3.50904e-05 5.37392e-05 1.00049 
3.50904e-05 5.37392e-05 1.00049 
3.50904e-05 5.37392e-05 1.00049 
-0.000204086 -7.4262e-05 1.00003 
-0.000204086 -7.4262e-05 1.00003 
-0.000204086 -7.4262e-05 1.00003 
-0.000204086 -7.4262e-05 1.00003 
-6.49622e-06 0.000359086 0.999645 
-6.49622e-06 0.000359086 0.999645 
-6.49622e-06 0.000359086 0.999645 
-6.49622e-06 0.000359086 0.999645 
-0.000211758 0.000234098 0.998403 
-0.000211758 0.000234098 0.998403 
-0.000211758 0.000234098 0.998403 
-0.000211758 0.000234098 0.998403 
5.20077e-06 0.000124971 1.00045 
5.20077e-06 0.000124971 1.00045 
5.20077e-06 0.000124971 1.00045 
5.20077e-06 0.000124971 1.00045 
4.47441e-05 -0.000269378 1.00038 
4.47441e-05 -0.000269378 1.00038 
4.47441e-05 -0.000269378 1.00038 
4.47441e-05 -0.000269378 1.00038 
9.41647e-05 0.000132561 1.00041 
9.41647e-05 0.000132561 1.00041 
9.41647e-05 0.000132561 1.00041 
9.41647e-05 0.000132561 1.00041 
-0.000100505 4.75327e-05 1.00044 
-0.000100505 4.75327e-05 1.00044 
-0.000100505 4.75327e-05 1.00044 
-0.000100505 4.75327e-05 1.00044 
4.86821e-05 -9.90096e-06 1.00027 
4.86821e-05 -9.90096e-06 1.00027 
4.86821e-05 -9.90096e-06 1.00027 
4.86821e-05 -9.90096e-06 1.00027 
0.000408395 3.46596e-05 0.99902 
0.000408395 3.46596e-05 0.99902 
0.000408395 3.46596e-05 0.99902 
0.000408395 3.46596e-05 0.99902 
0.000730752 0.000208839 0.998354 
0.000730752 0.000208839 0.998354 
0.000730752 0.000208839 0.998354 
0.000730752 0.000208839 0.998354 
0.000182862 -7.11252e-05 1.00039 
0.000182862 -7.11252e-05 1.00039 
0.000182862 -7.11252e-05 1.00039 
0.000182862 -7.11252e-05 1.00039 
0.00075594 2.37918e-05 0.999045 
0.00075594 2.37918e-05 0.999045 
0.00075594 2.37918e-05 0.999045 
0.00075594 2.37918e-05 0.999045 
1.29802e-05 0.000371931 1.00013 
1.29802e-05 0.000371931 1.00013 
1.29802e-05 0.000371931 1.00013 
1.29802e-05 0.000371931 1.00013 
6.78337e-05 0.000138106 1.00038 
6.78337e-05 0.000138106 1.00038 
6.78337e-05 0.000138106 1.00038 
6.78337e-05 0.000138106 1.00038 
-0.00107585 -0.000684162 0.99707 
-0.00107585 -0.000684162 0.99707 
-0.00107585 -0.000684162 0.99707 
-0.00107585 -0.000684162 0.99707 
-7.92854e-05 -0.000234431 1.00031 
-7.92854e-05 -0.000234431 1.00031 
-7.92854e-05 -0.000234431 1.00031 
-7.92854e-05 -0.000234431 1.00031 
-0.00100056 0.00056705 0.997037 
-0.00100056 0.00056705 0.997037 
-0.00100056 0.00056705 0.997037 
-0.00100056 0.00056705 0.997037 
0.000106797 -7.32009e-05 1.00051 
0.000106797 -7.32009e-05 1.00051 
0.000106797 -7.32009e-05 1.00051 
0.000106797 -7.32009e-05 1.00051 
0.000355232 0.000152365 0.99902 
0.000355232 0.000152365 0.99902 
0.000355232 0.000152365 0.99902 
0.000355232 0.000152365 0.99902 
3.57998e-06 -0.00127062 0.996718 
3.57998e-06 -0.00127062 0.996718 
3.57998e-06 -0.00127062 0.996718 
3.57998e-06 -0.00127062 0.996718 
3.86714e-05 7.69112e-05 1.00047 
3.86714e-05 7.69112e-05 1.00047 
3.86714e-05 7.69112e-05 1.00047 
3.86714e-05 7.69112e-05 1.00047 
-3.26303e-05 -1.04521e-05 1.00039 
-3.26303e-05 -1.04521e-05 1.00039 
-3.26303e-05 -1.04521e-05 1.00039 
-3.26303e-05 -1.04521e-05 1.00039 
2.45925e-05 -1.41294e-05 1.0005 
2.45925e-05 -1.41294e-05 1.0005 
2.45925e-05 -1.41294e-05 1.0005 
2.45925e-05 -1.41294e-05 1.0005 
-0.000155179 0.00111107 0.996241 
-0.000155179 0.00111107 0.996241 
-0.000155179 0.00111107 0.996241 
-0.000155179 0.00111107 0.996241 
0.000244163 -0.00096729 0.998571 
0.000244163 -0.00096729 0.998571 
0.000244163 -0.00096729 0.998571 
0.000244163 -0.00096729 0.998571 
0.000241416 -0.000384377 0.999464 
0.000241416 -0.000384377 0.999464 
0.000241416 -0.000384377 0.999464 
0.000241416 -0.000384377 0.999464 
0.000168209 -0.00167224 0.996316 
0.000168209 -0.00167224 0.996316 
0.000168209 -0.00167224 0.996316 
0.000168209 -0.00167224 0.996316 
0.000179841 0.000226912 1.00026 
0.000179841 0.000226912 1.00026 
0.000179841 0.000226912 1.00026 
0.000179841 0.000226912 1.00026 
7.12937e-05 -8.20348e-05 1.00049 
7.12937e-05 -8.20348e-05 1.00049 
7.12937e-05 -8.20348e-05 1.00049 
7.12937e-05 -8.20348e-05 1.00049 
-0.000330033 0.000151515 1 
-0.000330033 0.000151515 1 
-0.000330033 0.000151515 1 
-0.000330033 0.000151515 1 
-0.000874229 0.000582574 0.997292 
-0.000874229 0.000582574 0.997292 
-0.000874229 0.000582574 0.997292 
-0.000874229 0.000582574 0.997292 
-9.24175e-05 -7.8143e-05 1.00044 
-9.24175e-05 -7.8143e-05 1.00044 
-9.24175e-05 -7.8143e-05 1.00044 
-9.24175e-05 -7.8143e-05 1.00044 
7.4909e-05 7.20695e-05 1.00045 
7.4909e-05 7.20695e-05 1.00045 
7.4909e-05 7.20695e-05 1.00045 
7.4909e-05 7.20695e-05 1.00045 
1.17225e-05 0.00010142 0.999949 
1.17225e-05 0.00010142 0.999949 
1.17225e-05 0.00010142 0.999949 
1.17225e-05 0.00010142 0.999949 
-3.97263e-05 0.000218738 1.00042 
-3.97263e-05 0.000218738 1.00042 
-3.97263e-05 0.000218738 1.00042 
-3.97263e-05 0.000218738 1.00042 
-9.54694e-05 -4.9023e-06 0.999998 
-9.54694e-05 -4.9023e-06 0.999998 
-9.54694e-05 -4.9023e-06 0.999998 
-9.54694e-05 -4.9023e-06 0.999998 
-0.000142759 -7.87012e-05 1.00027 
-0.000142759 -7.87012e-05 1.00027 
-0.000142759 -7.87012e-05 1.00027 
-0.000142759 -7.87012e-05 1.00027 
-7.24481e-05 0.00037432 0.999849 
-7.24481e-05 0.00037432 0.999849 
-7.24481e-05 0.00037432 0.999849 
-7.24481e-05 0.00037432 0.999849 
-0.000174074 -0.00155938 0.996293 
-0.000174074 -0.00155938 0.996293 
-0.000174074 -0.00155938 0.996293 
-0.000174074 -0.00155938 0.996293 
-6.78021e-05 2.63306e-05 0.999989 
-6.78021e-05 2.63306e-05 0.999989 
-6.78021e-05 2.63306e-05 0.999989 
-6.78021e-05 2.63306e-05 0.999989 
-7.4797e-05 2.58627e-05 1.00051 
-7.4797e-05 2.58627e-05 1.00051 
-7.4797e-05 2.58627e-05 1.00051 
-7.4797e-05 2.58627e-05 1.00051 
0.00148674 -0.00121997 0.99724 
0.00148674 -0.00121997 0.99724 
0.00148674 -0.00121997 0.99724 
0.00148674 -0.00121997 0.99724 
-4.16338e-05 4.17467e-05 1.00014 
-4.16338e-05 4.17467e-05 1.00014 
-4.16338e-05 4.17467e-05 1.00014 
-4.16338e-05 4.17467e-05 1.00014 
0.00011174 5.41858e-05 0.999735 
0.00011174 5.41858e-05 0.999735 
0.00011174 5.41858e-05 0.999735 
0.00011174 5.41858e-05 0.999735 
-0.000256312 3.69002e-05 1.00001 
-0.000256312 3.69002e-05 1.00001 
-0.000256312 3.69002e-05 1.00001 
-0.000256312 3.69002e-05 1.00001 
-0.000129588 3.95397e-05 1.00007 
-0.000129588 3.95397e-05 1.00007 
-0.000129588 3.95397e-05 1.00007 
-0.000129588 3.95397e-05 1.00007 
0.000114761 9.86804e-05 1.00021 
0.000114761 9.86804e-05 1.00021 
0.000114761 9.86804e-05 1.00021 
0.000114761 9.86804e-05 1.00021 
0.000922118 0.000148595 0.999061 
0.000922118 0.000148595 0.999061 
0.000922118 0.000148595 0.999061 
0.000922118 0.000148595 0.999061 
-4.66317e-06 0.000159593 1.00048 
-4.66317e-06 0.000159593 1.00048 
-4.66317e-06 0.000159593 1.00048 
-4.66317e-06 0.000159593 1.00048 
-0.000290403 4.48365e-05 0.999739 
-0.000290403 4.48365e-05 0.999739 
-0.000290403 4.48365e-05 0.999739 
-0.000290403 4.48365e-05 0.999739 
0.000110069 -0.000113828 1.00005 
0.000110069 -0.000113828 1.00005 
0.000110069 -0.000113828 1.00005 
0.000110069 -0.000113828 1.00005 
3.12685e-05 7.44271e-05 0.999891 
3.12685e-05 7.44271e-05 0.999891 
3.12685e-05 7.44271e-05 0.999891 
3.12685e-05 7.44271e-05 0.999891 
0.00016394 -1.75228e-05 1.00008 
0.00016394 -1.75228e-05 1.00008 
0.00016394 -1.75228e-05 1.00008 
0.00016394 -1.75228e-05 1.00008 
-0.000168093 0.000345894 0.999666 
-0.000168093 0.000345894 0.999666 
-0.000168093 0.000345894 0.999666 
-0.000168093 0.000345894 0.999666 
3.06185e-05 2.87886e-05 1.00027 
3.06185e-05 2.87886e-05 1.00027 
3.06185e-05 2.87886e-05 1.00027 
3.06185e-05 2.87886e-05 1.00027 
-9.59308e-05 -0.00014769 1.00047 
-9.59308e-05 -0.00014769 1.00047 
-9.59308e-05 -0.00014769 1.00047 
-9.59308e-05 -0.00014769 1.00047 
2.94636e-05 2.06793e-05 1.00051 
2.94636e-05 2.06793e-05 1.00051 
2.94636e-05 2.06793e-05 1.00051 
2.94636e-05 2.06793e-05 1.00051 
-0.000247636 -0.000158503 1.00001 
-0.000247636 -0.000158503 1.00001 
-0.000247636 -0.000158503 1.00001 
-0.000247636 -0.000158503 1.00001 
-0.00017136 -0.000125732 1.00049 
-0.00017136 -0.000125732 1.00049 
-0.00017136 -0.000125732 1.00049 
-0.00017136 -0.000125732 1.00049 
0.00079436 0.000374539 0.997484 
0.00079436 0.000374539 0.997484 
0.00079436 0.000374539 0.997484 
0.00079436 0.000374539 0.997484 
-2.8946e-05 0.000123375 1.00041 
-2.8946e-05 0.000123375 1.00041 
-2.8946e-05 0.000123375 1.00041 
-2.8946e-05 0.000123375 1.00041 
7.45285e-05 -0.000840881 0.998734 
7.45285e-05 -0.000840881 0.998734 
7.45285e-05 -0.000840881 0.998734 
7.45285e-05 -0.000840881 0.998734 
1.9472e-06 6.3429e-05 1.00057 
1.9472e-06 6.3429e-05 1.00057 
1.9472e-06 6.3429e-05 1.00057 
1.9472e-06 6.3429e-05 1.00057 
-4.82661e-05 -8.37361e-05 1.00009 
-4.82661e-05 -8.37361e-05 1.00009 
-4.82661e-05 -8.37361e-05 1.00009 
-4.82661e-05 -8.37361e-05 1.00009 
-9.94747e-05 0.000105061 1.0004 
-9.94747e-05 0.000105061 1.0004 
-9.94747e-05 0.000105061 1.0004 
-9.94747e-05 0.000105061 1.0004 
-0.00018686 3.32914e-05 1.00049 
-0.00018686 3.32914e-05 1.00049 
-0.00018686 3.32914e-05 1.00049 
-0.00018686 3.32914e-05 1.00049 
0.000115928 5.7185e-05 1.00031 
0.000115928 5.7185e-05 1.00031 
0.000115928 5.7185e-05 1.00031 
0.000115928 5.7185e-05 1.00031 
4.60282e-05 5.22957e-05 1.00014 
4.60282e-05 5.22957e-05 1.00014 
4.60282e-05 5.22957e-05 1.00014 
4.60282e-05 5.22957e-05 1.00014 
9.37399e-05 -0.000130672 1.00001 
9.37399e-05 -0.000130672 1.00001 
9.37399e-05 -0.000130672 1.00001 
9.37399e-05 -0.000130672 1.00001 
-9.2664e-05 -7.77307e-05 1.00044 
-9.2664e-05 -7.77307e-05 1.00044 
-9.2664e-05 -7.77307e-05 1.00044 
-9.2664e-05 -7.77307e-05 1.00044 
-0.000339679 -0.00069601 0.996718 
-0.000339679 -0.00069601 0.996718 
-0.000339679 -0.00069601 0.996718 
-0.000339679 -0.00069601 0.996718 
0.000101878 1.10761e-05 1.00049 
0.000101878 1.10761e-05 1.00049 
0.000101878 1.10761e-05 1.00049 
0.000101878 1.10761e-05 1.00049 
3.16405e-05 8.13878e-05 0.999861 
3.16405e-05 8.13878e-05 0.999861 
3.16405e-05 8.13878e-05 0.999861 
3.16405e-05 8.13878e-05 0.999861 
-0.000205066 0.000177416 0.999824 
-0.000205066 0.000177416 0.999824 
-0.000205066 0.000177416 0.999824 
-0.000205066 0.000177416 0.999824 
5.11847e-05 1.39473e-06 1.00056 
5.11847e-05 1.39473e-06 1.00056 
5.11847e-05 1.39473e-06 1.00056 
5.11847e-05 1.39473e-06 1.00056 
0.000113919 -0.000401248 0.999434 
0.000113919 -0.000401248 0.999434 
0.000113919 -0.000401248 0.999434 
0.000113919 -0.000401248 0.999434 
0.000138955 8.53262e-05 1.00049 
0.000138955 8.53262e-05 1.00049 
0.000138955 8.53262e-05 1.00049 
0.000138955 8.53262e-05 1.00049 
-2.43751e-05 -0.000137337 1.00008 
-2.43751e-05 -0.000137337 1.00008 
-2.43751e-05 -0.000137337 1.00008 
-2.43751e-05 -0.000137337 1.00008 
2.8318e-05 0.000213158 1.00047 
2.8318e-05 0.000213158 1.00047 
2.8318e-05 0.000213158 1.00047 
2.8318e-05 0.000213158 1.00047 
0.000112482 -0.000522182 0.999454 
0.000112482 -0.000522182 0.999454 
0.000112482 -0.000522182 0.999454 
0.000112482 -0.000522182 0.999454 
-0.000394943 -5.1358e-05 0.99931 
-0.000394943 -5.1358e-05 0.99931 
-0.000394943 -5.1358e-05 0.99931 
-0.000394943 -5.1358e-05 0.99931 
-3.7559e-05 -3.62112e-05 1.00053 
-3.7559e-05 -3.62112e-05 1.00053 
-3.7559e-05 -3.62112e-05 1.00053 
-3.7559e-05 -3.62112e-05 1.00053 
7.44379e-05 -3.77915e-05 1.00043 
7.44379e-05 -3.77915e-05 1.00043 
7.44379e-05 -3.77915e-05 1.00043 
7.44379e-05 -3.77915e-05 1.00043 
-0.000184206 -1.03729e-05 0.999535 
-0.000184206 -1.03729e-05 0.999535 
-0.000184206 -1.03729e-05 0.999535 
-0.000184206 -1.03729e-05 0.999535 
3.42886e-06 6.75233e-05 1.00059 
3.42886e-06 6.75233e-05 1.00059 
3.42886e-06 6.75233e-05 1.00059 
3.42886e-06 6.75233e-05 1.00059 
-7.58212e-05 -0.00049359 0.999724 
-7.58212e-05 -0.00049359 0.999724 
-7.58212e-05 -0.00049359 0.999724 
-7.58212e-05 -0.00049359 0.999724 
-0.00119661 -0.00025028 0.996151 
-0.00119661 -0.00025028 0.996151 
-0.00119661 -0.00025028 0.996151 
-0.00119661 -0.00025028 0.996151 
-0.00018938 0.000154335 0.999808 
-0.00018938 0.000154335 0.999808 
-0.00018938 0.000154335 0.999808 
-0.00018938 0.000154335 0.999808 
0.000153755 -0.000910632 0.998513 
0.000153755 -0.000910632 0.998513 
0.000153755 -0.000910632 0.998513 
0.000153755 -0.000910632 0.998513 
-0.000722293 0.00010118 0.996101 
-0.000722293 0.00010118 0.996101 
-0.000722293 0.00010118 0.996101 
-0.000722293 0.00010118 0.996101 
0.000177915 -0.000833038 0.996795 
0.000177915 -0.000833038 0.996795 
0.000177915 -0.000833038 0.996795 
0.000177915 -0.000833038 0.996795 
-0.000218156 4.6623e-05 1.00017 
-0.000218156 4.6623e-05 1.00017 
-0.000218156 4.6623e-05 1.00017 
-0.000218156 4.6623e-05 1.00017 
-0.000549599 0.000143487 0.998954 
-0.000549599 0.000143487 0.998954 
-0.000549599 0.000143487 0.998954 
-0.000549599 0.000143487 0.998954 
-0.000317321 -0.000277823 0.999675 
-0.000317321 -0.000277823 0.999675 
-0.000317321 -0.000277823 0.999675 
-0.000317321 -0.000277823 0.999675 
-1.1286e-05 -0.0003765 0.9997 
-1.1286e-05 -0.0003765 0.9997 
-1.1286e-05 -0.0003765 0.9997 
-1.1286e-05 -0.0003765 0.9997 
0.000117697 -4.04736e-05 1.0005 
0.000117697 -4.04736e-05 1.0005 
0.000117697 -4.04736e-05 1.0005 
0.000117697 -4.04736e-05 1.0005 
-0.000468719 0.000206614 0.99901 
-0.000468719 0.000206614 0.99901 
-0.000468719 0.000206614 0.99901 
-0.000468719 0.000206614 0.99901 
-4.75115e-05 -4.36926e-06 1.00011 
-4.75115e-05 -4.36926e-06 1.00011 
-4.75115e-05 -4.36926e-06 1.00011 
-4.75115e-05 -4.36926e-06 1.00011 
-8.06467e-05 -0.000132723 1.00005 
-8.06467e-05 -0.000132723 1.00005 
-8.06467e-05 -0.000132723 1.00005 
-8.06467e-05 -0.000132723 1.00005 
9.06281e-05 3.46621e-06 1.00017 
9.06281e-05 3.46621e-06 1.00017 
9.06281e-05 3.46621e-06 1.00017 
9.06281e-05 3.46621e-06 1.00017 
5.71774e-05 -0.000336953 0.999864 
5.71774e-05 -0.000336953 0.999864 
5.71774e-05 -0.000336953 0.999864 
5.71774e-05 -0.000336953 0.999864 
6.79679e-07 -2.71066e-05 0.999993 
6.79679e-07 -2.71066e-05 0.999993 
6.79679e-07 -2.71066e-05 0.999993 
6.79679e-07 -2.71066e-05 0.999993 
9.27716e-06 0.000157548 0.998219 
9.27716e-06 0.000157548 0.998219 
9.27716e-06 0.000157548 0.998219 
9.27716e-06 0.000157548 0.998219 
0.00124904 -0.00017141 0.996428 
0.00124904 -0.00017141 0.996428 
0.00124904 -0.00017141 0.996428 
0.00124904 -0.00017141 0.996428 
-7.03178e-05 -5.54383e-05 1.00024 
-7.03178e-05 -5.54383e-05 1.00024 
-7.03178e-05 -5.54383e-05 1.00024 
-7.03178e-05 -5.54383e-05 1.00024 
0.000355844 -0.000499957 0.999712 
0.000355844 -0.000499957 0.999712 
0.000355844 -0.000499957 0.999712 
0.000355844 -0.000499957 0.999712 
0.000601413 5.72549e-05 0.999648 
0.000601413 5.72549e-05 0.999648 
0.000601413 5.72549e-05 0.999648 
0.000601413 5.72549e-05 0.999648 
0.000271518 -0.000212886 0.999918 
0.000271518 -0.000212886 0.999918 
0.000271518 -0.000212886 0.999918 
0.000271518 -0.000212886 0.999918 
0.000262566 -9.33638e-05 0.99984 
0.000262566 -9.33638e-05 0.99984 
0.000262566 -9.33638e-05 0.99984 
0.000262566 -9.33638e-05 0.99984 
0.000135457 -0.000133882 1.00042 
0.000135457 -0.000133882 1.00042 
0.000135457 -0.000133882 1.00042 
0.000135457 -0.000133882 1.00042 
0.00103895 -0.000141788 0.998843 
0.00103895 -0.000141788 0.998843 
0.00103895 -0.000141788 0.998843 
0.00103895 -0.000141788 0.998843 
-0.000131446 0.000260409 0.99927 
-0.000131446 0.000260409 0.99927 
-0.000131446 0.000260409 0.99927 
-0.000131446 0.000260409 0.99927 
-7.59737e-05 2.99877e-05 1.00027 
-7.59737e-05 2.99877e-05 1.00027 
-7.59737e-05 2.99877e-05 1.00027 
-7.59737e-05 2.99877e-05 1.00027 
0.000383542 0.000692858 0.999186 
0.000383542 0.000692858 0.999186 
0.000383542 0.000692858 0.999186 
0.000383542 0.000692858 0.999186 
-0.000115552 0.000936335 0.996684 
-0.000115552 0.000936335 0.996684 
-0.000115552 0.000936335 0.996684 
-0.000115552 0.000936335 0.996684 
0.000308619 -2.81895e-05 1.00005 
0.000308619 -2.81895e-05 1.00005 
0.000308619 -2.81895e-05 1.00005 
0.000308619 -2.81895e-05 1.00005 
-8.91988e-05 -0.000197875 1.00047 
-8.91988e-05 -0.000197875 1.00047 
-8.91988e-05 -0.000197875 1.00047 
-8.91988e-05 -0.000197875 1.00047 
5.7011e-05 0.00114917 0.996593 
5.7011e-05 0.00114917 0.996593 
5.7011e-05 0.00114917 0.996593 
5.7011e-05 0.00114917 0.996593 
0.000464687 0.000380697 0.999527 
0.000464687 0.000380697 0.999527 
0.000464687 0.000380697 0.999527 
0.000464687 0.000380697 0.999527 
-0.000278884 -8.58685e-05 0.998385 
-0.000278884 -8.58685e-05 0.998385 
-0.000278884 -8.58685e-05 0.998385 
-0.000278884 -8.58685e-05 0.998385 
-0.000148571 -0.000250732 0.999956 
-0.000148571 -0.000250732 0.999956 
-0.000148571 -0.000250732 0.999956 
-0.000148571 -0.000250732 0.999956 
0.000854492 -0.000682081 0.997445 
0.000854492 -0.000682081 0.997445 
0.000854492 -0.000682081 0.997445 
0.000854492 -0.000682081 0.997445 
-4.77667e-05 7.23003e-05 1.00059 
-4.77667e-05 7.23003e-05 1.00059 
-4.77667e-05 7.23003e-05 1.00059 
-4.77667e-05 7.23003e-05 1.00059 
0.00021986 -0.00010347 0.99973 
0.00021986 -0.00010347 0.99973 
0.00021986 -0.00010347 0.99973 
0.00021986 -0.00010347 0.99973 
-2.27857e-05 1.96767e-05 1.00052 
-2.27857e-05 1.96767e-05 1.00052 
-2.27857e-05 1.96767e-05 1.00052 
-2.27857e-05 1.96767e-05 1.00052 
-6.21882e-05 4.91617e-05 1.00045 
-6.21882e-05 4.91617e-05 1.00045 
-6.21882e-05 4.91617e-05 1.00045 
-6.21882e-05 4.91617e-05 1.00045 
-4.40151e-05 0.000597194 0.999814 
-4.40151e-05 0.000597194 0.999814 
-4.40151e-05 0.000597194 0.999814 
-4.40151e-05 0.000597194 0.999814 
6.20962e-05 -2.6075e-05 1.0005 
6.20962e-05 -2.6075e-05 1.0005 
6.20962e-05 -2.6075e-05 1.0005 
6.20962e-05 -2.6075e-05 1.0005 
-0.0012315 -0.000207334 0.996146 
-0.0012315 -0.000207334 0.996146 
-0.0012315 -0.000207334 0.996146 
-0.0012315 -0.000207334 0.996146 
7.34518e-05 -0.000411809 0.996752 
7.34518e-05 -0.000411809 0.996752 
7.34518e-05 -0.000411809 0.996752 
7.34518e-05 -0.000411809 0.996752 
-4.29898e-05 5.70622e-05 1.00023 
-4.29898e-05 5.70622e-05 1.00023 
-4.29898e-05 5.70622e-05 1.00023 
-4.29898e-05 5.70622e-05 1.00023 
-0.000302728 8.21266e-05 1.00007 
-0.000302728 8.21266e-05 1.00007 
-0.000302728 8.21266e-05 1.00007 
-0.000302728 8.21266e-05 1.00007 
0.000897703 -0.000961538 0.996932 
0.000897703 -0.000961538 0.996932 
0.000897703 -0.000961538 0.996932 
0.000897703 -0.000961538 0.996932 
-0.000782683 0.000176383 0.997127 
-0.000782683 0.000176383 0.997127 
-0.000782683 0.000176383 0.997127 
-0.000782683 0.000176383 0.997127 
-0.000207139 0.0006074 0.995879 
-0.000207139 0.0006074 0.995879 
-0.000207139 0.0006074 0.995879 
-0.000207139 0.0006074 0.995879 
-0.000105787 6.6493e-05 1.00051 
-0.000105787 6.6493e-05 1.00051 
-0.000105787 6.6493e-05 1.00051 
-0.000105787 6.6493e-05 1.00051 
5.4512e-05 1.7906e-06 1.00056 
5.4512e-05 1.7906e-06 1.00056 
5.4512e-05 1.7906e-06 1.00056 
5.4512e-05 1.7906e-06 1.00056 
-0.00011063 -0.000288294 0.99961 
-0.00011063 -0.000288294 0.99961 
-0.00011063 -0.000288294 0.99961 
-0.00011063 -0.000288294 0.99961 
-7.08357e-05 9.52811e-05 1.00051 
-7.08357e-05 9.52811e-05 1.00051 
-7.08357e-05 9.52811e-05 1.00051 
-7.08357e-05 9.52811e-05 1.00051 
-0.000295892 0.000307618 0.996796 
-0.000295892 0.000307618 0.996796 
-0.000295892 0.000307618 0.996796 
-0.000295892 0.000307618 0.996796 
0.000427082 0.0008724 0.996898 
0.000427082 0.0008724 0.996898 
0.000427082 0.0008724 0.996898 
0.000427082 0.0008724 0.996898 
0.000782645 -0.000759051 0.997436 
0.000782645 -0.000759051 0.997436 
0.000782645 -0.000759051 0.997436 
0.000782645 -0.000759051 0.997436 
-0.000580746 0.000683153 0.996851 
-0.000580746 0.000683153 0.996851 
-0.000580746 0.000683153 0.996851 
-0.000580746 0.000683153 0.996851 
-0.000863023 0.000124714 0.995937 
-0.000863023 0.000124714 0.995937 
-0.000863023 0.000124714 0.995937 
-0.000863023 0.000124714 0.995937 
-0.00151964 5.75191e-05 0.997019 
-0.00151964 5.75191e-05 0.997019 
-0.00151964 5.75191e-05 0.997019 
-0.00151964 5.75191e-05 0.997019 
0.000665405 0.000556765 0.997079 
0.000665405 0.000556765 0.997079 
0.000665405 0.000556765 0.997079 
0.000665405 0.000556765 0.997079 
0.00115914 -0.000422219 0.996021 
0.00115914 -0.000422219 0.996021 
0.00115914 -0.000422219 0.996021 
0.00115914 -0.000422219 0.996021 
4.58994e-05 -1.04315e-05 1.0005 
4.58994e-05 -1.04315e-05 1.0005 
4.58994e-05 -1.04315e-05 1.0005 
4.58994e-05 -1.04315e-05 1.0005 
9.86647e-05 0.000926893 0.996547 
9.86647e-05 0.000926893 0.996547 
9.86647e-05 0.000926893 0.996547 
9.86647e-05 0.000926893 0.996547 
-5.20398e-06 0.000201066 0.999767 
-5.20398e-06 0.000201066 0.999767 
-5.20398e-06 0.000201066 0.999767 
-5.20398e-06 0.000201066 0.999767 
-4.89618e-05 -0.000116688 1.00033 
-4.89618e-05 -0.000116688 1.00033 
-4.89618e-05 -0.000116688 1.00033 
-4.89618e-05 -0.000116688 1.00033 
0.000586364 0.000655283 0.997075 
0.000586364 0.000655283 0.997075 
0.000586364 0.000655283 0.997075 
0.000586364 0.000655283 0.997075 
-1.31163e-05 0.000555598 0.996113 
-1.31163e-05 0.000555598 0.996113 
-1.31163e-05 0.000555598 0.996113 
-1.31163e-05 0.000555598 0.996113 
0.000126824 -0.000187376 1.00032 
0.000126824 -0.000187376 1.00032 
0.000126824 -0.000187376 1.00032 
0.000126824 -0.000187376 1.00032 
0.0003777 -0.00049518 0.996417 
0.0003777 -0.00049518 0.996417 
0.0003777 -0.00049518 0.996417 
0.0003777 -0.00049518 0.996417 
-0.000154067 0.000552246 0.999155 
-0.000154067 0.000552246 0.999155 
-0.000154067 0.000552246 0.999155 
-0.000154067 0.000552246 0.999155 
0.000192308 -0.000103027 0.998836 
0.000192308 -0.000103027 0.998836 
0.000192308 -0.000103027 0.998836 
0.000192308 -0.000103027 0.998836 
0.000341951 -0.000348794 0.999156 
0.000341951 -0.000348794 0.999156 
0.000341951 -0.000348794 0.999156 
0.000341951 -0.000348794 0.999156 
0.000515002 -5.65255e-05 0.999745 
0.000515002 -5.65255e-05 0.999745 
0.000515002 -5.65255e-05 0.999745 
0.000515002 -5.65255e-05 0.999745 
-8.72839e-05 -2.69185e-05 1.00053 
-8.72839e-05 -2.69185e-05 1.00053 
-8.72839e-05 -2.69185e-05 1.00053 
-8.72839e-05 -2.69185e-05 1.00053 
0.000686144 4.02845e-05 0.998574 
0.000686144 4.02845e-05 0.998574 
0.000686144 4.02845e-05 0.998574 
0.000686144 4.02845e-05 0.998574 
-3.36881e-05 0.00134197 0.997198 
-3.36881e-05 0.00134197 0.997198 
-3.36881e-05 0.00134197 0.997198 
-3.36881e-05 0.00134197 0.997198 
0.000455238 -0.000711786 0.996845 
0.000455238 -0.000711786 0.996845 
0.000455238 -0.000711786 0.996845 
0.000455238 -0.000711786 0.996845 
6.27229e-05 4.94033e-05 1.00051 
6.27229e-05 4.94033e-05 1.00051 
6.27229e-05 4.94033e-05 1.00051 
6.27229e-05 4.94033e-05 1.00051 
0.000618506 -0.000618193 0.996839 
0.000618506 -0.000618193 0.996839 
0.000618506 -0.000618193 0.996839 
0.000618506 -0.000618193 0.996839 
6.49543e-06 -0.000383244 1.00024 
6.49543e-06 -0.000383244 1.00024 
6.49543e-06 -0.000383244 1.00024 
6.49543e-06 -0.000383244 1.00024 
-0.000137 -0.000565199 0.998553 
-0.000137 -0.000565199 0.998553 
-0.000137 -0.000565199 0.998553 
-0.000137 -0.000565199 0.998553 
-0.000343264 0.000266476 0.999439 
-0.000343264 0.000266476 0.999439 
-0.000343264 0.000266476 0.999439 
-0.000343264 0.000266476 0.999439 
0.00253357 0.00144008 0.996103 
0.00253357 0.00144008 0.996103 
0.00253357 0.00144008 0.996103 
0.00253357 0.00144008 0.996103 
-0.000107126 -0.000342473 0.999281 
-0.000107126 -0.000342473 0.999281 
-0.000107126 -0.000342473 0.999281 
-0.000107126 -0.000342473 0.999281 
-0.000339778 0.000115207 0.99899 
-0.000339778 0.000115207 0.99899 
-0.000339778 0.000115207 0.99899 
-0.000339778 0.000115207 0.99899 
-0.000162879 0.000625443 0.999031 
-0.000162879 0.000625443 0.999031 
-0.000162879 0.000625443 0.999031 
-0.000162879 0.000625443 0.999031 
0.000197686 0.000879503 0.996933 
0.000197686 0.000879503 0.996933 
0.000197686 0.000879503 0.996933 
0.000197686 0.000879503 0.996933 
-0.0010077 -0.000865484 0.997043 
-0.0010077 -0.000865484 0.997043 
-0.0010077 -0.000865484 0.997043 
-0.0010077 -0.000865484 0.997043 
0.000993684 -0.00130471 0.996717 
0.000993684 -0.00130471 0.996717 
0.000993684 -0.00130471 0.996717 
0.000993684 -0.00130471 0.996717 
6.22343e-05 -8.53825e-05 1.00038 
6.22343e-05 -8.53825e-05 1.00038 
6.22343e-05 -8.53825e-05 1.00038 
6.22343e-05 -8.53825e-05 1.00038 
-2.90706e-05 3.24697e-05 1.00052 
-2.90706e-05 3.24697e-05 1.00052 
-2.90706e-05 3.24697e-05 1.00052 
-2.90706e-05 3.24697e-05 1.00052 
-0.000128998 1.41952e-05 1.00007 
-0.000128998 1.41952e-05 1.00007 
-0.000128998 1.41952e-05 1.00007 
-0.000128998 1.41952e-05 1.00007 
4.36933e-05 -5.28326e-05 1.00047 
4.36933e-05 -5.28326e-05 1.00047 
4.36933e-05 -5.28326e-05 1.00047 
4.36933e-05 -5.28326e-05 1.00047 
4.0753e-05 -0.000169655 1.00033 
4.0753e-05 -0.000169655 1.00033 
4.0753e-05 -0.000169655 1.00033 
4.0753e-05 -0.000169655 1.00033 
0.000748251 0.000295717 0.996684 
0.000748251 0.000295717 0.996684 
0.000748251 0.000295717 0.996684 
0.000748251 0.000295717 0.996684 
-0.000609005 -0.00046917 0.995931 
-0.000609005 -0.00046917 0.995931 
-0.000609005 -0.00046917 0.995931 
-0.000609005 -0.00046917 0.995931 
0.000481271 0.000630673 0.996933 
0.000481271 0.000630673 0.996933 
0.000481271 0.000630673 0.996933 
0.000481271 0.000630673 0.996933 
-0.000270083 0.000386743 0.998709 
-0.000270083 0.000386743 0.998709 
-0.000270083 0.000386743 0.998709 
-0.000270083 0.000386743 0.998709 
-6.41425e-05 3.22692e-05 1.00024 
-6.41425e-05 3.22692e-05 1.00024 
-6.41425e-05 3.22692e-05 1.00024 
-6.41425e-05 3.22692e-05 1.00024 
-0.000319078 -0.00084291 0.996687 
-0.000319078 -0.00084291 0.996687 
-0.000319078 -0.00084291 0.996687 
-0.000319078 -0.00084291 0.996687 
-0.000684471 0.000370566 0.997118 
-0.000684471 0.000370566 0.997118 
-0.000684471 0.000370566 0.997118 
-0.000684471 0.000370566 0.997118 
0.000409179 -4.30295e-05 0.998644 
0.000409179 -4.30295e-05 0.998644 
0.000409179 -4.30295e-05 0.998644 
0.000409179 -4.30295e-05 0.998644 
-0.000190212 0.000223496 1.00021 
-0.000190212 0.000223496 1.00021 
-0.000190212 0.000223496 1.00021 
-0.000190212 0.000223496 1.00021 
0.00029955 -0.00117606 0.996197 
0.00029955 -0.00117606 0.996197 
0.00029955 -0.00117606 0.996197 
0.00029955 -0.00117606 0.996197 
0.000305614 0.00107072 0.996675 
0.000305614 0.00107072 0.996675 
0.000305614 0.00107072 0.996675 
0.000305614 0.00107072 0.996675 
0.000100107 0.000311316 0.999638 
0.000100107 0.000311316 0.999638 
0.000100107 0.000311316 0.999638 
0.000100107 0.000311316 0.999638 
0.000450724 -0.000526387 0.998828 
0.000450724 -0.000526387 0.998828 
0.000450724 -0.000526387 0.998828 
0.000450724 -0.000526387 0.998828 
5.74537e-05 -2.90991e-05 1.00052 
5.74537e-05 -2.90991e-05 1.00052 
5.74537e-05 -2.90991e-05 1.00052 
5.74537e-05 -2.90991e-05 1.00052 
-0.000613399 3.70185e-05 0.998456 
-0.000613399 3.70185e-05 0.998456 
-0.000613399 3.70185e-05 0.998456 
-0.000613399 3.70185e-05 0.998456 
-0.000155329 0.000251075 1.00011 
-0.000155329 0.000251075 1.00011 
-0.000155329 0.000251075 1.00011 
-0.000155329 0.000251075 1.00011 
9.63324e-05 0.00103337 0.996842 
9.63324e-05 0.00103337 0.996842 
9.63324e-05 0.00103337 0.996842 
9.63324e-05 0.00103337 0.996842 
0.000723393 -0.00107434 0.996947 
0.000723393 -0.00107434 0.996947 
0.000723393 -0.00107434 0.996947 
0.000723393 -0.00107434 0.996947 
5.20134e-05 -6.00954e-05 1.00052 
5.20134e-05 -6.00954e-05 1.00052 
5.20134e-05 -6.00954e-05 1.00052 
5.20134e-05 -6.00954e-05 1.00052 
9.15782e-05 0.000205408 1.00047 
9.15782e-05 0.000205408 1.00047 
9.15782e-05 0.000205408 1.00047 
9.15782e-05 0.000205408 1.00047 
-0.000148286 0.00048315 0.997093 
-0.000148286 0.00048315 0.997093 
-0.000148286 0.00048315 0.997093 
-0.000148286 0.00048315 0.997093 
-7.01558e-05 -7.81738e-05 1.00048 
-7.01558e-05 -7.81738e-05 1.00048 
-7.01558e-05 -7.81738e-05 1.00048 
-7.01558e-05 -7.81738e-05 1.00048 
0.000382941 -0.000580907 0.998835 
0.000382941 -0.000580907 0.998835 
0.000382941 -0.000580907 0.998835 
0.000382941 -0.000580907 0.998835 
0.000102472 -0.00120641 0.998856 
0.000102472 -0.00120641 0.998856 
0.000102472 -0.00120641 0.998856 
0.000102472 -0.00120641 0.998856 
5.26547e-05 -0.000810974 0.999271 
5.26547e-05 -0.000810974 0.999271 
5.26547e-05 -0.000810974 0.999271 
5.26547e-05 -0.000810974 0.999271 
0.000314998 0.000423337 0.999094 
0.000314998 0.000423337 0.999094 
0.000314998 0.000423337 0.999094 
0.000314998 0.000423337 0.999094 
0.000616482 -0.000936291 0.997522 
0.000616482 -0.000936291 0.997522 
0.000616482 -0.000936291 0.997522 
0.000616482 -0.000936291 0.997522 
-4.46469e-05 0.000106174 1.00059 
-4.46469e-05 0.000106174 1.00059 
-4.46469e-05 0.000106174 1.00059 
-4.46469e-05 0.000106174 1.00059 
-0.00120569 0.00153979 0.996515 
-0.00120569 0.00153979 0.996515 
-0.00120569 0.00153979 0.996515 
-0.00120569 0.00153979 0.996515 
-0.000227849 -3.72469e-05 1.00018 
-0.000227849 -3.72469e-05 1.00018 
-0.000227849 -3.72469e-05 1.00018 
-0.000227849 -3.72469e-05 1.00018 
0.000804731 -0.00117091 0.999019 
0.000804731 -0.00117091 0.999019 
0.000804731 -0.00117091 0.999019 
0.000804731 -0.00117091 0.999019 
-0.00031737 -0.000163768 0.996556 
-0.00031737 -0.000163768 0.996556 
-0.00031737 -0.000163768 0.996556 
-0.00031737 -0.000163768 0.996556 
-0.000144574 7.45575e-05 0.999885 
-0.000144574 7.45575e-05 0.999885 
-0.000144574 7.45575e-05 0.999885 
-0.000144574 7.45575e-05 0.999885 
0.000494253 0.000196818 0.997447 
0.000494253 0.000196818 0.997447 
0.000494253 0.000196818 0.997447 
0.000494253 0.000196818 0.997447 
0.000996181 0.000188537 0.997484 
0.000996181 0.000188537 0.997484 
0.000996181 0.000188537 0.997484 
0.000996181 0.000188537 0.997484 
-0.000172309 -0.000440313 0.998673 
-0.000172309 -0.000440313 0.998673 
-0.000172309 -0.000440313 0.998673 
-0.000172309 -0.000440313 0.998673 
5.0678e-05 0.000260086 0.999067 
5.0678e-05 0.000260086 0.999067 
5.0678e-05 0.000260086 0.999067 
5.0678e-05 0.000260086 0.999067 
-0.00148085 -0.000641051 0.997133 
-0.00148085 -0.000641051 0.997133 
-0.00148085 -0.000641051 0.997133 
-0.00148085 -0.000641051 0.997133 
0.000304595 3.96171e-05 1.00019 
0.000304595 3.96171e-05 1.00019 
0.000304595 3.96171e-05 1.00019 
0.000304595 3.96171e-05 1.00019 
-0.000277665 -6.21431e-05 0.99958 
-0.000277665 -6.21431e-05 0.99958 
-0.000277665 -6.21431e-05 0.99958 
-0.000277665 -6.21431e-05 0.99958 
0.000321224 0.00092679 0.996904 
0.000321224 0.00092679 0.996904 
0.000321224 0.00092679 0.996904 
0.000321224 0.00092679 0.996904 
0.00179786 0.000467591 0.996845 
0.00179786 0.000467591 0.996845 
0.00179786 0.000467591 0.996845 
0.00179786 0.000467591 0.996845 
-0.000157709 0.000102553 1.0005 
-0.000157709 0.000102553 1.0005 
-0.000157709 0.000102553 1.0005 
-0.000157709 0.000102553 1.0005 
0.000167299 -0.000176777 1.00016 
0.000167299 -0.000176777 1.00016 
0.000167299 -0.000176777 1.00016 
0.000167299 -0.000176777 1.00016 
-0.000557299 -0.000241078 0.99887 
-0.000557299 -0.000241078 0.99887 
-0.000557299 -0.000241078 0.99887 
-0.000557299 -0.000241078 0.99887 
8.31369e-05 0.000143155 0.996962 
8.31369e-05 0.000143155 0.996962 
8.31369e-05 0.000143155 0.996962 
8.31369e-05 0.000143155 0.996962 
-2.03488e-05 0.000361467 0.998887 
-2.03488e-05 0.000361467 0.998887 
-2.03488e-05 0.000361467 0.998887 
-2.03488e-05 0.000361467 0.998887 
0.000561043 0.000658879 0.996092 
0.000561043 0.000658879 0.996092 
0.000561043 0.000658879 0.996092 
0.000561043 0.000658879 0.996092 
0.000132491 -0.000235282 0.999822 
0.000132491 -0.000235282 0.999822 
0.000132491 -0.000235282 0.999822 
0.000132491 -0.000235282 0.999822 
-8.77472e-05 -5.52648e-06 1.00052 
-8.77472e-05 -5.52648e-06 1.00052 
-8.77472e-05 -5.52648e-06 1.00052 
-8.77472e-05 -5.52648e-06 1.00052 
-0.000179002 -0.000881669 0.996708 
-0.000179002 -0.000881669 0.996708 
-0.000179002 -0.000881669 0.996708 
-0.000179002 -0.000881669 0.996708 
-0.000419008 -0.000189294 0.99887 
-0.000419008 -0.000189294 0.99887 
-0.000419008 -0.000189294 0.99887 
-0.000419008 -0.000189294 0.99887 
0.000846022 0.000600443 0.998474 
0.000846022 0.000600443 0.998474 
0.000846022 0.000600443 0.998474 
0.000846022 0.000600443 0.998474 
0.00019371 -0.00013852 1.00041 
0.00019371 -0.00013852 1.00041 
0.00019371 -0.00013852 1.00041 
0.00019371 -0.00013852 1.00041 
0.000309096 -0.000385871 0.996866 
0.000309096 -0.000385871 0.996866 
0.000309096 -0.000385871 0.996866 
0.000309096 -0.000385871 0.996866 
0.0008613 -0.00103805 0.997673 
0.0008613 -0.00103805 0.997673 
0.0008613 -0.00103805 0.997673 
0.0008613 -0.00103805 0.997673 
0.000985462 -0.000637698 0.996367 
0.000985462 -0.000637698 0.996367 
0.000985462 -0.000637698 0.996367 
0.000985462 -0.000637698 0.996367 
-1.48407e-05 0.000464791 0.999826 
-1.48407e-05 0.000464791 0.999826 
-1.48407e-05 0.000464791 0.999826 
-1.48407e-05 0.000464791 0.999826 
-0.000548554 -1.05957e-05 0.999404 
-0.000548554 -1.05957e-05 0.999404 
-0.000548554 -1.05957e-05 0.999404 
-0.000548554 -1.05957e-05 0.999404 
-0.000718619 0.000371867 0.997112 
-0.000718619 0.000371867 0.997112 
-0.000718619 0.000371867 0.997112 
-0.000718619 0.000371867 0.997112 
-0.000507371 0.000347134 0.999044 
-0.000507371 0.000347134 0.999044 
-0.000507371 0.000347134 0.999044 
-0.000507371 0.000347134 0.999044 
-4.5419e-05 3.96966e-06 1.00052 
-4.5419e-05 3.96966e-06 1.00052 
-4.5419e-05 3.96966e-06 1.00052 
-4.5419e-05 3.96966e-06 1.00052 
-3.32838e-05 -0.000195576 0.999078 
-3.32838e-05 -0.000195576 0.999078 
-3.32838e-05 -0.000195576 0.999078 
-3.32838e-05 -0.000195576 0.999078 
-0.000740519 0.000158152 0.99611 
-0.000740519 0.000158152 0.99611 
-0.000740519 0.000158152 0.99611 
-0.000740519 0.000158152 0.99611 
0.000209016 0.0002822 0.99974 
0.000209016 0.0002822 0.99974 
0.000209016 0.0002822 0.99974 
0.000209016 0.0002822 0.99974 
-0.000157142 0.000552088 0.999833 
-0.000157142 0.000552088 0.999833 
-0.000157142 0.000552088 0.999833 
-0.000157142 0.000552088 0.999833 
0.000771954 -5.61115e-05 0.997439 
0.000771954 -5.61115e-05 0.997439 
0.000771954 -5.61115e-05 0.997439 
0.000771954 -5.61115e-05 0.997439 
-7.39201e-06 3.55529e-05 1.00047 
-7.39201e-06 3.55529e-05 1.00047 
-7.39201e-06 3.55529e-05 1.00047 
-7.39201e-06 3.55529e-05 1.00047 
-2.77551e-05 -0.000293236 1.00019 
-2.77551e-05 -0.000293236 1.00019 
-2.77551e-05 -0.000293236 1.00019 
-2.77551e-05 -0.000293236 1.00019 
0.000140366 -0.000186467 0.999491 
0.000140366 -0.000186467 0.999491 
0.000140366 -0.000186467 0.999491 
0.000140366 -0.000186467 0.999491 
0.00170265 -0.000172192 0.99637 
0.00170265 -0.000172192 0.99637 
0.00170265 -0.000172192 0.99637 
0.00170265 -0.000172192 0.99637 
0.000471976 0.00181742 0.996902 
0.000471976 0.00181742 0.996902 
0.000471976 0.00181742 0.996902 
0.000471976 0.00181742 0.996902 
-0.000149233 0.00140998 0.998293 
-0.000149233 0.00140998 0.998293 
-0.000149233 0.00140998 0.998293 
-0.000149233 0.00140998 0.998293 
-0.000103164 0.000897443 0.996872 
-0.000103164 0.000897443 0.996872 
-0.000103164 0.000897443 0.996872 
-0.000103164 0.000897443 0.996872 
0.000295987 0.000546187 0.998825 
0.000295987 0.000546187 0.998825 
0.000295987 0.000546187 0.998825 
0.000295987 0.000546187 0.998825 
-0.000475197 -0.00102264 0.996359 
-0.000475197 -0.00102264 0.996359 
-0.000475197 -0.00102264 0.996359 
-0.000475197 -0.00102264 0.996359 
-0.00191468 0.000631657 0.997179 
-0.00191468 0.000631657 0.997179 
-0.00191468 0.000631657 0.997179 
-0.00191468 0.000631657 0.997179 
0.000272002 9.19905e-05 0.999154 
0.000272002 9.19905e-05 0.999154 
0.000272002 9.19905e-05 0.999154 
0.000272002 9.19905e-05 0.999154 
-0.000153584 5.55205e-05 1.0004 
-0.000153584 5.55205e-05 1.0004 
-0.000153584 5.55205e-05 1.0004 
-0.000153584 5.55205e-05 1.0004 
4.63732e-05 0.000270618 0.999932 
4.63732e-05 0.000270618 0.999932 
4.63732e-05 0.000270618 0.999932 
4.63732e-05 0.000270618 0.999932 
-3.13102e-05 -0.000999763 0.99668 
-3.13102e-05 -0.000999763 0.99668 
-3.13102e-05 -0.000999763 0.99668 
-3.13102e-05 -0.000999763 0.99668 
-1.35629e-05 0.00159861 0.998499 
-1.35629e-05 0.00159861 0.998499 
-1.35629e-05 0.00159861 0.998499 
-1.35629e-05 0.00159861 0.998499 
0.000337677 5.38442e-05 0.999743 
0.000337677 5.38442e-05 0.999743 
0.000337677 5.38442e-05 0.999743 
0.000337677 5.38442e-05 0.999743 
-1.30278e-05 0.000213872 0.999948 
-1.30278e-05 0.000213872 0.999948 
-1.30278e-05 0.000213872 0.999948 
-1.30278e-05 0.000213872 0.999948 
0.000756531 -0.000504872 0.996975 
0.000756531 -0.000504872 0.996975 
0.000756531 -0.000504872 0.996975 
0.000756531 -0.000504872 0.996975 
0.000764702 -0.00136702 0.998023 
0.000764702 -0.00136702 0.998023 
0.000764702 -0.00136702 0.998023 
0.000764702 -0.00136702 0.998023 
0.000184038 -0.000329484 0.996387 
0.000184038 -0.000329484 0.996387 
0.000184038 -0.000329484 0.996387 
0.000184038 -0.000329484 0.996387 
2.63004e-05 -1.0579e-06 1.00053 
2.63004e-05 -1.0579e-06 1.00053 
2.63004e-05 -1.0579e-06 1.00053 
2.63004e-05 -1.0579e-06 1.00053 
0.00163772 0.000148832 0.99695 
0.00163772 0.000148832 0.99695 
0.00163772 0.000148832 0.99695 
0.00163772 0.000148832 0.99695 
0.00143744 0.000853048 0.997973 
0.00143744 0.000853048 0.997973 
0.00143744 0.000853048 0.997973 
0.00143744 0.000853048 0.997973 
3.413e-05 0.000227729 1.00036 
3.413e-05 0.000227729 1.00036 
3.413e-05 0.000227729 1.00036 
3.413e-05 0.000227729 1.00036 
0.000582888 0.000432238 0.999006 
0.000582888 0.000432238 0.999006 
0.000582888 0.000432238 0.999006 
0.000582888 0.000432238 0.999006 
9.26751e-05 -0.00133468 0.997105 
9.26751e-05 -0.00133468 0.997105 
9.26751e-05 -0.00133468 0.997105 
9.26751e-05 -0.00133468 0.997105 
-5.32229e-05 1.32724e-05 1.00052 
-5.32229e-05 1.32724e-05 1.00052 
-5.32229e-05 1.32724e-05 1.00052 
-5.32229e-05 1.32724e-05 1.00052 
-1.20584e-05 0.000892549 0.998917 
-1.20584e-05 0.000892549 0.998917 
-1.20584e-05 0.000892549 0.998917 
-1.20584e-05 0.000892549 0.998917 
0.000120004 0.000300715 0.99914 
0.000120004 0.000300715 0.99914 
0.000120004 0.000300715 0.99914 
0.000120004 0.000300715 0.99914 
-1.87259e-05 -0.000960547 0.996686 
-1.87259e-05 -0.000960547 0.996686 
-1.87259e-05 -0.000960547 0.996686 
-1.87259e-05 -0.000960547 0.996686 
-4.54611e-05 3.27599e-05 0.99644 
-4.54611e-05 3.27599e-05 0.99644 
-4.54611e-05 3.27599e-05 0.99644 
-4.54611e-05 3.27599e-05 0.99644 
-3.92965e-05 0.000152393 0.998382 
-3.92965e-05 0.000152393 0.998382 
-3.92965e-05 0.000152393 0.998382 
-3.92965e-05 0.000152393 0.998382 
-0.000191663 0.000136588 1.00039 
-0.000191663 0.000136588 1.00039 
-0.000191663 0.000136588 1.00039 
-0.000191663 0.000136588 1.00039 
-0.000790031 0.00124574 0.996592 
-0.000790031 0.00124574 0.996592 
-0.000790031 0.00124574 0.996592 
-0.000790031 0.00124574 0.996592 
-0.000526984 0.000320914 0.999041 
-0.000526984 0.000320914 0.999041 
-0.000526984 0.000320914 0.999041 
-0.000526984 0.000320914 0.999041 
-0.000200114 -0.00129322 0.997366 
-0.000200114 -0.00129322 0.997366 
-0.000200114 -0.00129322 0.997366 
-0.000200114 -0.00129322 0.997366 
-0.000175358 -0.000144382 0.999037 
-0.000175358 -0.000144382 0.999037 
-0.000175358 -0.000144382 0.999037 
-0.000175358 -0.000144382 0.999037 
-0.00019526 6.44221e-05 1.00048 
-0.00019526 6.44221e-05 1.00048 
-0.00019526 6.44221e-05 1.00048 
-0.00019526 6.44221e-05 1.00048 
-3.37055e-06 -4.30353e-05 1.00053 
-3.37055e-06 -4.30353e-05 1.00053 
-3.37055e-06 -4.30353e-05 1.00053 
-3.37055e-06 -4.30353e-05 1.00053 
5.87202e-05 0.000106701 1.0005 
5.87202e-05 0.000106701 1.0005 
5.87202e-05 0.000106701 1.0005 
5.87202e-05 0.000106701 1.0005 
-0.00236967 -0.000921254 0.996765 
-0.00236967 -0.000921254 0.996765 
-0.00236967 -0.000921254 0.996765 
-0.00236967 -0.000921254 0.996765 
-4.78765e-05 2.4044e-05 1.00052 
-4.78765e-05 2.4044e-05 1.00052 
-4.78765e-05 2.4044e-05 1.00052 
-4.78765e-05 2.4044e-05 1.00052 
-7.59015e-05 -0.000379714 0.999538 
-7.59015e-05 -0.000379714 0.999538 
-7.59015e-05 -0.000379714 0.999538 
-7.59015e-05 -0.000379714 0.999538 
0.000312927 0.000640758 0.999597 
0.000312927 0.000640758 0.999597 
0.000312927 0.000640758 0.999597 
0.000312927 0.000640758 0.999597 
-0.000336063 -0.000532115 0.996113 
-0.000336063 -0.000532115 0.996113 
-0.000336063 -0.000532115 0.996113 
-0.000336063 -0.000532115 0.996113 
-0.0002266 4.24472e-05 0.998868 
-0.0002266 4.24472e-05 0.998868 
-0.0002266 4.24472e-05 0.998868 
-0.0002266 4.24472e-05 0.998868 
0.000172155 0.00149722 0.996841 
0.000172155 0.00149722 0.996841 
0.000172155 0.00149722 0.996841 
0.000172155 0.00149722 0.996841 
8.50704e-06 6.35101e-05 1.00049 
8.50704e-06 6.35101e-05 1.00049 
8.50704e-06 6.35101e-05 1.00049 
8.50704e-06 6.35101e-05 1.00049 
-0.000295358 0.000399793 0.99902 
-0.000295358 0.000399793 0.99902 
-0.000295358 0.000399793 0.99902 
-0.000295358 0.000399793 0.99902 
-0.000235995 -0.000157373 0.998614 
-0.000235995 -0.000157373 0.998614 
-0.000235995 -0.000157373 0.998614 
-0.000235995 -0.000157373 0.998614 
-0.000259011 4.27593e-06 0.99978 
-0.000259011 4.27593e-06 0.99978 
-0.000259011 4.27593e-06 0.99978 
-0.000259011 4.27593e-06 0.99978 
-0.000431254 0.000639201 0.996707 
-0.000431254 0.000639201 0.996707 
-0.000431254 0.000639201 0.996707 
-0.000431254 0.000639201 0.996707 
8.53865e-06 5.90249e-05 1.00049 
8.53865e-06 5.90249e-05 1.00049 
8.53865e-06 5.90249e-05 1.00049 
8.53865e-06 5.90249e-05 1.00049 
0.000714357 -0.000481066 0.997429 
0.000714357 -0.000481066 0.997429 
0.000714357 -0.000481066 0.997429 
0.000714357 -0.000481066 0.997429 
-0.000133544 -0.000944292 0.996776 
-0.000133544 -0.000944292 0.996776 
-0.000133544 -0.000944292 0.996776 
-0.000133544 -0.000944292 0.996776 
9.97316e-05 0.000845129 0.996837 
9.97316e-05 0.000845129 0.996837 
9.97316e-05 0.000845129 0.996837 
9.97316e-05 0.000845129 0.996837 
0.000385767 -0.000182881 0.996717 
0.000385767 -0.000182881 0.996717 
0.000385767 -0.000182881 0.996717 
0.000385767 -0.000182881 0.996717 
-0.00183425 -0.000957792 0.996973 
-0.00183425 -0.000957792 0.996973 
-0.00183425 -0.000957792 0.996973 
-0.00183425 -0.000957792 0.996973 
-0.000654675 -0.00037222 0.996935 
-0.000654675 -0.00037222 0.996935 
-0.000654675 -0.00037222 0.996935 
-0.000654675 -0.00037222 0.996935 
-0.000327112 0.000292729 0.999266 
-0.000327112 0.000292729 0.999266 
-0.000327112 0.000292729 0.999266 
-0.000327112 0.000292729 0.999266 
0.000448603 0.000341019 0.997057 
0.000448603 0.000341019 0.997057 
0.000448603 0.000341019 0.997057 
0.000448603 0.000341019 0.997057 
0.00238466 0.00133435 0.997153 
0.00238466 0.00133435 0.997153 
0.00238466 0.00133435 0.997153 
0.00238466 0.00133435 0.997153 
-0.000140521 -0.00111414 0.998148 
-0.000140521 -0.00111414 0.998148 
-0.000140521 -0.00111414 0.998148 
-0.000140521 -0.00111414 0.998148 
0.000909764 0.000312867 0.997028 
0.000909764 0.000312867 0.997028 
0.000909764 0.000312867 0.997028 
0.000909764 0.000312867 0.997028 
3.01591e-06 0.000159655 1.00048 
3.01591e-06 0.000159655 1.00048 
3.01591e-06 0.000159655 1.00048 
3.01591e-06 0.000159655 1.00048 
-6.92403e-05 1.43431e-06 1.00051 
-6.92403e-05 1.43431e-06 1.00051 
-6.92403e-05 1.43431e-06 1.00051 
-6.92403e-05 1.43431e-06 1.00051 
9.27716e-06 0.000157548 0.998219 
9.27716e-06 0.000157548 0.998219 
9.27716e-06 0.000157548 0.998219 
9.27716e-06 0.000157548 0.998219 
-0.00012717 -4.50112e-05 1.00048 
-0.00012717 -4.50112e-05 1.00048 
-0.00012717 -4.50112e-05 1.00048 
-0.00012717 -4.50112e-05 1.00048 
-0.0011678 1.72584e-05 0.996134 
-0.0011678 1.72584e-05 0.996134 
-0.0011678 1.72584e-05 0.996134 
-0.0011678 1.72584e-05 0.996134 
-0.0010707 -6.44907e-05 0.99664 
-0.0010707 -6.44907e-05 0.99664 
-0.0010707 -6.44907e-05 0.99664 
-0.0010707 -6.44907e-05 0.99664 
0.000121493 0.000138423 0.999567 
0.000121493 0.000138423 0.999567 
0.000121493 0.000138423 0.999567 
0.000121493 0.000138423 0.999567 
-0.000474401 0.000567312 0.99668 
-0.000474401 0.000567312 0.99668 
-0.000474401 0.000567312 0.99668 
-0.000474401 0.000567312 0.99668 
-3.61336e-06 7.21815e-05 1.00052 
-3.61336e-06 7.21815e-05 1.00052 
-3.61336e-06 7.21815e-05 1.00052 
-3.61336e-06 7.21815e-05 1.00052 
0.000614543 -0.000922999 0.999249 
0.000614543 -0.000922999 0.999249 
0.000614543 -0.000922999 0.999249 
0.000614543 -0.000922999 0.999249 
0.000160001 0.000212645 1.00026 
0.000160001 0.000212645 1.00026 
0.000160001 0.000212645 1.00026 
0.000160001 0.000212645 1.00026 
-0.000614925 0.000406249 0.99736 
-0.000614925 0.000406249 0.99736 
-0.000614925 0.000406249 0.99736 
-0.000614925 0.000406249 0.99736 
-0.000220715 -2.54059e-05 0.998697 
-0.000220715 -2.54059e-05 0.998697 
-0.000220715 -2.54059e-05 0.998697 
-0.000220715 -2.54059e-05 0.998697 
-0.000234424 -0.000151267 0.99973 
-0.000234424 -0.000151267 0.99973 
-0.000234424 -0.000151267 0.99973 
-0.000234424 -0.000151267 0.99973 
-7.55265e-05 3.41036e-05 1.00055 
-7.55265e-05 3.41036e-05 1.00055 
-7.55265e-05 3.41036e-05 1.00055 
-7.55265e-05 3.41036e-05 1.00055 
0.000277075 9.38553e-07 0.999804 
0.000277075 9.38553e-07 0.999804 
0.000277075 9.38553e-07 0.999804 
0.000277075 9.38553e-07 0.999804 
8.64567e-05 -0.000243698 0.999604 
8.64567e-05 -0.000243698 0.999604 
8.64567e-05 -0.000243698 0.999604 
8.64567e-05 -0.000243698 0.999604 
-0.00028708 0.000534113 0.998679 
-0.00028708 0.000534113 0.998679 
-0.00028708 0.000534113 0.998679 
-0.00028708 0.000534113 0.998679 
0.000260608 0.000376676 0.998773 
0.000260608 0.000376676 0.998773 
0.000260608 0.000376676 0.998773 
0.000260608 0.000376676 0.998773 
0.000584268 2.52206e-05 0.997439 
0.000584268 2.52206e-05 0.997439 
0.000584268 2.52206e-05 0.997439 
0.000584268 2.52206e-05 0.997439 
0.000152506 0.000504385 0.999295 
0.000152506 0.000504385 0.999295 
0.000152506 0.000504385 0.999295 
0.000152506 0.000504385 0.999295 
0.000273472 0.000317179 0.999673 
0.000273472 0.000317179 0.999673 
0.000273472 0.000317179 0.999673 
0.000273472 0.000317179 0.999673 
0.000419402 0.000220057 0.996545 
0.000419402 0.000220057 0.996545 
0.000419402 0.000220057 0.996545 
0.000419402 0.000220057 0.996545 
-0.000570495 4.83979e-05 0.999408 
-0.000570495 4.83979e-05 0.999408 
-0.000570495 4.83979e-05 0.999408 
-0.000570495 4.83979e-05 0.999408 
0.000136385 0.000755439 0.998952 
0.000136385 0.000755439 0.998952 
0.000136385 0.000755439 0.998952 
0.000136385 0.000755439 0.998952 
-1.36373e-05 -8.05851e-05 1.00049 
-1.36373e-05 -8.05851e-05 1.00049 
-1.36373e-05 -8.05851e-05 1.00049 
-1.36373e-05 -8.05851e-05 1.00049 
1.50542e-05 -0.000112614 1.00047 
1.50542e-05 -0.000112614 1.00047 
1.50542e-05 -0.000112614 1.00047 
1.50542e-05 -0.000112614 1.00047 
-0.000209597 -0.000514346 0.999488 
-0.000209597 -0.000514346 0.999488 
-0.000209597 -0.000514346 0.999488 
-0.000209597 -0.000514346 0.999488 
-0.000961132 -0.000436434 0.996634 
-0.000961132 -0.000436434 0.996634 
-0.000961132 -0.000436434 0.996634 
-0.000961132 -0.000436434 0.996634 
6.87922e-05 -0.000689112 0.999123 
6.87922e-05 -0.000689112 0.999123 
6.87922e-05 -0.000689112 0.999123 
6.87922e-05 -0.000689112 0.999123 
-0.00030552 -0.000545244 0.999018 
-0.00030552 -0.000545244 0.999018 
-0.00030552 -0.000545244 0.999018 
-0.00030552 -0.000545244 0.999018 
0.000331314 -8.30718e-05 0.999877 
0.000331314 -8.30718e-05 0.999877 
0.000331314 -8.30718e-05 0.999877 
0.000331314 -8.30718e-05 0.999877 
0.000306416 0.00124583 0.998496 
0.000306416 0.00124583 0.998496 
0.000306416 0.00124583 0.998496 
0.000306416 0.00124583 0.998496 
-0.00127435 0.000294018 0.997378 
-0.00127435 0.000294018 0.997378 
-0.00127435 0.000294018 0.997378 
-0.00127435 0.000294018 0.997378 
-4.11383e-05 0.000758173 0.998986 
-4.11383e-05 0.000758173 0.998986 
-4.11383e-05 0.000758173 0.998986 
-4.11383e-05 0.000758173 0.998986 
-3.56582e-05 -0.000835082 0.998763 
-3.56582e-05 -0.000835082 0.998763 
-3.56582e-05 -0.000835082 0.998763 
-3.56582e-05 -0.000835082 0.998763 
0.00038385 -0.000562773 0.99926 
0.00038385 -0.000562773 0.99926 
0.00038385 -0.000562773 0.99926 
0.00038385 -0.000562773 0.99926 
-4.54611e-05 3.27599e-05 0.99644 
-4.54611e-05 3.27599e-05 0.99644 
-4.54611e-05 3.27599e-05 0.99644 
-4.54611e-05 3.27599e-05 0.99644 
4.57606e-05 -0.000195211 0.998458 
4.57606e-05 -0.000195211 0.998458 
4.57606e-05 -0.000195211 0.998458 
4.57606e-05 -0.000195211 0.998458 
-4.57404e-05 -0.00016395 0.998338 
-4.57404e-05 -0.00016395 0.998338 
-4.57404e-05 -0.00016395 0.998338 
-4.57404e-05 -0.00016395 0.998338 
-4.57404e-05 -0.00016395 0.998338 
-4.57404e-05 -0.00016395 0.998338 
-4.57404e-05 -0.00016395 0.998338 
-4.57404e-05 -0.00016395 0.998338 
0.000130741 -0.000190746 0.998688 
0.000130741 -0.000190746 0.998688 
0.000130741 -0.000190746 0.998688 
0.000130741 -0.000190746 0.998688 
-0.000445326 -0.000257017 0.997479 
-0.000445326 -0.000257017 0.997479 
-0.000445326 -0.000257017 0.997479 
-0.000445326 -0.000257017 0.997479 
0.00135529 0.000204847 0.998284 
0.00135529 0.000204847 0.998284 
0.00135529 0.000204847 0.998284 
0.00135529 0.000204847 0.998284 
0.000235657 -0.000139314 0.999793 
0.000235657 -0.000139314 0.999793 
0.000235657 -0.000139314 0.999793 
0.000235657 -0.000139314 0.999793 
0.00136789 0.00018297 0.996009 
0.00136789 0.00018297 0.996009 
0.00136789 0.00018297 0.996009 
0.00136789 0.00018297 0.996009 
-0.0001476 -0.000270683 0.999965 
-0.0001476 -0.000270683 0.999965 
-0.0001476 -0.000270683 0.999965 
-0.0001476 -0.000270683 0.999965 
0.00020869 -0.000118117 0.996579 
0.00020869 -0.000118117 0.996579 
0.00020869 -0.000118117 0.996579 
0.00020869 -0.000118117 0.996579 
-0.000527346 0.000214226 0.996562 
-0.000527346 0.000214226 0.996562 
-0.000527346 0.000214226 0.996562 
-0.000527346 0.000214226 0.996562 
-0.000995896 -0.000329429 0.996203 
-0.000995896 -0.000329429 0.996203 
-0.000995896 -0.000329429 0.996203 
-0.000995896 -0.000329429 0.996203 
-0.000591374 -0.000420923 0.997033 
-0.000591374 -0.000420923 0.997033 
-0.000591374 -0.000420923 0.997033 
-0.000591374 -0.000420923 0.997033 
-0.000323044 -0.000921903 0.996234 
-0.000323044 -0.000921903 0.996234 
-0.000323044 -0.000921903 0.996234 
-0.000323044 -0.000921903 0.996234 
-0.000400834 0.000421359 0.999416 
-0.000400834 0.000421359 0.999416 
-0.000400834 0.000421359 0.999416 
-0.000400834 0.000421359 0.999416 
0.000282203 -0.000781786 0.997456 
0.000282203 -0.000781786 0.997456 
0.000282203 -0.000781786 0.997456 
0.000282203 -0.000781786 0.997456 
0.000515208 -0.000357962 0.997408 
0.000515208 -0.000357962 0.997408 
0.000515208 -0.000357962 0.997408 
0.000515208 -0.000357962 0.997408 
-0.000301723 0.000134828 0.999712 
-0.000301723 0.000134828 0.999712 
-0.000301723 0.000134828 0.999712 
-0.000301723 0.000134828 0.999712 
-0.000110173 0.00107926 0.996635 
-0.000110173 0.00107926 0.996635 
-0.000110173 0.00107926 0.996635 
-0.000110173 0.00107926 0.996635 
8.06454e-05 0.000420227 0.999701 
8.06454e-05 0.000420227 0.999701 
8.06454e-05 0.000420227 0.999701 
8.06454e-05 0.000420227 0.999701 
8.64567e-05 -0.000243698 0.999604 
8.64567e-05 -0.000243698 0.999604 
8.64567e-05 -0.000243698 0.999604 
8.64567e-05 -0.000243698 0.999604 
0.000179881 0.000249541 0.999693 
0.000179881 0.000249541 0.999693 
0.000179881 0.000249541 0.999693 
0.000179881 0.000249541 0.999693 
0.000847561 0.00010231 0.996535 
0.000847561 0.00010231 0.996535 
0.000847561 0.00010231 0.996535 
0.000847561 0.00010231 0.996535 
0.000241592 -6.75078e-05 0.999022 
0.000241592 -6.75078e-05 0.999022 
0.000241592 -6.75078e-05 0.999022 
0.000241592 -6.75078e-05 0.999022 
-7.7603e-05 -4.06068e-05 1.00046 
-7.7603e-05 -4.06068e-05 1.00046 
-7.7603e-05 -4.06068e-05 1.00046 
-7.7603e-05 -4.06068e-05 1.00046 
-0.000252735 0.00015634 0.99934 
-0.000252735 0.00015634 0.99934 
-0.000252735 0.00015634 0.99934 
-0.000252735 0.00015634 0.99934 
0.000173681 0.000147959 1.00047 
0.000173681 0.000147959 1.00047 
0.000173681 0.000147959 1.00047 
0.000173681 0.000147959 1.00047 
2.88607e-06 -0.000284491 0.999051 
2.88607e-06 -0.000284491 0.999051 
2.88607e-06 -0.000284491 0.999051 
2.88607e-06 -0.000284491 0.999051 
8.35177e-06 -0.000403127 0.996477 
8.35177e-06 -0.000403127 0.996477 
8.35177e-06 -0.000403127 0.996477 
8.35177e-06 -0.000403127 0.996477 
0.000184231 -0.000190935 0.998885 
0.000184231 -0.000190935 0.998885 
0.000184231 -0.000190935 0.998885 
0.000184231 -0.000190935 0.998885 
0.000673075 0.000870928 0.994257 
0.000673075 0.000870928 0.994257 
0.000673075 0.000870928 0.994257 
0.000673075 0.000870928 0.994257 
-0.000270139 0.00111789 0.997211 
-0.000270139 0.00111789 0.997211 
-0.000270139 0.00111789 0.997211 
-0.000270139 0.00111789 0.997211 
-2.53282e-05 0.000276831 1.00018 
-2.53282e-05 0.000276831 1.00018 
-2.53282e-05 0.000276831 1.00018 
-2.53282e-05 0.000276831 1.00018 
0.000743643 0.00201462 0.996931 
0.000743643 0.00201462 0.996931 
0.000743643 0.00201462 0.996931 
0.000743643 0.00201462 0.996931 
-0.000148659 -0.00026235 0.999603 
-0.000148659 -0.00026235 0.999603 
-0.000148659 -0.00026235 0.999603 
-0.000148659 -0.00026235 0.999603 
8.39889e-05 -0.000639539 0.997415 
8.39889e-05 -0.000639539 0.997415 
8.39889e-05 -0.000639539 0.997415 
8.39889e-05 -0.000639539 0.997415 
-0.000195802 -0.00014619 1.00026 
-0.000195802 -0.00014619 1.00026 
-0.000195802 -0.00014619 1.00026 
-0.000195802 -0.00014619 1.00026 
-0.000259011 4.27593e-06 0.99978 
-0.000259011 4.27593e-06 0.99978 
-0.000259011 4.27593e-06 0.99978 
-0.000259011 4.27593e-06 0.99978 
-0.000154641 0.000164963 0.998453 
-0.000154641 0.000164963 0.998453 
-0.000154641 0.000164963 0.998453 
-0.000154641 0.000164963 0.998453 
0.000984847 0.000183316 0.997034 
0.000984847 0.000183316 0.997034 
0.000984847 0.000183316 0.997034 
0.000984847 0.000183316 0.997034 
-0.000155697 0.000278101 0.999841 
-0.000155697 0.000278101 0.999841 
-0.000155697 0.000278101 0.999841 
-0.000155697 0.000278101 0.999841 
0.000101712 -6.46876e-05 1.00036 
0.000101712 -6.46876e-05 1.00036 
0.000101712 -6.46876e-05 1.00036 
0.000101712 -6.46876e-05 1.00036 
-0.000511864 -0.000968844 0.997607 
-0.000511864 -0.000968844 0.997607 
-0.000511864 -0.000968844 0.997607 
-0.000511864 -0.000968844 0.997607 
-0.00146845 -0.000690983 0.997148 
-0.00146845 -0.000690983 0.997148 
-0.00146845 -0.000690983 0.997148 
-0.00146845 -0.000690983 0.997148 
0.000343867 0.000969124 0.993767 
0.000343867 0.000969124 0.993767 
0.000343867 0.000969124 0.993767 
0.000343867 0.000969124 0.993767 
-0.00119817 0.000810972 0.996892 
-0.00119817 0.000810972 0.996892 
-0.00119817 0.000810972 0.996892 
-0.00119817 0.000810972 0.996892 
-0.000830344 -0.000496705 0.998043 
-0.000830344 -0.000496705 0.998043 
-0.000830344 -0.000496705 0.998043 
-0.000830344 -0.000496705 0.998043 
0.000121667 -4.0884e-05 0.996381 
0.000121667 -4.0884e-05 0.996381 
0.000121667 -4.0884e-05 0.996381 
0.000121667 -4.0884e-05 0.996381 
0.000394509 0.000241925 0.997041 
0.000394509 0.000241925 0.997041 
0.000394509 0.000241925 0.997041 
0.000394509 0.000241925 0.997041 
0.000251467 0.00109051 0.998304 
0.000251467 0.00109051 0.998304 
0.000251467 0.00109051 0.998304 
0.000251467 0.00109051 0.998304 
-0.000181047 -0.000102243 0.997118 
-0.000181047 -0.000102243 0.997118 
-0.000181047 -0.000102243 0.997118 
-0.000181047 -0.000102243 0.997118 
-5.55715e-05 -0.000107236 1.0005 
-5.55715e-05 -0.000107236 1.0005 
-5.55715e-05 -0.000107236 1.0005 
-5.55715e-05 -0.000107236 1.0005 
0.000246704 0.000103299 0.998533 
0.000246704 0.000103299 0.998533 
0.000246704 0.000103299 0.998533 
0.000246704 0.000103299 0.998533 
-0.000260591 3.60363e-05 1.00023 
-0.000260591 3.60363e-05 1.00023 
-0.000260591 3.60363e-05 1.00023 
-0.000260591 3.60363e-05 1.00023 
-0.00123678 0.000108818 0.997357 
-0.00123678 0.000108818 0.997357 
-0.00123678 0.000108818 0.997357 
-0.00123678 0.000108818 0.997357 
0.000241198 8.71552e-05 1.00035 
0.000241198 8.71552e-05 1.00035 
0.000241198 8.71552e-05 1.00035 
0.000241198 8.71552e-05 1.00035 
4.26374e-05 -6.82898e-05 1.00055 
4.26374e-05 -6.82898e-05 1.00055 
4.26374e-05 -6.82898e-05 1.00055 
4.26374e-05 -6.82898e-05 1.00055 
-2.7402e-06 1.1098e-05 1.00052 
-2.7402e-06 1.1098e-05 1.00052 
-2.7402e-06 1.1098e-05 1.00052 
-2.7402e-06 1.1098e-05 1.00052 
-0.000230784 0.000164462 1.00003 
-0.000230784 0.000164462 1.00003 
-0.000230784 0.000164462 1.00003 
-0.000230784 0.000164462 1.00003 
-0.000121002 0.000168731 0.998812 
-0.000121002 0.000168731 0.998812 
-0.000121002 0.000168731 0.998812 
-0.000121002 0.000168731 0.998812 
-0.000114854 0.000506816 0.997087 
-0.000114854 0.000506816 0.997087 
-0.000114854 0.000506816 0.997087 
-0.000114854 0.000506816 0.997087 
-0.000886621 -0.00109625 0.998466 
-0.000886621 -0.00109625 0.998466 
-0.000886621 -0.00109625 0.998466 
-0.000886621 -0.00109625 0.998466 
-0.00048034 -0.00045246 0.999156 
-0.00048034 -0.00045246 0.999156 
-0.00048034 -0.00045246 0.999156 
-0.00048034 -0.00045246 0.999156 
8.31369e-05 0.000143155 0.996962 
8.31369e-05 0.000143155 0.996962 
8.31369e-05 0.000143155 0.996962 
8.31369e-05 0.000143155 0.996962 
-0.000443663 0.00133154 0.997285 
-0.000443663 0.00133154 0.997285 
-0.000443663 0.00133154 0.997285 
-0.000443663 0.00133154 0.997285 
8.96503e-05 0.00139321 0.998399 
8.96503e-05 0.00139321 0.998399 
8.96503e-05 0.00139321 0.998399 
8.96503e-05 0.00139321 0.998399 
-7.37597e-05 -0.000318596 0.999789 
-7.37597e-05 -0.000318596 0.999789 
-7.37597e-05 -0.000318596 0.999789 
-7.37597e-05 -0.000318596 0.999789 
-0.000109823 4.98253e-05 1.00053 
-0.000109823 4.98253e-05 1.00053 
-0.000109823 4.98253e-05 1.00053 
-0.000109823 4.98253e-05 1.00053 
-1.51996e-05 0.00104959 0.996615 
-1.51996e-05 0.00104959 0.996615 
-1.51996e-05 0.00104959 0.996615 
-1.51996e-05 0.00104959 0.996615 
-0.000501631 0.000269195 0.996808 
-0.000501631 0.000269195 0.996808 
-0.000501631 0.000269195 0.996808 
-0.000501631 0.000269195 0.996808 
0.000369064 -0.00121001 0.997487 
0.000369064 -0.00121001 0.997487 
0.000369064 -0.00121001 0.997487 
0.000369064 -0.00121001 0.997487 
0.000836496 0.00022541 0.996386 
0.000836496 0.00022541 0.996386 
0.000836496 0.00022541 0.996386 
0.000836496 0.00022541 0.996386 
6.09363e-05 -1.63218e-05 1.00047 
6.09363e-05 -1.63218e-05 1.00047 
6.09363e-05 -1.63218e-05 1.00047 
6.09363e-05 -1.63218e-05 1.00047 
-0.00159377 0.000206921 0.996519 
-0.00159377 0.000206921 0.996519 
-0.00159377 0.000206921 0.996519 
-0.00159377 0.000206921 0.996519 
0.00046966 0.00102255 0.998453 
0.00046966 0.00102255 0.998453 
0.00046966 0.00102255 0.998453 
0.00046966 0.00102255 0.998453 
0.000235657 -0.000139314 0.999793 
0.000235657 -0.000139314 0.999793 
0.000235657 -0.000139314 0.999793 
0.000235657 -0.000139314 0.999793 
-0.000346636 0.00111374 0.993572 
-0.000346636 0.00111374 0.993572 
-0.000346636 0.00111374 0.993572 
-0.000346636 0.00111374 0.993572 
0.000218947 -0.000202 1.00013 
0.000218947 -0.000202 1.00013 
0.000218947 -0.000202 1.00013 
0.000218947 -0.000202 1.00013 
2.5772e-05 1.3318e-05 1.00052 
2.5772e-05 1.3318e-05 1.00052 
2.5772e-05 1.3318e-05 1.00052 
2.5772e-05 1.3318e-05 1.00052 
-7.65011e-05 0.000252984 0.999726 
-7.65011e-05 0.000252984 0.999726 
-7.65011e-05 0.000252984 0.999726 
-7.65011e-05 0.000252984 0.999726 
-0.000301723 0.000134828 0.999712 
-0.000301723 0.000134828 0.999712 
-0.000301723 0.000134828 0.999712 
-0.000301723 0.000134828 0.999712 
0.000471245 -0.000998549 0.997498 
0.000471245 -0.000998549 0.997498 
0.000471245 -0.000998549 0.997498 
0.000471245 -0.000998549 0.997498 
-0.000177578 -3.65935e-05 1.0005 
-0.000177578 -3.65935e-05 1.0005 
-0.000177578 -3.65935e-05 1.0005 
-0.000177578 -3.65935e-05 1.0005 
-0.000234424 -0.000151267 0.99973 
-0.000234424 -0.000151267 0.99973 
-0.000234424 -0.000151267 0.99973 
-0.000234424 -0.000151267 0.99973 
-7.65011e-05 0.000252984 0.999726 
-7.65011e-05 0.000252984 0.999726 
-7.65011e-05 0.000252984 0.999726 
-7.65011e-05 0.000252984 0.999726 
-1.68327e-05 -3.57056e-06 1.00053 
-1.68327e-05 -3.57056e-06 1.00053 
-1.68327e-05 -3.57056e-06 1.00053 
-1.68327e-05 -3.57056e-06 1.00053 
-6.62706e-05 -0.000218421 0.994931 
-6.62706e-05 -0.000218421 0.994931 
-6.62706e-05 -0.000218421 0.994931 
-6.62706e-05 -0.000218421 0.994931 
0.000627122 0.000489232 0.998119 
0.000627122 0.000489232 0.998119 
0.000627122 0.000489232 0.998119 
0.000627122 0.000489232 0.998119 
0.00035893 0.000192343 0.997606 
0.00035893 0.000192343 0.997606 
0.00035893 0.000192343 0.997606 
0.00035893 0.000192343 0.997606 
-0.000555065 0.000320849 0.99726 
-0.000555065 0.000320849 0.99726 
-0.000555065 0.000320849 0.99726 
-0.000555065 0.000320849 0.99726 
-0.000624129 -0.000397815 0.996727 
-0.000624129 -0.000397815 0.996727 
-0.000624129 -0.000397815 0.996727 
-0.000624129 -0.000397815 0.996727 
0.00106004 1.09376e-06 0.996904 
0.00106004 1.09376e-06 0.996904 
0.00106004 1.09376e-06 0.996904 
0.00106004 1.09376e-06 0.996904 
-0.00114739 0.000386096 0.993387 
-0.00114739 0.000386096 0.993387 
-0.00114739 0.000386096 0.993387 
-0.00114739 0.000386096 0.993387 
-0.000233425 0.000100853 0.998478 
-0.000233425 0.000100853 0.998478 
-0.000233425 0.000100853 0.998478 
-0.000233425 0.000100853 0.998478 
-0.000539702 0.000559102 0.996742 
-0.000539702 0.000559102 0.996742 
-0.000539702 0.000559102 0.996742 
-0.000539702 0.000559102 0.996742 
0.000132491 -0.000235282 0.999822 
0.000132491 -0.000235282 0.999822 
0.000132491 -0.000235282 0.999822 
0.000132491 -0.000235282 0.999822 
0.000564377 0.00088494 0.994861 
0.000564377 0.00088494 0.994861 
0.000564377 0.00088494 0.994861 
0.000564377 0.00088494 0.994861 
-0.00086414 0.000554536 0.994341 
-0.00086414 0.000554536 0.994341 
-0.00086414 0.000554536 0.994341 
-0.00086414 0.000554536 0.994341 
-0.000439095 -0.00158518 0.997046 
-0.000439095 -0.00158518 0.997046 
-0.000439095 -0.00158518 0.997046 
-0.000439095 -0.00158518 0.997046 
2.34121e-05 -0.000120461 1.00042 
2.34121e-05 -0.000120461 1.00042 
2.34121e-05 -0.000120461 1.00042 
2.34121e-05 -0.000120461 1.00042 
0.000769105 -0.000384662 0.99713 
0.000769105 -0.000384662 0.99713 
0.000769105 -0.000384662 0.99713 
0.000769105 -0.000384662 0.99713 
0.000216741 -0.000579108 0.997437 
0.000216741 -0.000579108 0.997437 
0.000216741 -0.000579108 0.997437 
0.000216741 -0.000579108 0.997437 
-0.000365265 -0.000226793 0.996885 
-0.000365265 -0.000226793 0.996885 
-0.000365265 -0.000226793 0.996885 
-0.000365265 -0.000226793 0.996885 
6.26702e-05 0.000432614 0.997597 
6.26702e-05 0.000432614 0.997597 
6.26702e-05 0.000432614 0.997597 
6.26702e-05 0.000432614 0.997597 
0.000884523 0.000896436 0.997963 
0.000884523 0.000896436 0.997963 
0.000884523 0.000896436 0.997963 
0.000884523 0.000896436 0.997963 
-0.000141603 0.00021825 0.99905 
-0.000141603 0.00021825 0.99905 
-0.000141603 0.00021825 0.99905 
-0.000141603 0.00021825 0.99905 
-1.5255e-05 0.000124701 1.00059 
-1.5255e-05 0.000124701 1.00059 
-1.5255e-05 0.000124701 1.00059 
-1.5255e-05 0.000124701 1.00059 
-0.0010942 0.000293996 0.993129 
-0.0010942 0.000293996 0.993129 
-0.0010942 0.000293996 0.993129 
-0.0010942 0.000293996 0.993129 
-0.00019214 0.000173974 0.999805 
-0.00019214 0.000173974 0.999805 
-0.00019214 0.000173974 0.999805 
-0.00019214 0.000173974 0.999805 
-8.36606e-05 -0.000125497 0.997157 
-8.36606e-05 -0.000125497 0.997157 
-8.36606e-05 -0.000125497 0.997157 
-8.36606e-05 -0.000125497 0.997157 
7.43954e-05 -0.000146543 1.00049 
7.43954e-05 -0.000146543 1.00049 
7.43954e-05 -0.000146543 1.00049 
7.43954e-05 -0.000146543 1.00049 
-0.000270804 0.00114472 0.993846 
-0.000270804 0.00114472 0.993846 
-0.000270804 0.00114472 0.993846 
-0.000270804 0.00114472 0.993846 
-0.000727897 -0.000925195 0.997677 
-0.000727897 -0.000925195 0.997677 
-0.000727897 -0.000925195 0.997677 
-0.000727897 -0.000925195 0.997677 
-0.000608968 -0.00116706 0.997674 
-0.000608968 -0.00116706 0.997674 
-0.000608968 -0.00116706 0.997674 
-0.000608968 -0.00116706 0.997674 
0.000301457 -0.00103169 0.993908 
0.000301457 -0.00103169 0.993908 
0.000301457 -0.00103169 0.993908 
0.000301457 -0.00103169 0.993908 
0.000790493 0.000520114 0.994272 
0.000790493 0.000520114 0.994272 
0.000790493 0.000520114 0.994272 
0.000790493 0.000520114 0.994272 
-0.000220716 -2.54059e-05 0.998697 
-0.000220716 -2.54059e-05 0.998697 
-0.000220716 -2.54059e-05 0.998697 
-0.000220716 -2.54059e-05 0.998697 
-0.000473819 -0.00014255 0.997047 
-0.000473819 -0.00014255 0.997047 
-0.000473819 -0.00014255 0.997047 
-0.000473819 -0.00014255 0.997047 
0.000277075 9.38553e-07 0.999804 
0.000277075 9.38553e-07 0.999804 
0.000277075 9.38553e-07 0.999804 
0.000277075 9.38553e-07 0.999804 
-0.000583855 -0.00103453 0.998345 
-0.000583855 -0.00103453 0.998345 
-0.000583855 -0.00103453 0.998345 
-0.000583855 -0.00103453 0.998345 
-0.000165241 -0.00138033 0.998456 
-0.000165241 -0.00138033 0.998456 
-0.000165241 -0.00138033 0.998456 
-0.000165241 -0.00138033 0.998456 
0.000866646 0.000476376 0.995038 
0.000866646 0.000476376 0.995038 
0.000866646 0.000476376 0.995038 
0.000866646 0.000476376 0.995038 
1.11059e-05 0.000192827 0.999452 
1.11059e-05 0.000192827 0.999452 
1.11059e-05 0.000192827 0.999452 
1.11059e-05 0.000192827 0.999452 
0.000578732 0.00115152 0.997968 
0.000578732 0.00115152 0.997968 
0.000578732 0.00115152 0.997968 
0.000578732 0.00115152 0.997968 
0.000146402 3.74791e-05 1.00058 
0.000146402 3.74791e-05 1.00058 
0.000146402 3.74791e-05 1.00058 
0.000146402 3.74791e-05 1.00058 
-0.000154641 0.000164963 0.998453 
-0.000154641 0.000164963 0.998453 
-0.000154641 0.000164963 0.998453 
-0.000154641 0.000164963 0.998453 
-4.80716e-05 -0.000433138 0.994441 
-4.80716e-05 -0.000433138 0.994441 
-4.80716e-05 -0.000433138 0.994441 
-4.80716e-05 -0.000433138 0.994441 
-0.000550388 -0.00043926 0.997026 
-0.000550388 -0.00043926 0.997026 
-0.000550388 -0.00043926 0.997026 
-0.000550388 -0.00043926 0.997026 
-1.71418e-05 -0.000113246 1.00044 
-1.71418e-05 -0.000113246 1.00044 
-1.71418e-05 -0.000113246 1.00044 
-1.71418e-05 -0.000113246 1.00044 
-8.36606e-05 -0.000125497 0.997157 
-8.36606e-05 -0.000125497 0.997157 
-8.36606e-05 -0.000125497 0.997157 
-8.36606e-05 -0.000125497 0.997157 
-0.000559576 2.40484e-05 0.999286 
-0.000559576 2.40484e-05 0.999286 
-0.000559576 2.40484e-05 0.999286 
-0.000559576 2.40484e-05 0.999286 
8.69278e-05 4.95017e-05 1.00045 
8.69278e-05 4.95017e-05 1.00045 
8.69278e-05 4.95017e-05 1.00045 
8.69278e-05 4.95017e-05 1.00045 
-0.00124065 -0.000233465 0.997115 
-0.00124065 -0.000233465 0.997115 
-0.00124065 -0.000233465 0.997115 
-0.00124065 -0.000233465 0.997115 
4.57606e-05 -0.000195211 0.998458 
4.57606e-05 -0.000195211 0.998458 
4.57606e-05 -0.000195211 0.998458 
4.57606e-05 -0.000195211 0.998458 
0.000577426 -0.0002208 0.999457 
0.000577426 -0.0002208 0.999457 
0.000577426 -0.0002208 0.999457 
0.000577426 -0.0002208 0.999457 
-0.00056469 4.33506e-05 0.999284 
-0.00056469 4.33506e-05 0.999284 
-0.00056469 4.33506e-05 0.999284 
-0.00056469 4.33506e-05 0.999284 
0.000685734 0.000565883 0.994859 
0.000685734 0.000565883 0.994859 
0.000685734 0.000565883 0.994859 
0.000685734 0.000565883 0.994859 
-0.00158875 -0.00045504 0.997147 
-0.00158875 -0.00045504 0.997147 
-0.00158875 -0.00045504 0.997147 
-0.00158875 -0.00045504 0.997147 
2.67513e-05 4.63008e-05 1.00048 
2.67513e-05 4.63008e-05 1.00048 
2.67513e-05 4.63008e-05 1.00048 
2.67513e-05 4.63008e-05 1.00048 
-0.000634348 0.000226494 0.99428 
-0.000634348 0.000226494 0.99428 
-0.000634348 0.000226494 0.99428 
-0.000634348 0.000226494 0.99428 
-8.76135e-05 -6.35824e-05 0.996616 
-8.76135e-05 -6.35824e-05 0.996616 
-8.76135e-05 -6.35824e-05 0.996616 
-8.76135e-05 -6.35824e-05 0.996616 
0.000159635 0.00052676 0.994423 
0.000159635 0.00052676 0.994423 
0.000159635 0.00052676 0.994423 
0.000159635 0.00052676 0.994423 
3.92545e-05 0.00175744 0.996532 
3.92545e-05 0.00175744 0.996532 
3.92545e-05 0.00175744 0.996532 
3.92545e-05 0.00175744 0.996532 
0.000392954 0.00106433 0.99399 
0.000392954 0.00106433 0.99399 
0.000392954 0.00106433 0.99399 
0.000392954 0.00106433 0.99399 
2.24762e-05 0.000383007 0.994011 
2.24762e-05 0.000383007 0.994011 
2.24762e-05 0.000383007 0.994011 
2.24762e-05 0.000383007 0.994011 
0.000272002 9.19905e-05 0.999154 
0.000272002 9.19905e-05 0.999154 
0.000272002 9.19905e-05 0.999154 
0.000272002 9.19905e-05 0.999154 
-0.000206595 0.000197243 0.99967 
-0.000206595 0.000197243 0.99967 
-0.000206595 0.000197243 0.99967 
-0.000206595 0.000197243 0.99967 
-0.000273484 0.000558719 0.999131 
-0.000273484 0.000558719 0.999131 
-0.000273484 0.000558719 0.999131 
-0.000273484 0.000558719 0.999131 
-4.1802e-05 -4.21371e-05 1.00053 
-4.1802e-05 -4.21371e-05 1.00053 
-4.1802e-05 -4.21371e-05 1.00053 
-4.1802e-05 -4.21371e-05 1.00053 
-0.000252735 0.00015634 0.99934 
-0.000252735 0.00015634 0.99934 
-0.000252735 0.00015634 0.99934 
-0.000252735 0.00015634 0.99934 
-0.000706621 -0.000374123 0.993543 
-0.000706621 -0.000374123 0.993543 
-0.000706621 -0.000374123 0.993543 
-0.000706621 -0.000374123 0.993543 
-0.000541153 -0.00101927 0.993874 
-0.000541153 -0.00101927 0.993874 
-0.000541153 -0.00101927 0.993874 
-0.000541153 -0.00101927 0.993874 
4.24522e-05 0.000168553 0.996727 
4.24522e-05 0.000168553 0.996727 
4.24522e-05 0.000168553 0.996727 
4.24522e-05 0.000168553 0.996727 
9.14113e-05 -0.000122413 0.996838 
9.14113e-05 -0.000122413 0.996838 
9.14113e-05 -0.000122413 0.996838 
9.14113e-05 -0.000122413 0.996838 
-0.000527552 -0.000975353 0.993665 
-0.000527552 -0.000975353 0.993665 
-0.000527552 -0.000975353 0.993665 
-0.000527552 -0.000975353 0.993665 
0.000161216 8.30261e-05 0.996986 
0.000161216 8.30261e-05 0.996986 
0.000161216 8.30261e-05 0.996986 
0.000161216 8.30261e-05 0.996986 
0.000203609 0.000154206 0.999026 
0.000203609 0.000154206 0.999026 
0.000203609 0.000154206 0.999026 
0.000203609 0.000154206 0.999026 
-1.60305e-05 -7.79257e-05 0.996728 
-1.60305e-05 -7.79257e-05 0.996728 
-1.60305e-05 -7.79257e-05 0.996728 
-1.60305e-05 -7.79257e-05 0.996728 
-0.000938344 0.000495667 0.994298 
-0.000938344 0.000495667 0.994298 
-0.000938344 0.000495667 0.994298 
-0.000938344 0.000495667 0.994298 
0.000165633 0.000285408 0.994675 
0.000165633 0.000285408 0.994675 
0.000165633 0.000285408 0.994675 
0.000165633 0.000285408 0.994675 
-4.50106e-05 -2.47532e-05 1.00052 
-4.50106e-05 -2.47532e-05 1.00052 
-4.50106e-05 -2.47532e-05 1.00052 
-4.50106e-05 -2.47532e-05 1.00052 
-4.52905e-05 0.000509918 0.993305 
-4.52905e-05 0.000509918 0.993305 
-4.52905e-05 0.000509918 0.993305 
-4.52905e-05 0.000509918 0.993305 
-0.000260181 0.000376664 0.993623 
-0.000260181 0.000376664 0.993623 
-0.000260181 0.000376664 0.993623 
-0.000260181 0.000376664 0.993623 
6.56892e-05 -0.000212308 0.99865 
6.56892e-05 -0.000212308 0.99865 
6.56892e-05 -0.000212308 0.99865 
6.56892e-05 -0.000212308 0.99865 
-3.31227e-05 -6.19429e-05 1.00052 
-3.31227e-05 -6.19429e-05 1.00052 
-3.31227e-05 -6.19429e-05 1.00052 
-3.31227e-05 -6.19429e-05 1.00052 
-0.000207727 -0.000456573 0.997423 
-0.000207727 -0.000456573 0.997423 
-0.000207727 -0.000456573 0.997423 
-0.000207727 -0.000456573 0.997423 
0.00152397 -0.000537344 0.997325 
0.00152397 -0.000537344 0.997325 
0.00152397 -0.000537344 0.997325 
0.00152397 -0.000537344 0.997325 
8.15957e-05 -0.00155669 0.992248 
8.15957e-05 -0.00155669 0.992248 
8.15957e-05 -0.00155669 0.992248 
8.15957e-05 -0.00155669 0.992248 
3.93452e-05 0.000299653 0.994076 
3.93452e-05 0.000299653 0.994076 
3.93452e-05 0.000299653 0.994076 
3.93452e-05 0.000299653 0.994076 
0.000293342 0.000997028 0.993745 
0.000293342 0.000997028 0.993745 
0.000293342 0.000997028 0.993745 
0.000293342 0.000997028 0.993745 
-0.000121002 0.000168731 0.998812 
-0.000121002 0.000168731 0.998812 
-0.000121002 0.000168731 0.998812 
-0.000121002 0.000168731 0.998812 
-0.000318306 -0.000265339 0.999092 
-0.000318306 -0.000265339 0.999092 
-0.000318306 -0.000265339 0.999092 
-0.000318306 -0.000265339 0.999092 
-0.000381912 -0.000279559 0.997238 
-0.000381912 -0.000279559 0.997238 
-0.000381912 -0.000279559 0.997238 
-0.000381912 -0.000279559 0.997238 
-9.72701e-05 -0.00160647 0.996964 
-9.72701e-05 -0.00160647 0.996964 
-9.72701e-05 -0.00160647 0.996964 
-9.72701e-05 -0.00160647 0.996964 
-0.000155947 -0.00023247 0.999213 
-0.000155947 -0.00023247 0.999213 
-0.000155947 -0.00023247 0.999213 
-0.000155947 -0.00023247 0.999213 
5.0678e-05 0.000260086 0.999067 
5.0678e-05 0.000260086 0.999067 
5.0678e-05 0.000260086 0.999067 
5.0678e-05 0.000260086 0.999067 
1.72352e-06 -2.46763e-06 1.00053 
1.72352e-06 -2.46763e-06 1.00053 
1.72352e-06 -2.46763e-06 1.00053 
1.72352e-06 -2.46763e-06 1.00053 
-0.000213839 -0.000217812 0.997322 
-0.000213839 -0.000217812 0.997322 
-0.000213839 -0.000217812 0.997322 
-0.000213839 -0.000217812 0.997322 
0.000298116 -0.00100797 0.993835 
0.000298116 -0.00100797 0.993835 
0.000298116 -0.00100797 0.993835 
0.000298116 -0.00100797 0.993835 
4.25139e-05 -6.39351e-05 1.0005 
4.25139e-05 -6.39351e-05 1.0005 
4.25139e-05 -6.39351e-05 1.0005 
4.25139e-05 -6.39351e-05 1.0005 
-0.000146712 6.45421e-05 0.997196 
-0.000146712 6.45421e-05 0.997196 
-0.000146712 6.45421e-05 0.997196 
-0.000146712 6.45421e-05 0.997196 
0.000212495 -0.000287815 0.995009 
0.000212495 -0.000287815 0.995009 
0.000212495 -0.000287815 0.995009 
0.000212495 -0.000287815 0.995009 
-0.000714062 0.000510836 0.998031 
-0.000714062 0.000510836 0.998031 
-0.000714062 0.000510836 0.998031 
-0.000714062 0.000510836 0.998031 
-0.000168382 -4.98254e-05 1.0005 
-0.000168382 -4.98254e-05 1.0005 
-0.000168382 -4.98254e-05 1.0005 
-0.000168382 -4.98254e-05 1.0005 
0.00143618 4.04186e-05 0.992639 
0.00143618 4.04186e-05 0.992639 
0.00143618 4.04186e-05 0.992639 
0.00143618 4.04186e-05 0.992639 
0.000161216 8.30261e-05 0.996986 
0.000161216 8.30261e-05 0.996986 
0.000161216 8.30261e-05 0.996986 
0.000161216 8.30261e-05 0.996986 
0.000248577 5.73373e-05 0.994987 
0.000248577 5.73373e-05 0.994987 
0.000248577 5.73373e-05 0.994987 
0.000248577 5.73373e-05 0.994987 
3.36287e-05 -0.000179541 1.00033 
3.36287e-05 -0.000179541 1.00033 
3.36287e-05 -0.000179541 1.00033 
3.36287e-05 -0.000179541 1.00033 
-6.13176e-05 -0.000606359 0.999387 
-6.13176e-05 -0.000606359 0.999387 
-6.13176e-05 -0.000606359 0.999387 
-6.13176e-05 -0.000606359 0.999387 
-0.00103513 0.000783261 0.997782 
-0.00103513 0.000783261 0.997782 
-0.00103513 0.000783261 0.997782 
-0.00103513 0.000783261 0.997782 
0.000130741 -0.000190746 0.998688 
0.000130741 -0.000190746 0.998688 
0.000130741 -0.000190746 0.998688 
0.000130741 -0.000190746 0.998688 
0.000369803 0.000272489 0.994718 
0.000369803 0.000272489 0.994718 
0.000369803 0.000272489 0.994718 
0.000369803 0.000272489 0.994718 
-0.00192121 2.53976e-05 0.996678 
-0.00192121 2.53976e-05 0.996678 
-0.00192121 2.53976e-05 0.996678 
-0.00192121 2.53976e-05 0.996678 
-0.000312194 -7.53642e-05 0.994489 
-0.000312194 -7.53642e-05 0.994489 
-0.000312194 -7.53642e-05 0.994489 
-0.000312194 -7.53642e-05 0.994489 
-0.000205041 -0.000210607 0.999941 
-0.000205041 -0.000210607 0.999941 
-0.000205041 -0.000210607 0.999941 
-0.000205041 -0.000210607 0.999941 
0.0011091 -0.000161394 0.996884 
0.0011091 -0.000161394 0.996884 
0.0011091 -0.000161394 0.996884 
0.0011091 -0.000161394 0.996884 
-0.000306405 4.8028e-05 0.99476 
-0.000306405 4.8028e-05 0.99476 
-0.000306405 4.8028e-05 0.99476 
-0.000306405 4.8028e-05 0.99476 
-0.0013351 -7.54946e-05 0.993011 
-0.0013351 -7.54946e-05 0.993011 
-0.0013351 -7.54946e-05 0.993011 
-0.0013351 -7.54946e-05 0.993011 
-0.000370969 -0.000129417 0.994866 
-0.000370969 -0.000129417 0.994866 
-0.000370969 -0.000129417 0.994866 
-0.000370969 -0.000129417 0.994866 
-0.000136616 -0.000308359 0.999002 
-0.000136616 -0.000308359 0.999002 
-0.000136616 -0.000308359 0.999002 
-0.000136616 -0.000308359 0.999002 
-0.00143428 6.13918e-05 0.992396 
-0.00143428 6.13918e-05 0.992396 
-0.00143428 6.13918e-05 0.992396 
-0.00143428 6.13918e-05 0.992396 
8.73295e-05 0.000466927 0.997422 
8.73295e-05 0.000466927 0.997422 
8.73295e-05 0.000466927 0.997422 
8.73295e-05 0.000466927 0.997422 
1.55031e-05 -0.00143221 0.992311 
1.55031e-05 -0.00143221 0.992311 
1.55031e-05 -0.00143221 0.992311 
1.55031e-05 -0.00143221 0.992311 
9.98562e-05 3.64909e-05 1.0005 
9.98562e-05 3.64909e-05 1.0005 
9.98562e-05 3.64909e-05 1.0005 
9.98562e-05 3.64909e-05 1.0005 
-0.00188929 -0.000100871 0.996655 
-0.00188929 -0.000100871 0.996655 
-0.00188929 -0.000100871 0.996655 
-0.00188929 -0.000100871 0.996655 
-0.000280952 -4.27342e-05 0.994938 
-0.000280952 -4.27342e-05 0.994938 
-0.000280952 -4.27342e-05 0.994938 
-0.000280952 -4.27342e-05 0.994938 
0.000709809 0.000903412 0.997926 
0.000709809 0.000903412 0.997926 
0.000709809 0.000903412 0.997926 
0.000709809 0.000903412 0.997926 
0.0016122 -6.3225e-05 0.998344 
0.0016122 -6.3225e-05 0.998344 
0.0016122 -6.3225e-05 0.998344 
0.0016122 -6.3225e-05 0.998344 
0.000241592 -6.75078e-05 0.999022 
0.000241592 -6.75078e-05 0.999022 
0.000241592 -6.75078e-05 0.999022 
0.000241592 -6.75078e-05 0.999022 
-0.000568493 -0.000245068 0.999298 
-0.000568493 -0.000245068 0.999298 
-0.000568493 -0.000245068 0.999298 
-0.000568493 -0.000245068 0.999298 
-0.000124159 -0.00143709 0.992402 
-0.000124159 -0.00143709 0.992402 
-0.000124159 -0.00143709 0.992402 
-0.000124159 -0.00143709 0.992402 
-0.00138831 -1.84301e-06 0.993042 
-0.00138831 -1.84301e-06 0.993042 
-0.00138831 -1.84301e-06 0.993042 
-0.00138831 -1.84301e-06 0.993042 
-0.0012333 -0.000174817 0.998774 
-0.0012333 -0.000174817 0.998774 
-0.0012333 -0.000174817 0.998774 
-0.0012333 -0.000174817 0.998774 
-4.66003e-05 0.000773223 0.998686 
-4.66003e-05 0.000773223 0.998686 
-4.66003e-05 0.000773223 0.998686 
-4.66003e-05 0.000773223 0.998686 
0.000191517 0.000216308 0.999912 
0.000191517 0.000216308 0.999912 
0.000191517 0.000216308 0.999912 
0.000191517 0.000216308 0.999912 
-0.00015735 0.00120171 0.998745 
-0.00015735 0.00120171 0.998745 
-0.00015735 0.00120171 0.998745 
-0.00015735 0.00120171 0.998745 
-5.80891e-05 0.000250344 0.994897 
-5.80891e-05 0.000250344 0.994897 
-5.80891e-05 0.000250344 0.994897 
-5.80891e-05 0.000250344 0.994897 
8.83754e-05 -0.000265734 0.994668 
8.83754e-05 -0.000265734 0.994668 
8.83754e-05 -0.000265734 0.994668 
8.83754e-05 -0.000265734 0.994668 
0.000982916 -0.000420956 0.994363 
0.000982916 -0.000420956 0.994363 
0.000982916 -0.000420956 0.994363 
0.000982916 -0.000420956 0.994363 
0.000263091 0.000153646 0.999722 
0.000263091 0.000153646 0.999722 
0.000263091 0.000153646 0.999722 
0.000263091 0.000153646 0.999722 
0.000203609 0.000154206 0.999026 
0.000203609 0.000154206 0.999026 
0.000203609 0.000154206 0.999026 
0.000203609 0.000154206 0.999026 
-0.00151143 0.00016484 0.998173 
-0.00151143 0.00016484 0.998173 
-0.00151143 0.00016484 0.998173 
-0.00151143 0.00016484 0.998173 
0.000146167 -0.000170083 0.99858 
0.000146167 -0.000170083 0.99858 
0.000146167 -0.000170083 0.99858 
0.000146167 -0.000170083 0.99858 
0.000814074 -0.000635201 0.993906 
0.000814074 -0.000635201 0.993906 
0.000814074 -0.000635201 0.993906 
0.000814074 -0.000635201 0.993906 
-0.000314594 -0.000271126 0.99931 
-0.000314594 -0.000271126 0.99931 
-0.000314594 -0.000271126 0.99931 
-0.000314594 -0.000271126 0.99931 
0.00145865 7.83081e-05 0.992502 
0.00145865 7.83081e-05 0.992502 
0.00145865 7.83081e-05 0.992502 
0.00145865 7.83081e-05 0.992502 
0.00123073 0.000145427 0.993994 
0.00123073 0.000145427 0.993994 
0.00123073 0.000145427 0.993994 
0.00123073 0.000145427 0.993994 
0.000629293 -0.000259365 0.994321 
0.000629293 -0.000259365 0.994321 
0.000629293 -0.000259365 0.994321 
0.000629293 -0.000259365 0.994321 
-0.000104856 0.000202126 0.994843 
-0.000104856 0.000202126 0.994843 
-0.000104856 0.000202126 0.994843 
-0.000104856 0.000202126 0.994843 
-3.11333e-05 -0.000106157 1.0005 
-3.11333e-05 -0.000106157 1.0005 
-3.11333e-05 -0.000106157 1.0005 
-3.11333e-05 -0.000106157 1.0005 
0.000120352 0.000315311 0.998557 
0.000120352 0.000315311 0.998557 
0.000120352 0.000315311 0.998557 
0.000120352 0.000315311 0.998557 
7.88266e-05 -0.000159641 1.0005 
7.88266e-05 -0.000159641 1.0005 
7.88266e-05 -0.000159641 1.0005 
7.88266e-05 -0.000159641 1.0005 
-0.000723172 0.000608307 0.998562 
-0.000723172 0.000608307 0.998562 
-0.000723172 0.000608307 0.998562 
-0.000723172 0.000608307 0.998562 
2.87795e-05 -8.42351e-05 1.00044 
2.87795e-05 -8.42351e-05 1.00044 
2.87795e-05 -8.42351e-05 1.00044 
2.87795e-05 -8.42351e-05 1.00044 
-9.12826e-07 -0.000166512 1.00056 
-9.12826e-07 -0.000166512 1.00056 
-9.12826e-07 -0.000166512 1.00056 
-9.12826e-07 -0.000166512 1.00056 
-0.000835467 0.000924008 0.998638 
-0.000835467 0.000924008 0.998638 
-0.000835467 0.000924008 0.998638 
-0.000835467 0.000924008 0.998638 
-0.000797695 -0.000666284 0.994341 
-0.000797695 -0.000666284 0.994341 
-0.000797695 -0.000666284 0.994341 
-0.000797695 -0.000666284 0.994341 
-0.000175358 -0.000144382 0.999037 
-0.000175358 -0.000144382 0.999037 
-0.000175358 -0.000144382 0.999037 
-0.000175358 -0.000144382 0.999037 
-0.000205514 0.000105428 0.994877 
-0.000205514 0.000105428 0.994877 
-0.000205514 0.000105428 0.994877 
-0.000205514 0.000105428 0.994877 
4.57606e-05 -0.000195211 0.998458 
4.57606e-05 -0.000195211 0.998458 
4.57606e-05 -0.000195211 0.998458 
4.57606e-05 -0.000195211 0.998458 
-0.000215797 -0.000202918 0.994743 
-0.000215797 -0.000202918 0.994743 
-0.000215797 -0.000202918 0.994743 
-0.000215797 -0.000202918 0.994743 
0.000202379 -2.71357e-05 0.994969 
0.000202379 -2.71357e-05 0.994969 
0.000202379 -2.71357e-05 0.994969 
0.000202379 -2.71357e-05 0.994969 
4.00712e-06 -0.00149763 0.992671 
4.00712e-06 -0.00149763 0.992671 
4.00712e-06 -0.00149763 0.992671 
4.00712e-06 -0.00149763 0.992671 
0.00017002 0.000245103 0.999162 
0.00017002 0.000245103 0.999162 
0.00017002 0.000245103 0.999162 
0.00017002 0.000245103 0.999162 
0.000264164 -4.19882e-05 0.998817 
0.000264164 -4.19882e-05 0.998817 
0.000264164 -4.19882e-05 0.998817 
0.000264164 -4.19882e-05 0.998817 
-4.1027e-05 -7.69713e-05 1.00052 
-4.1027e-05 -7.69713e-05 1.00052 
-4.1027e-05 -7.69713e-05 1.00052 
-4.1027e-05 -7.69713e-05 1.00052 
0.000246704 0.000103299 0.998533 
0.000246704 0.000103299 0.998533 
0.000246704 0.000103299 0.998533 
0.000246704 0.000103299 0.998533 
-0.000133758 -0.000312346 0.99462 
-0.000133758 -0.000312346 0.99462 
-0.000133758 -0.000312346 0.99462 
-0.000133758 -0.000312346 0.99462 
-0.000134607 0.000159748 0.994833 
-0.000134607 0.000159748 0.994833 
-0.000134607 0.000159748 0.994833 
-0.000134607 0.000159748 0.994833 
-0.00120715 -0.000180689 0.993622 
-0.00120715 -0.000180689 0.993622 
-0.00120715 -0.000180689 0.993622 
-0.00120715 -0.000180689 0.993622 
-0.000229761 0.00124476 0.992943 
-0.000229761 0.00124476 0.992943 
-0.000229761 0.00124476 0.992943 
-0.000229761 0.00124476 0.992943 
-0.00056951 0.00116638 0.997292 
-0.00056951 0.00116638 0.997292 
-0.00056951 0.00116638 0.997292 
-0.00056951 0.00116638 0.997292 
0.001131 0.000218877 0.993718 
0.001131 0.000218877 0.993718 
0.001131 0.000218877 0.993718 
0.001131 0.000218877 0.993718 
0.000281721 -0.000102922 0.99528 
0.000281721 -0.000102922 0.99528 
0.000281721 -0.000102922 0.99528 
0.000281721 -0.000102922 0.99528 
-3.80003e-05 -0.00177141 0.991557 
-3.80003e-05 -0.00177141 0.991557 
-3.80003e-05 -0.00177141 0.991557 
-3.80003e-05 -0.00177141 0.991557 
-0.0002266 4.24472e-05 0.998868 
-0.0002266 4.24472e-05 0.998868 
-0.0002266 4.24472e-05 0.998868 
-0.0002266 4.24472e-05 0.998868 
0.000635286 -0.000759178 0.994454 
0.000635286 -0.000759178 0.994454 
0.000635286 -0.000759178 0.994454 
0.000635286 -0.000759178 0.994454 
0.000489224 -0.000949655 0.99407 
0.000489224 -0.000949655 0.99407 
0.000489224 -0.000949655 0.99407 
0.000489224 -0.000949655 0.99407 
0.000785117 -0.000621488 0.994291 
0.000785117 -0.000621488 0.994291 
0.000785117 -0.000621488 0.994291 
0.000785117 -0.000621488 0.994291 
0.00134411 -0.000242765 0.993096 
0.00134411 -0.000242765 0.993096 
0.00134411 -0.000242765 0.993096 
0.00134411 -0.000242765 0.993096 
-0.000381423 0.000707354 0.99733 
-0.000381423 0.000707354 0.99733 
-0.000381423 0.000707354 0.99733 
-0.000381423 0.000707354 0.99733 
-1.59438e-05 0.00052946 0.992964 
-1.59438e-05 0.00052946 0.992964 
-1.59438e-05 0.00052946 0.992964 
-1.59438e-05 0.00052946 0.992964 
0.000248577 5.73373e-05 0.994987 
0.000248577 5.73373e-05 0.994987 
0.000248577 5.73373e-05 0.994987 
0.000248577 5.73373e-05 0.994987 
8.83754e-05 -0.000265734 0.994668 
8.83754e-05 -0.000265734 0.994668 
8.83754e-05 -0.000265734 0.994668 
8.83754e-05 -0.000265734 0.994668 
-5.80232e-05 1.7577e-05 1.00047 
-5.80232e-05 1.7577e-05 1.00047 
-5.80232e-05 1.7577e-05 1.00047 
-5.80232e-05 1.7577e-05 1.00047 
-0.000205514 0.000105428 0.994877 
-0.000205514 0.000105428 0.994877 
-0.000205514 0.000105428 0.994877 
-0.000205514 0.000105428 0.994877 
0.000109975 2.12158e-05 1.00042 
0.000109975 2.12158e-05 1.00042 
0.000109975 2.12158e-05 1.00042 
0.000109975 2.12158e-05 1.00042 
-1.36674e-05 -0.00047142 0.994822 
-1.36674e-05 -0.00047142 0.994822 
-1.36674e-05 -0.00047142 0.994822 
-1.36674e-05 -0.00047142 0.994822 
-0.000460925 6.56189e-06 0.992926 
-0.000460925 6.56189e-06 0.992926 
-0.000460925 6.56189e-06 0.992926 
-0.000460925 6.56189e-06 0.992926 
-0.000233425 0.000100853 0.998478 
-0.000233425 0.000100853 0.998478 
-0.000233425 0.000100853 0.998478 
-0.000233425 0.000100853 0.998478 
0.00113704 -0.000368593 0.993278 
0.00113704 -0.000368593 0.993278 
0.00113704 -0.000368593 0.993278 
0.00113704 -0.000368593 0.993278 
-0.00197152 -0.00142083 0.997402 
-0.00197152 -0.00142083 0.997402 
-0.00197152 -0.00142083 0.997402 
-0.00197152 -0.00142083 0.997402 
-0.000135193 -1.13227e-05 1.00046 
-0.000135193 -1.13227e-05 1.00046 
-0.000135193 -1.13227e-05 1.00046 
-0.000135193 -1.13227e-05 1.00046 
-0.0014048 -0.000115917 0.992736 
-0.0014048 -0.000115917 0.992736 
-0.0014048 -0.000115917 0.992736 
-0.0014048 -0.000115917 0.992736 
-0.000364272 0.00011812 0.993469 
-0.000364272 0.00011812 0.993469 
-0.000364272 0.00011812 0.993469 
-0.000364272 0.00011812 0.993469 
8.59111e-06 6.09276e-05 1.00049 
8.59111e-06 6.09276e-05 1.00049 
8.59111e-06 6.09276e-05 1.00049 
8.59111e-06 6.09276e-05 1.00049 
-0.000542163 0.000834511 0.994503 
-0.000542163 0.000834511 0.994503 
-0.000542163 0.000834511 0.994503 
-0.000542163 0.000834511 0.994503 
0.000146167 -0.000170083 0.99858 
0.000146167 -0.000170083 0.99858 
0.000146167 -0.000170083 0.99858 
0.000146167 -0.000170083 0.99858 
0.000187814 -0.000207113 0.999405 
0.000187814 -0.000207113 0.999405 
0.000187814 -0.000207113 0.999405 
0.000187814 -0.000207113 0.999405 
0.00133436 0.000253862 0.992665 
0.00133436 0.000253862 0.992665 
0.00133436 0.000253862 0.992665 
0.00133436 0.000253862 0.992665 
0.000498469 -5.1673e-05 0.99395 
0.000498469 -5.1673e-05 0.99395 
0.000498469 -5.1673e-05 0.99395 
0.000498469 -5.1673e-05 0.99395 
0.000430506 -4.06742e-05 0.994135 
0.000430506 -4.06742e-05 0.994135 
0.000430506 -4.06742e-05 0.994135 
0.000430506 -4.06742e-05 0.994135 
5.37734e-05 0.000109683 1.00042 
5.37734e-05 0.000109683 1.00042 
5.37734e-05 0.000109683 1.00042 
5.37734e-05 0.000109683 1.00042 
-0.00071495 -0.000739343 0.994522 
-0.00071495 -0.000739343 0.994522 
-0.00071495 -0.000739343 0.994522 
-0.00071495 -0.000739343 0.994522 
-0.000155947 -0.00023247 0.999213 
-0.000155947 -0.00023247 0.999213 
-0.000155947 -0.00023247 0.999213 
-0.000155947 -0.00023247 0.999213 
0.000195401 0.00142404 0.99367 
0.000195401 0.00142404 0.99367 
0.000195401 0.00142404 0.99367 
0.000195401 0.00142404 0.99367 
-5.80891e-05 0.000250344 0.994897 
-5.80891e-05 0.000250344 0.994897 
-5.80891e-05 0.000250344 0.994897 
-5.80891e-05 0.000250344 0.994897 
-9.60256e-05 -1.3007e-05 1.00035 
-9.60256e-05 -1.3007e-05 1.00035 
-9.60256e-05 -1.3007e-05 1.00035 
-9.60256e-05 -1.3007e-05 1.00035 
0.000493048 9.08229e-05 0.994926 
0.000493048 9.08229e-05 0.994926 
0.000493048 9.08229e-05 0.994926 
0.000493048 9.08229e-05 0.994926 
-7.75488e-05 3.54285e-05 1.00045 
-7.75488e-05 3.54285e-05 1.00045 
-7.75488e-05 3.54285e-05 1.00045 
-7.75488e-05 3.54285e-05 1.00045 
1.46295e-05 0.00013823 1.00046 
1.46295e-05 0.00013823 1.00046 
1.46295e-05 0.00013823 1.00046 
1.46295e-05 0.00013823 1.00046 
-9.27523e-05 9.89315e-05 1.0006 
-9.27523e-05 9.89315e-05 1.0006 
-9.27523e-05 9.89315e-05 1.0006 
-9.27523e-05 9.89315e-05 1.0006 
0.000582724 -0.00080287 0.994127 
0.000582724 -0.00080287 0.994127 
0.000582724 -0.00080287 0.994127 
0.000582724 -0.00080287 0.994127 
-4.7377e-05 0.000645769 0.994801 
-4.7377e-05 0.000645769 0.994801 
-4.7377e-05 0.000645769 0.994801 
-4.7377e-05 0.000645769 0.994801 
-0.000129251 -3.81032e-05 1.00051 
-0.000129251 -3.81032e-05 1.00051 
-0.000129251 -3.81032e-05 1.00051 
-0.000129251 -3.81032e-05 1.00051 
-0.000467766 0.000992564 0.994641 
-0.000467766 0.000992564 0.994641 
-0.000467766 0.000992564 0.994641 
-0.000467766 0.000992564 0.994641 
-0.000471502 9.25939e-06 0.993313 
-0.000471502 9.25939e-06 0.993313 
-0.000471502 9.25939e-06 0.993313 
-0.000471502 9.25939e-06 0.993313 
-0.000433473 -0.000990285 0.993807 
-0.000433473 -0.000990285 0.993807 
-0.000433473 -0.000990285 0.993807 
-0.000433473 -0.000990285 0.993807 
-5.67744e-05 0.000399709 0.994103 
-5.67744e-05 0.000399709 0.994103 
-5.67744e-05 0.000399709 0.994103 
-5.67744e-05 0.000399709 0.994103 
2.70701e-05 0.000137119 1.00059 
2.70701e-05 0.000137119 1.00059 
2.70701e-05 0.000137119 1.00059 
2.70701e-05 0.000137119 1.00059 
0.000238054 0.001852 0.991135 
0.000238054 0.001852 0.991135 
0.000238054 0.001852 0.991135 
0.000238054 0.001852 0.991135 
-0.000280952 -4.27342e-05 0.994938 
-0.000280952 -4.27342e-05 0.994938 
-0.000280952 -4.27342e-05 0.994938 
-0.000280952 -4.27342e-05 0.994938 
0.00046682 4.25934e-05 0.993832 
0.00046682 4.25934e-05 0.993832 
0.00046682 4.25934e-05 0.993832 
0.00046682 4.25934e-05 0.993832 
-0.000379797 0.000191552 0.992926 
-0.000379797 0.000191552 0.992926 
-0.000379797 0.000191552 0.992926 
-0.000379797 0.000191552 0.992926 
4.25676e-05 -7.84119e-05 1.0006 
4.25676e-05 -7.84119e-05 1.0006 
4.25676e-05 -7.84119e-05 1.0006 
4.25676e-05 -7.84119e-05 1.0006 
0.000525967 4.55316e-05 0.993059 
0.000525967 4.55316e-05 0.993059 
0.000525967 4.55316e-05 0.993059 
0.000525967 4.55316e-05 0.993059 
-1.47205e-05 -0.00035308 0.994772 
-1.47205e-05 -0.00035308 0.994772 
-1.47205e-05 -0.00035308 0.994772 
-1.47205e-05 -0.00035308 0.994772 
-9.84249e-05 -0.000109888 1.0006 
-9.84249e-05 -0.000109888 1.0006 
-9.84249e-05 -0.000109888 1.0006 
-9.84249e-05 -0.000109888 1.0006 
0.00189964 -4.58063e-05 0.991299 
0.00189964 -4.58063e-05 0.991299 
0.00189964 -4.58063e-05 0.991299 
0.00189964 -4.58063e-05 0.991299 
2.91024e-05 0.000429362 0.994207 
2.91024e-05 0.000429362 0.994207 
2.91024e-05 0.000429362 0.994207 
2.91024e-05 0.000429362 0.994207 
-9.77757e-05 -8.20128e-05 1.00046 
-9.77757e-05 -8.20128e-05 1.00046 
-9.77757e-05 -8.20128e-05 1.00046 
-9.77757e-05 -8.20128e-05 1.00046 
-8.89658e-05 -0.000104586 1.00048 
-8.89658e-05 -0.000104586 1.00048 
-8.89658e-05 -0.000104586 1.00048 
-8.89658e-05 -0.000104586 1.00048 
-0.000150528 -0.00119892 0.994291 
-0.000150528 -0.00119892 0.994291 
-0.000150528 -0.00119892 0.994291 
-0.000150528 -0.00119892 0.994291 
-8.08489e-05 2.45982e-05 1.0005 
-8.08489e-05 2.45982e-05 1.0005 
-8.08489e-05 2.45982e-05 1.0005 
-8.08489e-05 2.45982e-05 1.0005 
-1.89152e-05 5.73742e-05 1.00062 
-1.89152e-05 5.73742e-05 1.00062 
-1.89152e-05 5.73742e-05 1.00062 
-1.89152e-05 5.73742e-05 1.00062 
0.000208648 -0.00163601 0.991557 
0.000208648 -0.00163601 0.991557 
0.000208648 -0.00163601 0.991557 
0.000208648 -0.00163601 0.991557 
-0.000384768 3.15358e-06 0.994319 
-0.000384768 3.15358e-06 0.994319 
-0.000384768 3.15358e-06 0.994319 
-0.000384768 3.15358e-06 0.994319 
-0.00107932 -0.000503478 0.993536 
-0.00107932 -0.000503478 0.993536 
-0.00107932 -0.000503478 0.993536 
-0.00107932 -0.000503478 0.993536 
7.96967e-05 -0.000105606 1.00038 
7.96967e-05 -0.000105606 1.00038 
7.96967e-05 -0.000105606 1.00038 
7.96967e-05 -0.000105606 1.00038 
7.60909e-05 -6.2864e-05 1.0004 
7.60909e-05 -6.2864e-05 1.0004 
7.60909e-05 -6.2864e-05 1.0004 
7.60909e-05 -6.2864e-05 1.0004 
8.46174e-07 9.76415e-05 1.00049 
8.46174e-07 9.76415e-05 1.00049 
8.46174e-07 9.76415e-05 1.00049 
8.46174e-07 9.76415e-05 1.00049 
4.11198e-05 0.00144697 0.99258 
4.11198e-05 0.00144697 0.99258 
4.11198e-05 0.00144697 0.99258 
4.11198e-05 0.00144697 0.99258 
-2.41495e-05 -0.000436617 0.992638 
-2.41495e-05 -0.000436617 0.992638 
-2.41495e-05 -0.000436617 0.992638 
-2.41495e-05 -0.000436617 0.992638 
0.000551545 1.44284e-05 0.992567 
0.000551545 1.44284e-05 0.992567 
0.000551545 1.44284e-05 0.992567 
0.000551545 1.44284e-05 0.992567 
-0.000156204 -0.000246955 0.995192 
-0.000156204 -0.000246955 0.995192 
-0.000156204 -0.000246955 0.995192 
-0.000156204 -0.000246955 0.995192 
-0.000384768 3.15357e-06 0.994319 
-0.000384768 3.15357e-06 0.994319 
-0.000384768 3.15357e-06 0.994319 
-0.000384768 3.15357e-06 0.994319 
-0.000145787 7.44113e-06 1.00051 
-0.000145787 7.44113e-06 1.00051 
-0.000145787 7.44113e-06 1.00051 
-0.000145787 7.44113e-06 1.00051 
0.00168386 -0.000399955 0.991299 
0.00168386 -0.000399955 0.991299 
0.00168386 -0.000399955 0.991299 
0.00168386 -0.000399955 0.991299 
-0.000931612 -0.000700329 0.994103 
-0.000931612 -0.000700329 0.994103 
-0.000931612 -0.000700329 0.994103 
-0.000931612 -0.000700329 0.994103 
6.45904e-05 -5.93272e-05 1.00059 
6.45904e-05 -5.93272e-05 1.00059 
6.45904e-05 -5.93272e-05 1.00059 
6.45904e-05 -5.93272e-05 1.00059 
0.000199033 -0.000145277 0.994749 
0.000199033 -0.000145277 0.994749 
0.000199033 -0.000145277 0.994749 
0.000199033 -0.000145277 0.994749 
0.000334174 2.93437e-05 0.998683 
0.000334174 2.93437e-05 0.998683 
0.000334174 2.93437e-05 0.998683 
0.000334174 2.93437e-05 0.998683 
-0.000336178 -0.000317392 0.993766 
-0.000336178 -0.000317392 0.993766 
-0.000336178 -0.000317392 0.993766 
-0.000336178 -0.000317392 0.993766 
-0.00104531 -0.00037092 0.993874 
-0.00104531 -0.00037092 0.993874 
-0.00104531 -0.00037092 0.993874 
-0.00104531 -0.00037092 0.993874 
0.000419287 0.000369988 0.99354 
0.000419287 0.000369988 0.99354 
0.000419287 0.000369988 0.99354 
0.000419287 0.000369988 0.99354 
-0.000179465 0.000448547 0.992964 
-0.000179465 0.000448547 0.992964 
-0.000179465 0.000448547 0.992964 
-0.000179465 0.000448547 0.992964 
-7.226e-05 -0.000435691 0.993387 
-7.226e-05 -0.000435691 0.993387 
-7.226e-05 -0.000435691 0.993387 
-7.226e-05 -0.000435691 0.993387 
-0.000191205 -4.92596e-05 1.00051 
-0.000191205 -4.92596e-05 1.00051 
-0.000191205 -4.92596e-05 1.00051 
-0.000191205 -4.92596e-05 1.00051 
-0.00173503 -5.97321e-05 0.991495 
-0.00173503 -5.97321e-05 0.991495 
-0.00173503 -5.97321e-05 0.991495 
-0.00173503 -5.97321e-05 0.991495 
-5.36088e-05 0.00175427 0.991135 
-5.36088e-05 0.00175427 0.991135 
-5.36088e-05 0.00175427 0.991135 
-5.36088e-05 0.00175427 0.991135 
5.33791e-05 -6.0047e-05 1.0005 
5.33791e-05 -6.0047e-05 1.0005 
5.33791e-05 -6.0047e-05 1.0005 
5.33791e-05 -6.0047e-05 1.0005 
-0.000156204 -0.000246955 0.995192 
-0.000156204 -0.000246955 0.995192 
-0.000156204 -0.000246955 0.995192 
-0.000156204 -0.000246955 0.995192 
0.0014923 -0.000139381 0.993328 
0.0014923 -0.000139381 0.993328 
0.0014923 -0.000139381 0.993328 
0.0014923 -0.000139381 0.993328 
8.19233e-05 -0.000150049 1.00052 
8.19233e-05 -0.000150049 1.00052 
8.19233e-05 -0.000150049 1.00052 
8.19233e-05 -0.000150049 1.00052 
0.000165483 0.000259987 0.995503 
0.000165483 0.000259987 0.995503 
0.000165483 0.000259987 0.995503 
0.000165483 0.000259987 0.995503 
-6.24686e-05 1.59238e-05 1.0005 
-6.24686e-05 1.59238e-05 1.0005 
-6.24686e-05 1.59238e-05 1.0005 
-6.24686e-05 1.59238e-05 1.0005 
-4.26902e-05 0.0013673 0.992349 
-4.26902e-05 0.0013673 0.992349 
-4.26902e-05 0.0013673 0.992349 
-4.26902e-05 0.0013673 0.992349 
-9.21289e-05 -1.77388e-05 1.00036 
-9.21289e-05 -1.77388e-05 1.00036 
-9.21289e-05 -1.77388e-05 1.00036 
-9.21289e-05 -1.77388e-05 1.00036 
4.06807e-05 -4.61836e-05 1.00064 
4.06807e-05 -4.61836e-05 1.00064 
4.06807e-05 -4.61836e-05 1.00064 
4.06807e-05 -4.61836e-05 1.00064 
0.000165483 0.000259987 0.995503 
0.000165483 0.000259987 0.995503 
0.000165483 0.000259987 0.995503 
0.000165483 0.000259987 0.995503 
6.68988e-05 -9.38488e-05 1.00045 
6.68988e-05 -9.38488e-05 1.00045 
6.68988e-05 -9.38488e-05 1.00045 
6.68988e-05 -9.38488e-05 1.00045 
-0.000765874 0.000781864 0.994655 
-0.000765874 0.000781864 0.994655 
-0.000765874 0.000781864 0.994655 
-0.000765874 0.000781864 0.994655 
-6.57944e-05 -6.70434e-05 1.00044 
-6.57944e-05 -6.70434e-05 1.00044 
-6.57944e-05 -6.70434e-05 1.00044 
-6.57944e-05 -6.70434e-05 1.00044 
6.43247e-05 5.06767e-05 1.00043 
6.43247e-05 5.06767e-05 1.00043 
6.43247e-05 5.06767e-05 1.00043 
6.43247e-05 5.06767e-05 1.00043 
-0.00180079 9.23779e-05 0.991495 
-0.00180079 9.23779e-05 0.991495 
-0.00180079 9.23779e-05 0.991495 
-0.00180079 9.23779e-05 0.991495 
-2.03386e-05 -0.000118492 1.00058 
-2.03386e-05 -0.000118492 1.00058 
-2.03386e-05 -0.000118492 1.00058 
-2.03386e-05 -0.000118492 1.00058 
0.000582714 0.000196836 0.992964 
0.000582714 0.000196836 0.992964 
0.000582714 0.000196836 0.992964 
0.000582714 0.000196836 0.992964 
-6.67228e-05 4.66969e-05 1.00046 
-6.67228e-05 4.66969e-05 1.00046 
-6.67228e-05 4.66969e-05 1.00046 
-6.67228e-05 4.66969e-05 1.00046 
0.00183228 0.000133634 0.991299 
0.00183228 0.000133634 0.991299 
0.00183228 0.000133634 0.991299 
0.00183228 0.000133634 0.991299 
-8.33394e-06 -8.78538e-05 1.00045 
-8.33394e-06 -8.78538e-05 1.00045 
-8.33394e-06 -8.78538e-05 1.00045 
-8.33394e-06 -8.78538e-05 1.00045 
-0.000150644 -8.81994e-05 1.0004 
-0.000150644 -8.81994e-05 1.0004 
-0.000150644 -8.81994e-05 1.0004 
-0.000150644 -8.81994e-05 1.0004 
-1.08896e-05 -4.91895e-05 1.00066 
-1.08896e-05 -4.91895e-05 1.00066 
-1.08896e-05 -4.91895e-05 1.00066 
-1.08896e-05 -4.91895e-05 1.00066 
-0.000382944 -0.000272659 0.992638 
-0.000382944 -0.000272659 0.992638 
-0.000382944 -0.000272659 0.992638 
-0.000382944 -0.000272659 0.992638 
6.61111e-05 6.1325e-05 1.00062 
6.61111e-05 6.1325e-05 1.00062 
6.61111e-05 6.1325e-05 1.00062 
6.61111e-05 6.1325e-05 1.00062 
0.0002068 -0.000649952 0.992567 
0.0002068 -0.000649952 0.992567 
0.0002068 -0.000649952 0.992567 
0.0002068 -0.000649952 0.992567 
7.43687e-05 -7.69575e-05 1.00049 
7.43687e-05 -7.69575e-05 1.00049 
7.43687e-05 -7.69575e-05 1.00049 
7.43687e-05 -7.69575e-05 1.00049 
4.94989e-05 1.26015e-05 1.00063 
4.94989e-05 1.26015e-05 1.00063 
4.94989e-05 1.26015e-05 1.00063 
4.94989e-05 1.26015e-05 1.00063 
-2.74042e-05 -4.70158e-05 1.00051 
-2.74042e-05 -4.70158e-05 1.00051 
-2.74042e-05 -4.70158e-05 1.00051 
-2.74042e-05 -4.70158e-05 1.00051 
-9.24809e-05 -4.75482e-05 1.00049 
-9.24809e-05 -4.75482e-05 1.00049 
-9.24809e-05 -4.75482e-05 1.00049 
-9.24809e-05 -4.75482e-05 1.00049 
-0.000101601 -5.94146e-05 1.00045 
-0.000101601 -5.94146e-05 1.00045 
-0.000101601 -5.94146e-05 1.00045 
-0.000101601 -5.94146e-05 1.00045 
-6.19811e-05 2.13517e-05 1.00066 
-6.19811e-05 2.13517e-05 1.00066 
-6.19811e-05 2.13517e-05 1.00066 
-6.19811e-05 2.13517e-05 1.00066 
8.36495e-06 -1.05395e-05 1.0007 
8.36495e-06 -1.05395e-05 1.0007 
8.36495e-06 -1.05395e-05 1.0007 
8.36495e-06 -1.05395e-05 1.0007 
6.6069e-05 6.64551e-05 1.00064 
6.6069e-05 6.64551e-05 1.00064 
6.6069e-05 6.64551e-05 1.00064 
6.6069e-05 6.64551e-05 1.00064 
5.47686e-05 1.30623e-05 1.00063 
5.47686e-05 1.30623e-05 1.00063 
5.47686e-05 1.30623e-05 1.00063 
5.47686e-05 1.30623e-05 1.00063 
8.19233e-05 -0.000150049 1.00052 
8.19233e-05 -0.000150049 1.00052 
8.19233e-05 -0.000150049 1.00052 
8.19233e-05 -0.000150049 1.00052 
-9.84249e-05 -0.000109888 1.0006 
-9.84249e-05 -0.000109888 1.0006 
-9.84249e-05 -0.000109888 1.0006 
-9.84249e-05 -0.000109888 1.0006 
-3.34162e-05 -8.2628e-05 1.00064 
-3.34162e-05 -8.2628e-05 1.00064 
-3.34162e-05 -8.2628e-05 1.00064 
-3.34162e-05 -8.2628e-05 1.00064 
8.36495e-06 -1.05395e-05 1.0007 
8.36495e-06 -1.05395e-05 1.0007 
8.36495e-06 -1.05395e-05 1.0007 
8.36495e-06 -1.05395e-05 1.0007 
-8.43564e-05 -3.81545e-05 1.00058 
-8.43564e-05 -3.81545e-05 1.00058 
-8.43564e-05 -3.81545e-05 1.00058 
-8.43564e-05 -3.81545e-05 1.00058 
-9.27523e-05 9.89315e-05 1.0006 
-9.27523e-05 9.89315e-05 1.0006 
-9.27523e-05 9.89315e-05 1.0006 
-9.27523e-05 9.89315e-05 1.0006 
0.000342815 0.00177748 0.991135 
0.000342815 0.00177748 0.991135 
0.000342815 0.00177748 0.991135 
0.000342815 0.00177748 0.991135 
-9.27523e-05 9.89315e-05 1.0006 
-9.27523e-05 9.89315e-05 1.0006 
-9.27523e-05 9.89315e-05 1.0006 
-9.27523e-05 9.89315e-05 1.0006 
-0.000148553 -0.00171476 0.991557 
-0.000148553 -0.00171476 0.991557 
-0.000148553 -0.00171476 0.991557 
-0.000148553 -0.00171476 0.991557 
-0.000168382 -4.98254e-05 1.0005 
-0.000168382 -4.98254e-05 1.0005 
-0.000168382 -4.98254e-05 1.0005 
-0.000168382 -4.98254e-05 1.0005 
2.70701e-05 0.000137119 1.00059 
2.70701e-05 0.000137119 1.00059 
2.70701e-05 0.000137119 1.00059 
2.70701e-05 0.000137119 1.00059 
-0.000128644 -2.05631e-05 1.00062 
-0.000128644 -2.05631e-05 1.00062 
-0.000128644 -2.05631e-05 1.00062 
-0.000128644 -2.05631e-05 1.00062 
-2.95848e-05 0.000107304 1.00042 
-2.95848e-05 0.000107304 1.00042 
-2.95848e-05 0.000107304 1.00042 
-2.95848e-05 0.000107304 1.00042 
-9.12827e-07 -0.000166512 1.00056 
-9.12827e-07 -0.000166512 1.00056 
-9.12827e-07 -0.000166512 1.00056 
-9.12827e-07 -0.000166512 1.00056 
-2.76809e-05 -9.56118e-05 1.00063 
-2.76809e-05 -9.56118e-05 1.00063 
-2.76809e-05 -9.56118e-05 1.00063 
-2.76809e-05 -9.56118e-05 1.00063 
-0.000109094 2.41194e-05 1.00058 
-0.000109094 2.41194e-05 1.00058 
-0.000109094 2.41194e-05 1.00058 
-0.000109094 2.41194e-05 1.00058 
0.000146402 3.74791e-05 1.00058 
0.000146402 3.74791e-05 1.00058 
0.000146402 3.74791e-05 1.00058 
0.000146402 3.74791e-05 1.00058 
-0.000633675 0.000675233 0.994567 
-0.000633675 0.000675233 0.994567 
-0.000633675 0.000675233 0.994567 
-0.000633675 0.000675233 0.994567 
4.02734e-05 -6.58547e-05 1.00039 
4.02734e-05 -6.58547e-05 1.00039 
4.02734e-05 -6.58547e-05 1.00039 
4.02734e-05 -6.58547e-05 1.00039 
7.41306e-05 -5.5073e-05 1.00063 
7.41306e-05 -5.5073e-05 1.00063 
7.41306e-05 -5.5073e-05 1.00063 
7.41306e-05 -5.5073e-05 1.00063 
-0.000156831 -4.64541e-05 1.00049 
-0.000156831 -4.64541e-05 1.00049 
-0.000156831 -4.64541e-05 1.00049 
-0.000156831 -4.64541e-05 1.00049 
0.000146402 3.74791e-05 1.00058 
0.000146402 3.74791e-05 1.00058 
0.000146402 3.74791e-05 1.00058 
0.000146402 3.74791e-05 1.00058 
0.00032764 -0.000221981 0.992638 
0.00032764 -0.000221981 0.992638 
0.00032764 -0.000221981 0.992638 
0.00032764 -0.000221981 0.992638 
-0.000115735 -6.05209e-05 1.00061 
-0.000115735 -6.05209e-05 1.00061 
-0.000115735 -6.05209e-05 1.00061 
-0.000115735 -6.05209e-05 1.00061 
8.19233e-05 -0.000150049 1.00052 
8.19233e-05 -0.000150049 1.00052 
8.19233e-05 -0.000150049 1.00052 
8.19233e-05 -0.000150049 1.00052 
0.000101909 -1.95985e-05 1.0006 
0.000101909 -1.95985e-05 1.0006 
0.000101909 -1.95985e-05 1.0006 
0.000101909 -1.95985e-05 1.0006 
-2.34038e-05 8.73018e-06 1.00067 
-2.34038e-05 8.73018e-06 1.00067 
-2.34038e-05 8.73018e-06 1.00067 
-2.34038e-05 8.73018e-06 1.00067 
-0.000449667 -1.29362e-05 0.992926 
-0.000449667 -1.29362e-05 0.992926 
-0.000449667 -1.29362e-05 0.992926 
-0.000449667 -1.29362e-05 0.992926 
-6.82905e-05 3.8128e-05 1.00063 
-6.82905e-05 3.8128e-05 1.00063 
-6.82905e-05 3.8128e-05 1.00063 
-6.82905e-05 3.8128e-05 1.00063 
-0.00172613 -4.41078e-05 0.991495 
-0.00172613 -4.41078e-05 0.991495 
-0.00172613 -4.41078e-05 0.991495 
-0.00172613 -4.41078e-05 0.991495 
-8.07118e-05 1.73081e-05 1.00064 
-8.07118e-05 1.73081e-05 1.00064 
-8.07118e-05 1.73081e-05 1.00064 
-8.07118e-05 1.73081e-05 1.00064 
3.21481e-05 2.16441e-05 1.00066 
3.21481e-05 2.16441e-05 1.00066 
3.21481e-05 2.16441e-05 1.00066 
3.21481e-05 2.16441e-05 1.00066 
-0.000471502 9.25938e-06 0.993313 
-0.000471502 9.25938e-06 0.993313 
-0.000471502 9.25938e-06 0.993313 
-0.000471502 9.25938e-06 0.993313 
6.82684e-05 2.7088e-05 1.00044 
6.82684e-05 2.7088e-05 1.00044 
6.82684e-05 2.7088e-05 1.00044 
6.82684e-05 2.7088e-05 1.00044 
0.000419864 0.000251279 0.992567 
0.000419864 0.000251279 0.992567 
0.000419864 0.000251279 0.992567 
0.000419864 0.000251279 0.992567 
-4.52905e-05 0.000509918 0.993305 
-4.52905e-05 0.000509918 0.993305 
-4.52905e-05 0.000509918 0.993305 
-4.52905e-05 0.000509918 0.993305 
-0.000428749 0.00165804 0.991746 
-0.000428749 0.00165804 0.991746 
-0.000428749 0.00165804 0.991746 
-0.000428749 0.00165804 0.991746 
-2.43794e-05 -1.71926e-05 1.00066 
-2.43794e-05 -1.71926e-05 1.00066 
-2.43794e-05 -1.71926e-05 1.00066 
-2.43794e-05 -1.71926e-05 1.00066 
-3.14717e-05 -3.10941e-05 1.00065 
-3.14717e-05 -3.10941e-05 1.00065 
-3.14717e-05 -3.10941e-05 1.00065 
-3.14717e-05 -3.10941e-05 1.00065 
-0.000168382 -4.98254e-05 1.0005 
-0.000168382 -4.98254e-05 1.0005 
-0.000168382 -4.98254e-05 1.0005 
-0.000168382 -4.98254e-05 1.0005 
0.00032763 -0.00168504 0.991753 
0.00032763 -0.00168504 0.991753 
0.00032763 -0.00168504 0.991753 
0.00032763 -0.00168504 0.991753 
-0.000116191 -3.00859e-05 1.00048 
-0.000116191 -3.00859e-05 1.00048 
-0.000116191 -3.00859e-05 1.00048 
-0.000116191 -3.00859e-05 1.00048 
4.83881e-05 9.34548e-05 1.0006 
4.83881e-05 9.34548e-05 1.0006 
4.83881e-05 9.34548e-05 1.0006 
4.83881e-05 9.34548e-05 1.0006 
5.20552e-05 -8.18459e-05 1.00059 
5.20552e-05 -8.18459e-05 1.00059 
5.20552e-05 -8.18459e-05 1.00059 
5.20552e-05 -8.18459e-05 1.00059 
-0.00165491 -0.000396891 0.992455 
-0.00165491 -0.000396891 0.992455 
-0.00165491 -0.000396891 0.992455 
-0.00165491 -0.000396891 0.992455 
0.00171254 0.000460559 0.991882 
0.00171254 0.000460559 0.991882 
0.00171254 0.000460559 0.991882 
0.00171254 0.000460559 0.991882 
0.000248577 5.73373e-05 0.994987 
0.000248577 5.73373e-05 0.994987 
0.000248577 5.73373e-05 0.994987 
0.000248577 5.73373e-05 0.994987 
-7.05916e-05 -0.000128343 1.00054 
-7.05916e-05 -0.000128343 1.00054 
-7.05916e-05 -0.000128343 1.00054 
-7.05916e-05 -0.000128343 1.00054 
0.00181416 -0.000556147 0.991202 
0.00181416 -0.000556147 0.991202 
0.00181416 -0.000556147 0.991202 
0.00181416 -0.000556147 0.991202 
-7.226e-05 -0.000435691 0.993387 
-7.226e-05 -0.000435691 0.993387 
-7.226e-05 -0.000435691 0.993387 
-7.226e-05 -0.000435691 0.993387 
0.00158057 -2.56054e-05 0.992462 
0.00158057 -2.56054e-05 0.992462 
0.00158057 -2.56054e-05 0.992462 
0.00158057 -2.56054e-05 0.992462 
-0.001372 0.000105523 0.992522 
-0.001372 0.000105523 0.992522 
-0.001372 0.000105523 0.992522 
-0.001372 0.000105523 0.992522 
0.000165483 0.000259987 0.995503 
0.000165483 0.000259987 0.995503 
0.000165483 0.000259987 0.995503 
0.000165483 0.000259987 0.995503 
0.000624227 0.00101232 0.993073 
0.000624227 0.00101232 0.993073 
0.000624227 0.00101232 0.993073 
0.000624227 0.00101232 0.993073 
-9.50922e-05 -5.88343e-05 1.00054 
-9.50922e-05 -5.88343e-05 1.00054 
-9.50922e-05 -5.88343e-05 1.00054 
-9.50922e-05 -5.88343e-05 1.00054 
0.000498469 -5.1673e-05 0.99395 
0.000498469 -5.1673e-05 0.99395 
0.000498469 -5.1673e-05 0.99395 
0.000498469 -5.1673e-05 0.99395 
-0.000919144 0.00065676 0.99409 
-0.000919144 0.00065676 0.99409 
-0.000919144 0.00065676 0.99409 
-0.000919144 0.00065676 0.99409 
0.000281721 -0.000102922 0.99528 
0.000281721 -0.000102922 0.99528 
0.000281721 -0.000102922 0.99528 
0.000281721 -0.000102922 0.99528 
0.000475118 0.00114192 0.993838 
0.000475118 0.00114192 0.993838 
0.000475118 0.00114192 0.993838 
0.000475118 0.00114192 0.993838 
-0.000128441 -4.53267e-05 1.00049 
-0.000128441 -4.53267e-05 1.00049 
-0.000128441 -4.53267e-05 1.00049 
-0.000128441 -4.53267e-05 1.00049 
2.57372e-05 8.77358e-05 1.00044 
2.57372e-05 8.77358e-05 1.00044 
2.57372e-05 8.77358e-05 1.00044 
2.57372e-05 8.77358e-05 1.00044 
2.91024e-05 0.000429362 0.994207 
2.91024e-05 0.000429362 0.994207 
2.91024e-05 0.000429362 0.994207 
2.91024e-05 0.000429362 0.994207 
-0.00124403 0.000291613 0.993469 
-0.00124403 0.000291613 0.993469 
-0.00124403 0.000291613 0.993469 
-0.00124403 0.000291613 0.993469 
-5.80891e-05 0.000250344 0.994897 
-5.80891e-05 0.000250344 0.994897 
-5.80891e-05 0.000250344 0.994897 
-5.80891e-05 0.000250344 0.994897 
-0.000280952 -4.27342e-05 0.994938 
-0.000280952 -4.27342e-05 0.994938 
-0.000280952 -4.27342e-05 0.994938 
-0.000280952 -4.27342e-05 0.994938 
-1.47205e-05 -0.00035308 0.994772 
-1.47205e-05 -0.00035308 0.994772 
-1.47205e-05 -0.00035308 0.994772 
-1.47205e-05 -0.00035308 0.994772 
-8.41164e-05 -1.52946e-05 1.00035 
-8.41164e-05 -1.52946e-05 1.00035 
-8.41164e-05 -1.52946e-05 1.00035 
-8.41164e-05 -1.52946e-05 1.00035 
0.000799093 0.000786396 0.99469 
0.000799093 0.000786396 0.99469 
0.000799093 0.000786396 0.99469 
0.000799093 0.000786396 0.99469 
0.000374972 -0.00108109 0.993663 
0.000374972 -0.00108109 0.993663 
0.000374972 -0.00108109 0.993663 
0.000374972 -0.00108109 0.993663 
4.72997e-05 -7.58764e-05 1.00059 
4.72997e-05 -7.58764e-05 1.00059 
4.72997e-05 -7.58764e-05 1.00059 
4.72997e-05 -7.58764e-05 1.00059 
0.00105103 -0.000679233 0.994015 
0.00105103 -0.000679233 0.994015 
0.00105103 -0.000679233 0.994015 
0.00105103 -0.000679233 0.994015 
0.00151828 -0.000105941 0.993354 
0.00151828 -0.000105941 0.993354 
0.00151828 -0.000105941 0.993354 
0.00151828 -0.000105941 0.993354 
0.00123856 0.000221705 0.993603 
0.00123856 0.000221705 0.993603 
0.00123856 0.000221705 0.993603 
0.00123856 0.000221705 0.993603 
2.24762e-05 0.000383007 0.994011 
2.24762e-05 0.000383007 0.994011 
2.24762e-05 0.000383007 0.994011 
2.24762e-05 0.000383007 0.994011 
-0.000384768 3.15359e-06 0.994319 
-0.000384768 3.15359e-06 0.994319 
-0.000384768 3.15359e-06 0.994319 
-0.000384768 3.15359e-06 0.994319 
-0.000421895 -0.00167304 0.991844 
-0.000421895 -0.00167304 0.991844 
-0.000421895 -0.00167304 0.991844 
-0.000421895 -0.00167304 0.991844 
-0.000156204 -0.000246955 0.995192 
-0.000156204 -0.000246955 0.995192 
-0.000156204 -0.000246955 0.995192 
-0.000156204 -0.000246955 0.995192 
8.83754e-05 -0.000265734 0.994668 
8.83754e-05 -0.000265734 0.994668 
8.83754e-05 -0.000265734 0.994668 
8.83754e-05 -0.000265734 0.994668 
-7.66621e-05 0.00151368 0.99333 
-7.66621e-05 0.00151368 0.99333 
-7.66621e-05 0.00151368 0.99333 
-7.66621e-05 0.00151368 0.99333 
0.000199033 -0.000145277 0.994749 
0.000199033 -0.000145277 0.994749 
0.000199033 -0.000145277 0.994749 
0.000199033 -0.000145277 0.994749 
-0.00150857 4.92622e-05 0.993034 
-0.00150857 4.92622e-05 0.993034 
-0.00150857 4.92622e-05 0.993034 
-0.00150857 4.92622e-05 0.993034 
0.000430506 -4.06742e-05 0.994135 
0.000430506 -4.06742e-05 0.994135 
0.000430506 -4.06742e-05 0.994135 
0.000430506 -4.06742e-05 0.994135 
2.89889e-05 -0.000155787 1.00054 
2.89889e-05 -0.000155787 1.00054 
2.89889e-05 -0.000155787 1.00054 
2.89889e-05 -0.000155787 1.00054 
-0.000118411 -0.00152351 0.992783 
-0.000118411 -0.00152351 0.992783 
-0.000118411 -0.00152351 0.992783 
-0.000118411 -0.00152351 0.992783 
3.87067e-05 -0.000429455 0.993366 
3.87067e-05 -0.000429455 0.993366 
3.87067e-05 -0.000429455 0.993366 
3.87067e-05 -0.000429455 0.993366 
-0.00064386 -0.00100095 0.993425 
-0.00064386 -0.00100095 0.993425 
-0.00064386 -0.00100095 0.993425 
-0.00064386 -0.00100095 0.993425 
0.000525967 4.55316e-05 0.993059 
0.000525967 4.55316e-05 0.993059 
0.000525967 4.55316e-05 0.993059 
0.000525967 4.55316e-05 0.993059 
0.000643217 0.00191466 0.991383 
0.000643217 0.00191466 0.991383 
0.000643217 0.00191466 0.991383 
0.000643217 0.00191466 0.991383 
-0.00158268 0.000337654 0.991875 
-0.00158268 0.000337654 0.991875 
-0.00158268 0.000337654 0.991875 
-0.00158268 0.000337654 0.991875 
-0.000110636 0.00148217 0.992739 
-0.000110636 0.00148217 0.992739 
-0.000110636 0.00148217 0.992739 
-0.000110636 0.00148217 0.992739 
-0.000103048 -5.76048e-05 1.00045 
-0.000103048 -5.76048e-05 1.00045 
-0.000103048 -5.76048e-05 1.00045 
-0.000103048 -5.76048e-05 1.00045 
-0.000555315 -0.00119987 0.993745 
-0.000555315 -0.00119987 0.993745 
-0.000555315 -0.00119987 0.993745 
-0.000555315 -0.00119987 0.993745 
-0.000275348 0.00115206 0.99358 
-0.000275348 0.00115206 0.99358 
-0.000275348 0.00115206 0.99358 
-0.000275348 0.00115206 0.99358 
-0.000987683 -0.000706414 0.994133 
-0.000987683 -0.000706414 0.994133 
-0.000987683 -0.000706414 0.994133 
-0.000987683 -0.000706414 0.994133 
-0.000205514 0.000105428 0.994877 
-0.000205514 0.000105428 0.994877 
-0.000205514 0.000105428 0.994877 
-0.000205514 0.000105428 0.994877 
-0.000327623 -1.77379e-05 0.993658 
-0.000327623 -1.77379e-05 0.993658 
-0.000327623 -1.77379e-05 0.993658 
-0.000327623 -1.77379e-05 0.993658 
-0.000378987 -8.1632e-06 0.992967 
-0.000378987 -8.1632e-06 0.992967 
-0.000378987 -8.1632e-06 0.992967 
-0.000378987 -8.1632e-06 0.992967 
0.000121298 -0.00016663 0.995178 
0.000121298 -0.00016663 0.995178 
0.000121298 -0.00016663 0.995178 
0.000121298 -0.00016663 0.995178 
1.74184e-05 0.00030119 0.993977 
1.74184e-05 0.00030119 0.993977 
1.74184e-05 0.00030119 0.993977 
1.74184e-05 0.00030119 0.993977 
0.000364441 -4.3858e-05 0.993689 
0.000364441 -4.3858e-05 0.993689 
0.000364441 -4.3858e-05 0.993689 
0.000364441 -4.3858e-05 0.993689 
-2.66258e-05 -2.93566e-05 1.00065 
-2.66258e-05 -2.93566e-05 1.00065 
-2.66258e-05 -2.93566e-05 1.00065 
-2.66258e-05 -2.93566e-05 1.00065 
-1.16745e-05 -0.000357437 0.994229 
-1.16745e-05 -0.000357437 0.994229 
-1.16745e-05 -0.000357437 0.994229 
-1.16745e-05 -0.000357437 0.994229 
-0.000729101 0.000960587 0.994307 
-0.000729101 0.000960587 0.994307 
-0.000729101 0.000960587 0.994307 
-0.000729101 0.000960587 0.994307 
0.000158086 -0.00167473 0.992198 
0.000158086 -0.00167473 0.992198 
0.000158086 -0.00167473 0.992198 
0.000158086 -0.00167473 0.992198 
-0.000275006 6.00975e-05 0.994649 
-0.000275006 6.00975e-05 0.994649 
-0.000275006 6.00975e-05 0.994649 
-0.000275006 6.00975e-05 0.994649 
-0.000183556 -0.000122375 0.994558 
-0.000183556 -0.000122375 0.994558 
-0.000183556 -0.000122375 0.994558 
-0.000183556 -0.000122375 0.994558 
-0.00125716 -0.000409406 0.993089 
-0.00125716 -0.000409406 0.993089 
-0.00125716 -0.000409406 0.993089 
-0.00125716 -0.000409406 0.993089 
-7.82353e-05 0.000155024 0.994793 
-7.82353e-05 0.000155024 0.994793 
-7.82353e-05 0.000155024 0.994793 
-7.82353e-05 0.000155024 0.994793 
0.00151556 -0.000408551 0.992717 
0.00151556 -0.000408551 0.992717 
0.00151556 -0.000408551 0.992717 
0.00151556 -0.000408551 0.992717 
0.000112492 0.000115953 0.994381 
0.000112492 0.000115953 0.994381 
0.000112492 0.000115953 0.994381 
0.000112492 0.000115953 0.994381 
0.000135573 0.000231456 0.994138 
0.000135573 0.000231456 0.994138 
0.000135573 0.000231456 0.994138 
0.000135573 0.000231456 0.994138 
0.000762672 -0.00103833 0.993608 
0.000762672 -0.00103833 0.993608 
0.000762672 -0.00103833 0.993608 
0.000762672 -0.00103833 0.993608 
-5.38834e-05 -0.00023521 0.994477 
-5.38834e-05 -0.00023521 0.994477 
-5.38834e-05 -0.00023521 0.994477 
-5.38834e-05 -0.00023521 0.994477 
0.000132708 -1.23358e-05 1.00021 
0.000132708 -1.23358e-05 1.00021 
0.000132708 -1.23358e-05 1.00021 
0.000132708 -1.23358e-05 1.00021 
0.000204548 -5.5398e-05 1.00043 
0.000204548 -5.5398e-05 1.00043 
0.000204548 -5.5398e-05 1.00043 
0.000204548 -5.5398e-05 1.00043 
-0.000229285 -0.000103989 1.00003 
-0.000229285 -0.000103989 1.00003 
-0.000229285 -0.000103989 1.00003 
-0.000229285 -0.000103989 1.00003 
0.000115728 -0.000148451 0.999556 
0.000115728 -0.000148451 0.999556 
0.000115728 -0.000148451 0.999556 
0.000115728 -0.000148451 0.999556 
-0.000220524 -0.000291882 0.999818 
-0.000220524 -0.000291882 0.999818 
-0.000220524 -0.000291882 0.999818 
-0.000220524 -0.000291882 0.999818 
-0.0001476 -0.000270683 0.999965 
-0.0001476 -0.000270683 0.999965 
-0.0001476 -0.000270683 0.999965 
-0.0001476 -0.000270683 0.999965 
-0.000340847 -0.000275852 0.999944 
-0.000340847 -0.000275852 0.999944 
-0.000340847 -0.000275852 0.999944 
-0.000340847 -0.000275852 0.999944 
-5.02227e-05 3.70338e-05 1.00037 
-5.02227e-05 3.70338e-05 1.00037 
-5.02227e-05 3.70338e-05 1.00037 
-5.02227e-05 3.70338e-05 1.00037 
-0.000173218 -3.42133e-05 1.00034 
-0.000173218 -3.42133e-05 1.00034 
-0.000173218 -3.42133e-05 1.00034 
-0.000173218 -3.42133e-05 1.00034 
-0.000120134 -4.07932e-05 1.0005 
-0.000120134 -4.07932e-05 1.0005 
-0.000120134 -4.07932e-05 1.0005 
-0.000120134 -4.07932e-05 1.0005 
-4.41685e-05 6.92489e-05 1.00026 
-4.41685e-05 6.92489e-05 1.00026 
-4.41685e-05 6.92489e-05 1.00026 
-4.41685e-05 6.92489e-05 1.00026 
-8.65755e-05 -5.75105e-05 1.0004 
-8.65755e-05 -5.75105e-05 1.0004 
-8.65755e-05 -5.75105e-05 1.0004 
-8.65755e-05 -5.75105e-05 1.0004 
6.08057e-05 0.000865161 0.997343 
6.08057e-05 0.000865161 0.997343 
6.08057e-05 0.000865161 0.997343 
6.08057e-05 0.000865161 0.997343 
0.000192308 -0.000103027 0.998836 
0.000192308 -0.000103027 0.998836 
0.000192308 -0.000103027 0.998836 
0.000192308 -0.000103027 0.998836 
-0.000109119 0.000243468 0.999746 
-0.000109119 0.000243468 0.999746 
-0.000109119 0.000243468 0.999746 
-0.000109119 0.000243468 0.999746 
0.000212419 0.000170358 1.00015 
0.000212419 0.000170358 1.00015 
0.000212419 0.000170358 1.00015 
0.000212419 0.000170358 1.00015 
8.14556e-06 -0.000335629 0.999911 
8.14556e-06 -0.000335629 0.999911 
8.14556e-06 -0.000335629 0.999911 
8.14556e-06 -0.000335629 0.999911 
0.000202336 -0.000130485 1.00016 
0.000202336 -0.000130485 1.00016 
0.000202336 -0.000130485 1.00016 
0.000202336 -0.000130485 1.00016 
7.75016e-07 8.45384e-05 1.00049 
7.75016e-07 8.45384e-05 1.00049 
7.75016e-07 8.45384e-05 1.00049 
7.75016e-07 8.45384e-05 1.00049 
1.20308e-06 0.000123104 1.00044 
1.20308e-06 0.000123104 1.00044 
1.20308e-06 0.000123104 1.00044 
1.20308e-06 0.000123104 1.00044 
-7.96635e-05 -8.45427e-05 1.00045 
-7.96635e-05 -8.45427e-05 1.00045 
-7.96635e-05 -8.45427e-05 1.00045 
-7.96635e-05 -8.45427e-05 1.00045 
-4.47693e-05 -5.35043e-05 1.00051 
-4.47693e-05 -5.35043e-05 1.00051 
-4.47693e-05 -5.35043e-05 1.00051 
-4.47693e-05 -5.35043e-05 1.00051 
0.000111244 0.00156367 0.996566 
0.000111244 0.00156367 0.996566 
0.000111244 0.00156367 0.996566 
0.000111244 0.00156367 0.996566 
-8.07856e-05 0.0016841 0.996354 
-8.07856e-05 0.0016841 0.996354 
-8.07856e-05 0.0016841 0.996354 
-8.07856e-05 0.0016841 0.996354 
0.000100107 0.000311316 0.999638 
0.000100107 0.000311316 0.999638 
0.000100107 0.000311316 0.999638 
0.000100107 0.000311316 0.999638 
0.000273418 6.57707e-05 0.999918 
0.000273418 6.57707e-05 0.999918 
0.000273418 6.57707e-05 0.999918 
0.000273418 6.57707e-05 0.999918 
-5.88155e-06 -6.25061e-05 1.00053 
-5.88155e-06 -6.25061e-05 1.00053 
-5.88155e-06 -6.25061e-05 1.00053 
-5.88155e-06 -6.25061e-05 1.00053 
-0.000128572 -1.13306e-05 1.00046 
-0.000128572 -1.13306e-05 1.00046 
-0.000128572 -1.13306e-05 1.00046 
-0.000128572 -1.13306e-05 1.00046 
-7.17061e-05 2.39438e-05 1.00051 
-7.17061e-05 2.39438e-05 1.00051 
-7.17061e-05 2.39438e-05 1.00051 
-7.17061e-05 2.39438e-05 1.00051 
8.59666e-06 -0.000128581 1.00049 
8.59666e-06 -0.000128581 1.00049 
8.59666e-06 -0.000128581 1.00049 
8.59666e-06 -0.000128581 1.00049 
6.58743e-05 -7.53065e-05 1.00052 
6.58743e-05 -7.53065e-05 1.00052 
6.58743e-05 -7.53065e-05 1.00052 
6.58743e-05 -7.53065e-05 1.00052 
0.000251677 -0.00162117 0.996315 
0.000251677 -0.00162117 0.996315 
0.000251677 -0.00162117 0.996315 
0.000251677 -0.00162117 0.996315 
0.000101936 -0.00173111 0.995976 
0.000101936 -0.00173111 0.995976 
0.000101936 -0.00173111 0.995976 
0.000101936 -0.00173111 0.995976 
-0.000326351 -0.000922541 0.996234 
-0.000326351 -0.000922541 0.996234 
-0.000326351 -0.000922541 0.996234 
-0.000326351 -0.000922541 0.996234 
-6.53213e-06 -0.00103173 0.996762 
-6.53213e-06 -0.00103173 0.996762 
-6.53213e-06 -0.00103173 0.996762 
-6.53213e-06 -0.00103173 0.996762 
0.000769083 -0.0010295 0.997994 
0.000769083 -0.0010295 0.997994 
0.000769083 -0.0010295 0.997994 
0.000769083 -0.0010295 0.997994 
0.00130893 -0.000114577 0.996849 
0.00130893 -0.000114577 0.996849 
0.00130893 -0.000114577 0.996849 
0.00130893 -0.000114577 0.996849 
3.83448e-06 -0.000131377 1.00011 
3.83448e-06 -0.000131377 1.00011 
3.83448e-06 -0.000131377 1.00011 
3.83448e-06 -0.000131377 1.00011 
-3.56926e-05 -3.04676e-05 1.00041 
-3.56926e-05 -3.04676e-05 1.00041 
-3.56926e-05 -3.04676e-05 1.00041 
-3.56926e-05 -3.04676e-05 1.00041 
0.000245057 6.02786e-05 0.998869 
0.000245057 6.02786e-05 0.998869 
0.000245057 6.02786e-05 0.998869 
0.000245057 6.02786e-05 0.998869 
-0.00100608 0.000454497 0.99705 
-0.00100608 0.000454497 0.99705 
-0.00100608 0.000454497 0.99705 
-0.00100608 0.000454497 0.99705 
3.87067e-05 -0.000429455 0.993366 
3.87067e-05 -0.000429455 0.993366 
3.87067e-05 -0.000429455 0.993366 
3.87067e-05 -0.000429455 0.993366 
0.000494986 -0.00028322 0.993996 
0.000494986 -0.00028322 0.993996 
0.000494986 -0.00028322 0.993996 
0.000494986 -0.00028322 0.993996 
0.00117545 0.000393348 0.996647 
0.00117545 0.000393348 0.996647 
0.00117545 0.000393348 0.996647 
0.00117545 0.000393348 0.996647 
0.000199549 0.00118034 0.998526 
0.000199549 0.00118034 0.998526 
0.000199549 0.00118034 0.998526 
0.000199549 0.00118034 0.998526 
-4.57404e-05 -0.00016395 0.998338 
-4.57404e-05 -0.00016395 0.998338 
-4.57404e-05 -0.00016395 0.998338 
-4.57404e-05 -0.00016395 0.998338 
-0.000204645 0.000555074 0.998889 
-0.000204645 0.000555074 0.998889 
-0.000204645 0.000555074 0.998889 
-0.000204645 0.000555074 0.998889 
0.000793635 0.000612455 0.998466 
0.000793635 0.000612455 0.998466 
0.000793635 0.000612455 0.998466 
0.000793635 0.000612455 0.998466 
0.000876161 0.00321404 0.997736 
0.000876161 0.00321404 0.997736 
0.000876161 0.00321404 0.997736 
0.000876161 0.00321404 0.997736 
-0.000246791 -6.97976e-05 0.997297 
-0.000246791 -6.97976e-05 0.997297 
-0.000246791 -6.97976e-05 0.997297 
-0.000246791 -6.97976e-05 0.997297 
-0.000216055 -9.86679e-05 0.997364 
-0.000216055 -9.86679e-05 0.997364 
-0.000216055 -9.86679e-05 0.997364 
-0.000216055 -9.86679e-05 0.997364 
0.0013231 -0.00083576 0.997348 
0.0013231 -0.00083576 0.997348 
0.0013231 -0.00083576 0.997348 
0.0013231 -0.00083576 0.997348 
0.00131848 -0.000725307 0.9975 
0.00131848 -0.000725307 0.9975 
0.00131848 -0.000725307 0.9975 
0.00131848 -0.000725307 0.9975 
-0.000678091 -2.35804e-05 0.997167 
-0.000678091 -2.35804e-05 0.997167 
-0.000678091 -2.35804e-05 0.997167 
-0.000678091 -2.35804e-05 0.997167 
-0.000641684 5.98968e-05 0.997254 
-0.000641684 5.98968e-05 0.997254 
-0.000641684 5.98968e-05 0.997254 
-0.000641684 5.98968e-05 0.997254 
5.4906e-05 -4.33725e-05 1.00046 
5.4906e-05 -4.33725e-05 1.00046 
5.4906e-05 -4.33725e-05 1.00046 
5.4906e-05 -4.33725e-05 1.00046 
2.27727e-05 2.01136e-06 1.00052 
2.27727e-05 2.01136e-06 1.00052 
2.27727e-05 2.01136e-06 1.00052 
2.27727e-05 2.01136e-06 1.00052 
2.66497e-05 -0.00049977 0.996411 
2.66497e-05 -0.00049977 0.996411 
2.66497e-05 -0.00049977 0.996411 
2.66497e-05 -0.00049977 0.996411 
0.000167208 -8.9723e-05 0.997097 
0.000167208 -8.9723e-05 0.997097 
0.000167208 -8.9723e-05 0.997097 
0.000167208 -8.9723e-05 0.997097 
-0.00146224 -0.00010611 0.99805 
-0.00146224 -0.00010611 0.99805 
-0.00146224 -0.00010611 0.99805 
-0.00146224 -0.00010611 0.99805 
-0.00207837 -0.000768686 0.997433 
-0.00207837 -0.000768686 0.997433 
-0.00207837 -0.000768686 0.997433 
-0.00207837 -0.000768686 0.997433 
0.000178709 0.000227503 1.00025 
0.000178709 0.000227503 1.00025 
0.000178709 0.000227503 1.00025 
0.000178709 0.000227503 1.00025 
0.000243457 0.000106065 1.00019 
0.000243457 0.000106065 1.00019 
0.000243457 0.000106065 1.00019 
0.000243457 0.000106065 1.00019 
1.59169e-05 0.000229301 1.00043 
1.59169e-05 0.000229301 1.00043 
1.59169e-05 0.000229301 1.00043 
1.59169e-05 0.000229301 1.00043 
-0.000164487 0.000257859 1.00031 
-0.000164487 0.000257859 1.00031 
-0.000164487 0.000257859 1.00031 
-0.000164487 0.000257859 1.00031 
-0.00017024 0.000268278 1.00031 
-0.00017024 0.000268278 1.00031 
-0.00017024 0.000268278 1.00031 
-0.00017024 0.000268278 1.00031 
0.000145188 0.00021963 1.00024 
0.000145188 0.00021963 1.00024 
0.000145188 0.00021963 1.00024 
0.000145188 0.00021963 1.00024 
0.000143232 5.57649e-05 1.00042 
0.000143232 5.57649e-05 1.00042 
0.000143232 5.57649e-05 1.00042 
0.000143232 5.57649e-05 1.00042 
-8.73771e-05 7.09682e-05 1.00042 
-8.73771e-05 7.09682e-05 1.00042 
-8.73771e-05 7.09682e-05 1.00042 
-8.73771e-05 7.09682e-05 1.00042 
0.000138893 4.20317e-05 1.00042 
0.000138893 4.20317e-05 1.00042 
0.000138893 4.20317e-05 1.00042 
0.000138893 4.20317e-05 1.00042 
5.82784e-05 -0.000355949 1.00026 
5.82784e-05 -0.000355949 1.00026 
5.82784e-05 -0.000355949 1.00026 
5.82784e-05 -0.000355949 1.00026 
0.000177632 0.000252624 1.00024 
0.000177632 0.000252624 1.00024 
0.000177632 0.000252624 1.00024 
0.000177632 0.000252624 1.00024 
-6.49724e-05 -0.000474088 1.00024 
-6.49724e-05 -0.000474088 1.00024 
-6.49724e-05 -0.000474088 1.00024 
-6.49724e-05 -0.000474088 1.00024 
-6.33631e-05 0.00011272 1.00024 
-6.33631e-05 0.00011272 1.00024 
-6.33631e-05 0.00011272 1.00024 
-6.33631e-05 0.00011272 1.00024 
0.000475744 -0.000207133 1.00022 
0.000475744 -0.000207133 1.00022 
0.000475744 -0.000207133 1.00022 
0.000475744 -0.000207133 1.00022 
-6.74457e-05 -0.000475408 1.00024 
-6.74457e-05 -0.000475408 1.00024 
-6.74457e-05 -0.000475408 1.00024 
-6.74457e-05 -0.000475408 1.00024 
0.000291574 -9.04352e-05 1.00026 
0.000291574 -9.04352e-05 1.00026 
0.000291574 -9.04352e-05 1.00026 
0.000291574 -9.04352e-05 1.00026 
-0.000282436 -0.000354571 1.00027 
-0.000282436 -0.000354571 1.00027 
-0.000282436 -0.000354571 1.00027 
-0.000282436 -0.000354571 1.00027 
-0.000330387 -1.70604e-05 1.00018 
-0.000330387 -1.70604e-05 1.00018 
-0.000330387 -1.70604e-05 1.00018 
-0.000330387 -1.70604e-05 1.00018 
-0.000201145 0.000559881 1.00016 
-0.000201145 0.000559881 1.00016 
-0.000201145 0.000559881 1.00016 
-0.000201145 0.000559881 1.00016 
-0.000163293 0.00012444 1.00044 
-0.000163293 0.00012444 1.00044 
-0.000163293 0.00012444 1.00044 
-0.000163293 0.00012444 1.00044 
-0.000251258 -0.000291231 1.00021 
-0.000251258 -0.000291231 1.00021 
-0.000251258 -0.000291231 1.00021 
-0.000251258 -0.000291231 1.00021 
-0.000189462 0.000247456 1.0003 
-0.000189462 0.000247456 1.0003 
-0.000189462 0.000247456 1.0003 
-0.000189462 0.000247456 1.0003 
0.000221478 0.000128881 1.00027 
0.000221478 0.000128881 1.00027 
0.000221478 0.000128881 1.00027 
0.000221478 0.000128881 1.00027 
-0.000869396 0.000314209 0.999725 
-0.000869396 0.000314209 0.999725 
-0.000869396 0.000314209 0.999725 
-0.000869396 0.000314209 0.999725 
-0.000344931 0.000139016 1.00022 
-0.000344931 0.000139016 1.00022 
-0.000344931 0.000139016 1.00022 
-0.000344931 0.000139016 1.00022 
0.000163229 0.000357778 1.00027 
0.000163229 0.000357778 1.00027 
0.000163229 0.000357778 1.00027 
0.000163229 0.000357778 1.00027 
-0.000187935 0.000265058 1.0003 
-0.000187935 0.000265058 1.0003 
-0.000187935 0.000265058 1.0003 
-0.000187935 0.000265058 1.0003 
5.12604e-05 0.000188596 1.00043 
5.12604e-05 0.000188596 1.00043 
5.12604e-05 0.000188596 1.00043 
5.12604e-05 0.000188596 1.00043 
0.00043409 -0.000250566 1.00022 
0.00043409 -0.000250566 1.00022 
0.00043409 -0.000250566 1.00022 
0.00043409 -0.000250566 1.00022 
0.000165843 0.000438431 1.00019 
0.000165843 0.000438431 1.00019 
0.000165843 0.000438431 1.00019 
0.000165843 0.000438431 1.00019 
0.000644183 -5.60244e-06 0.999851 
0.000644183 -5.60244e-06 0.999851 
0.000644183 -5.60244e-06 0.999851 
0.000644183 -5.60244e-06 0.999851 
0.00012796 -0.000261028 1.00043 
0.00012796 -0.000261028 1.00043 
0.00012796 -0.000261028 1.00043 
0.00012796 -0.000261028 1.00043 
-0.000232199 -0.000281701 1.00027 
-0.000232199 -0.000281701 1.00027 
-0.000232199 -0.000281701 1.00027 
-0.000232199 -0.000281701 1.00027 
0.000423513 -1.69956e-05 1.00021 
0.000423513 -1.69956e-05 1.00021 
0.000423513 -1.69956e-05 1.00021 
0.000423513 -1.69956e-05 1.00021 
-0.000310237 -0.000305356 1.00024 
-0.000310237 -0.000305356 1.00024 
-0.000310237 -0.000305356 1.00024 
-0.000310237 -0.000305356 1.00024 
-0.000850497 0.000122413 1.00006 
-0.000850497 0.000122413 1.00006 
-0.000850497 0.000122413 1.00006 
-0.000850497 0.000122413 1.00006 
0.000378007 -6.67222e-05 1.00016 
0.000378007 -6.67222e-05 1.00016 
0.000378007 -6.67222e-05 1.00016 
0.000378007 -6.67222e-05 1.00016 
-0.000111358 7.40701e-05 1.00037 
-0.000111358 7.40701e-05 1.00037 
-0.000111358 7.40701e-05 1.00037 
-0.000111358 7.40701e-05 1.00037 
-1.80744e-05 0.000167191 1.00024 
-1.80744e-05 0.000167191 1.00024 
-1.80744e-05 0.000167191 1.00024 
-1.80744e-05 0.000167191 1.00024 
-0.000289993 -0.000117387 1.00043 
-0.000289993 -0.000117387 1.00043 
-0.000289993 -0.000117387 1.00043 
-0.000289993 -0.000117387 1.00043 
-0.00022478 0.000907361 0.999416 
-0.00022478 0.000907361 0.999416 
-0.00022478 0.000907361 0.999416 
-0.00022478 0.000907361 0.999416 
0.000399931 0.000315591 1.00023 
0.000399931 0.000315591 1.00023 
0.000399931 0.000315591 1.00023 
0.000399931 0.000315591 1.00023 
-9.85487e-05 5.72783e-05 1.00039 
-9.85487e-05 5.72783e-05 1.00039 
-9.85487e-05 5.72783e-05 1.00039 
-9.85487e-05 5.72783e-05 1.00039 
0.000228391 -0.000165591 1.00026 
0.000228391 -0.000165591 1.00026 
0.000228391 -0.000165591 1.00026 
0.000228391 -0.000165591 1.00026 
-0.000295983 -4.5339e-05 1.00047 
-0.000295983 -4.5339e-05 1.00047 
-0.000295983 -4.5339e-05 1.00047 
-0.000295983 -4.5339e-05 1.00047 
-0.000192102 0.000359218 1.00014 
-0.000192102 0.000359218 1.00014 
-0.000192102 0.000359218 1.00014 
-0.000192102 0.000359218 1.00014 
-0.000103993 0.000110145 1.00044 
-0.000103993 0.000110145 1.00044 
-0.000103993 0.000110145 1.00044 
-0.000103993 0.000110145 1.00044 
-0.000222809 -3.74373e-05 1.00036 
-0.000222809 -3.74373e-05 1.00036 
-0.000222809 -3.74373e-05 1.00036 
-0.000222809 -3.74373e-05 1.00036 
0.000134019 0.000445676 1.00029 
0.000134019 0.000445676 1.00029 
0.000134019 0.000445676 1.00029 
0.000134019 0.000445676 1.00029 
7.62294e-06 0.000331201 1.0002 
7.62294e-06 0.000331201 1.0002 
7.62294e-06 0.000331201 1.0002 
7.62294e-06 0.000331201 1.0002 
0.00014051 0.000332234 1.00027 
0.00014051 0.000332234 1.00027 
0.00014051 0.000332234 1.00027 
0.00014051 0.000332234 1.00027 
-7.40441e-05 0.000379811 1.00021 
-7.40441e-05 0.000379811 1.00021 
-7.40441e-05 0.000379811 1.00021 
-7.40441e-05 0.000379811 1.00021 
0.000179671 0.000436383 1.00029 
0.000179671 0.000436383 1.00029 
0.000179671 0.000436383 1.00029 
0.000179671 0.000436383 1.00029 
0.000294021 -9.37454e-05 1.00026 
0.000294021 -9.37454e-05 1.00026 
0.000294021 -9.37454e-05 1.00026 
0.000294021 -9.37454e-05 1.00026 
0.00024452 -8.90556e-05 1.00025 
0.00024452 -8.90556e-05 1.00025 
0.00024452 -8.90556e-05 1.00025 
0.00024452 -8.90556e-05 1.00025 
0.000157758 6.9029e-05 1.00042 
0.000157758 6.9029e-05 1.00042 
0.000157758 6.9029e-05 1.00042 
0.000157758 6.9029e-05 1.00042 
-6.45589e-05 -0.000474117 1.00024 
-6.45589e-05 -0.000474117 1.00024 
-6.45589e-05 -0.000474117 1.00024 
-6.45589e-05 -0.000474117 1.00024 
-0.000356955 0.000501545 1.00014 
-0.000356955 0.000501545 1.00014 
-0.000356955 0.000501545 1.00014 
-0.000356955 0.000501545 1.00014 
-0.000212154 0.000468654 1.00017 
-0.000212154 0.000468654 1.00017 
-0.000212154 0.000468654 1.00017 
-0.000212154 0.000468654 1.00017 
0.000175424 -3.04153e-06 1.0004 
0.000175424 -3.04153e-06 1.0004 
0.000175424 -3.04153e-06 1.0004 
0.000175424 -3.04153e-06 1.0004 
0.000153179 0.000408047 1.00028 
0.000153179 0.000408047 1.00028 
0.000153179 0.000408047 1.00028 
0.000153179 0.000408047 1.00028 
0.000423248 2.16213e-05 1.00017 
0.000423248 2.16213e-05 1.00017 
0.000423248 2.16213e-05 1.00017 
0.000423248 2.16213e-05 1.00017 
-0.000174518 -3.84801e-05 1.00036 
-0.000174518 -3.84801e-05 1.00036 
-0.000174518 -3.84801e-05 1.00036 
-0.000174518 -3.84801e-05 1.00036 
-2.65301e-05 0.000226637 1.00024 
-2.65301e-05 0.000226637 1.00024 
-2.65301e-05 0.000226637 1.00024 
-2.65301e-05 0.000226637 1.00024 
-9.09943e-05 6.81089e-05 1.00042 
-9.09943e-05 6.81089e-05 1.00042 
-9.09943e-05 6.81089e-05 1.00042 
-9.09943e-05 6.81089e-05 1.00042 
-7.45074e-05 -0.000473648 1.00024 
-7.45074e-05 -0.000473648 1.00024 
-7.45074e-05 -0.000473648 1.00024 
-7.45074e-05 -0.000473648 1.00024 
0.000326238 0.000300451 1.00029 
0.000326238 0.000300451 1.00029 
0.000326238 0.000300451 1.00029 
0.000326238 0.000300451 1.00029 
-1.74679e-05 -0.000439388 1.0002 
-1.74679e-05 -0.000439388 1.0002 
-1.74679e-05 -0.000439388 1.0002 
-1.74679e-05 -0.000439388 1.0002 
0.000385814 -0.00019086 1.00024 
0.000385814 -0.00019086 1.00024 
0.000385814 -0.00019086 1.00024 
0.000385814 -0.00019086 1.00024 
-0.000204611 0.00024773 1.0003 
-0.000204611 0.00024773 1.0003 
-0.000204611 0.00024773 1.0003 
-0.000204611 0.00024773 1.0003 
3.341e-05 0.00048198 1.00018 
3.341e-05 0.00048198 1.00018 
3.341e-05 0.00048198 1.00018 
3.341e-05 0.00048198 1.00018 
0.000115974 -0.000160881 1.00042 
0.000115974 -0.000160881 1.00042 
0.000115974 -0.000160881 1.00042 
0.000115974 -0.000160881 1.00042 
0.000197839 8.53573e-05 1.0004 
0.000197839 8.53573e-05 1.0004 
0.000197839 8.53573e-05 1.0004 
0.000197839 8.53573e-05 1.0004 
-5.60469e-05 0.000628499 1.00017 
-5.60469e-05 0.000628499 1.00017 
-5.60469e-05 0.000628499 1.00017 
-5.60469e-05 0.000628499 1.00017 
0.000167046 0.000325806 1.00027 
0.000167046 0.000325806 1.00027 
0.000167046 0.000325806 1.00027 
0.000167046 0.000325806 1.00027 
0.000459381 0.000687006 0.999984 
0.000459381 0.000687006 0.999984 
0.000459381 0.000687006 0.999984 
0.000459381 0.000687006 0.999984 
-4.33598e-05 -4.98864e-05 1.00034 
-4.33598e-05 -4.98864e-05 1.00034 
-4.33598e-05 -4.98864e-05 1.00034 
-4.33598e-05 -4.98864e-05 1.00034 
-0.000121684 0.000138367 1.00045 
-0.000121684 0.000138367 1.00045 
-0.000121684 0.000138367 1.00045 
-0.000121684 0.000138367 1.00045 
-0.000431876 0.000186854 1.00025 
-0.000431876 0.000186854 1.00025 
-0.000431876 0.000186854 1.00025 
-0.000431876 0.000186854 1.00025 
0.000108341 9.33355e-05 1.00039 
0.000108341 9.33355e-05 1.00039 
0.000108341 9.33355e-05 1.00039 
0.000108341 9.33355e-05 1.00039 
-0.000823999 7.26963e-05 1.00005 
-0.000823999 7.26963e-05 1.00005 
-0.000823999 7.26963e-05 1.00005 
-0.000823999 7.26963e-05 1.00005 
-0.000121824 -0.000127707 1.00042 
-0.000121824 -0.000127707 1.00042 
-0.000121824 -0.000127707 1.00042 
-0.000121824 -0.000127707 1.00042 
-0.000112294 -0.000197446 1.00015 
-0.000112294 -0.000197446 1.00015 
-0.000112294 -0.000197446 1.00015 
-0.000112294 -0.000197446 1.00015 
-0.000100013 0.000460243 1.0002 
-0.000100013 0.000460243 1.0002 
-0.000100013 0.000460243 1.0002 
-0.000100013 0.000460243 1.0002 
-0.000264946 -0.000327364 1.00024 
-0.000264946 -0.000327364 1.00024 
-0.000264946 -0.000327364 1.00024 
-0.000264946 -0.000327364 1.00024 
7.67124e-05 -0.000290938 1.00024 
7.67124e-05 -0.000290938 1.00024 
7.67124e-05 -0.000290938 1.00024 
7.67124e-05 -0.000290938 1.00024 
-0.000897838 0.000280416 0.999724 
-0.000897838 0.000280416 0.999724 
-0.000897838 0.000280416 0.999724 
-0.000897838 0.000280416 0.999724 
5.68624e-05 0.000145387 1.00033 
5.68624e-05 0.000145387 1.00033 
5.68624e-05 0.000145387 1.00033 
5.68624e-05 0.000145387 1.00033 
0.000538692 -1.67823e-05 1.00019 
0.000538692 -1.67823e-05 1.00019 
0.000538692 -1.67823e-05 1.00019 
0.000538692 -1.67823e-05 1.00019 
-7.63827e-05 -0.000315365 1.00016 
-7.63827e-05 -0.000315365 1.00016 
-7.63827e-05 -0.000315365 1.00016 
-7.63827e-05 -0.000315365 1.00016 
0.000235686 -4.5725e-05 1.00023 
0.000235686 -4.5725e-05 1.00023 
0.000235686 -4.5725e-05 1.00023 
0.000235686 -4.5725e-05 1.00023 
-0.000276682 0.00045107 0.999982 
-0.000276682 0.00045107 0.999982 
-0.000276682 0.00045107 0.999982 
-0.000276682 0.00045107 0.999982 
-7.7073e-05 5.31371e-05 1.00041 
-7.7073e-05 5.31371e-05 1.00041 
-7.7073e-05 5.31371e-05 1.00041 
-7.7073e-05 5.31371e-05 1.00041 
1.53687e-06 -0.000830378 0.999818 
1.53687e-06 -0.000830378 0.999818 
1.53687e-06 -0.000830378 0.999818 
1.53687e-06 -0.000830378 0.999818 
0.00018641 0.000125589 1.00026 
0.00018641 0.000125589 1.00026 
0.00018641 0.000125589 1.00026 
0.00018641 0.000125589 1.00026 
-7.36174e-05 0.000228367 1.00033 
-7.36174e-05 0.000228367 1.00033 
-7.36174e-05 0.000228367 1.00033 
-7.36174e-05 0.000228367 1.00033 
-0.000112347 6.16539e-05 1.00038 
-0.000112347 6.16539e-05 1.00038 
-0.000112347 6.16539e-05 1.00038 
-0.000112347 6.16539e-05 1.00038 
-0.000289005 -0.000358509 1.00027 
-0.000289005 -0.000358509 1.00027 
-0.000289005 -0.000358509 1.00027 
-0.000289005 -0.000358509 1.00027 
2.20297e-05 -0.000209731 1.00038 
2.20297e-05 -0.000209731 1.00038 
2.20297e-05 -0.000209731 1.00038 
2.20297e-05 -0.000209731 1.00038 
-7.45771e-05 0.000783547 1.00007 
-7.45771e-05 0.000783547 1.00007 
-7.45771e-05 0.000783547 1.00007 
-7.45771e-05 0.000783547 1.00007 
-0.0031731 0.000530576 0.997937 
-0.0031731 0.000530576 0.997937 
-0.0031731 0.000530576 0.997937 
-0.0031731 0.000530576 0.997937 
-0.000200352 0.00017979 1.00038 
-0.000200352 0.00017979 1.00038 
-0.000200352 0.00017979 1.00038 
-0.000200352 0.00017979 1.00038 
-0.000635992 -0.000581748 0.999433 
-0.000635992 -0.000581748 0.999433 
-0.000635992 -0.000581748 0.999433 
-0.000635992 -0.000581748 0.999433 
0.000194083 0.000612876 1.00005 
0.000194083 0.000612876 1.00005 
0.000194083 0.000612876 1.00005 
0.000194083 0.000612876 1.00005 
0.000367061 0.000111939 1.00015 
0.000367061 0.000111939 1.00015 
0.000367061 0.000111939 1.00015 
0.000367061 0.000111939 1.00015 
-0.000130817 0.000447293 1.00017 
-0.000130817 0.000447293 1.00017 
-0.000130817 0.000447293 1.00017 
-0.000130817 0.000447293 1.00017 
-2.45934e-05 0.000397696 1.00019 
-2.45934e-05 0.000397696 1.00019 
-2.45934e-05 0.000397696 1.00019 
-2.45934e-05 0.000397696 1.00019 
-0.000518724 0.00012774 0.999987 
-0.000518724 0.00012774 0.999987 
-0.000518724 0.00012774 0.999987 
-0.000518724 0.00012774 0.999987 
-0.000265709 -0.000319645 1.00024 
-0.000265709 -0.000319645 1.00024 
-0.000265709 -0.000319645 1.00024 
-0.000265709 -0.000319645 1.00024 
0.000413409 -4.27038e-05 1.00018 
0.000413409 -4.27038e-05 1.00018 
0.000413409 -4.27038e-05 1.00018 
0.000413409 -4.27038e-05 1.00018 
-0.000795966 0.000111666 0.999729 
-0.000795966 0.000111666 0.999729 
-0.000795966 0.000111666 0.999729 
-0.000795966 0.000111666 0.999729 
-0.000240277 -0.000283873 1.00026 
-0.000240277 -0.000283873 1.00026 
-0.000240277 -0.000283873 1.00026 
-0.000240277 -0.000283873 1.00026 
-3.04424e-06 0.000276011 1.00023 
-3.04424e-06 0.000276011 1.00023 
-3.04424e-06 0.000276011 1.00023 
-3.04424e-06 0.000276011 1.00023 
0.000124661 -0.000248733 1.00043 
0.000124661 -0.000248733 1.00043 
0.000124661 -0.000248733 1.00043 
0.000124661 -0.000248733 1.00043 
2.7583e-06 3.66706e-05 1.00033 
2.7583e-06 3.66706e-05 1.00033 
2.7583e-06 3.66706e-05 1.00033 
2.7583e-06 3.66706e-05 1.00033 
-8.59796e-06 -0.00020005 1.00037 
-8.59796e-06 -0.00020005 1.00037 
-8.59796e-06 -0.00020005 1.00037 
-8.59796e-06 -0.00020005 1.00037 
-0.000244598 0.000409089 1.00014 
-0.000244598 0.000409089 1.00014 
-0.000244598 0.000409089 1.00014 
-0.000244598 0.000409089 1.00014 
-0.000216545 -1.65934e-05 1.0004 
-0.000216545 -1.65934e-05 1.0004 
-0.000216545 -1.65934e-05 1.0004 
-0.000216545 -1.65934e-05 1.0004 
0.000280599 -0.000115683 1.00025 
0.000280599 -0.000115683 1.00025 
0.000280599 -0.000115683 1.00025 
0.000280599 -0.000115683 1.00025 
-0.00042032 0.000190211 1.0002 
-0.00042032 0.000190211 1.0002 
-0.00042032 0.000190211 1.0002 
-0.00042032 0.000190211 1.0002 
0.000184735 7.21129e-05 1.00041 
0.000184735 7.21129e-05 1.00041 
0.000184735 7.21129e-05 1.00041 
0.000184735 7.21129e-05 1.00041 
0.000201522 2.91578e-05 1.00045 
0.000201522 2.91578e-05 1.00045 
0.000201522 2.91578e-05 1.00045 
0.000201522 2.91578e-05 1.00045 
-0.000256754 3.57541e-05 1.00024 
-0.000256754 3.57541e-05 1.00024 
-0.000256754 3.57541e-05 1.00024 
-0.000256754 3.57541e-05 1.00024 
-0.000655236 -8.74076e-05 0.999932 
-0.000655236 -8.74076e-05 0.999932 
-0.000655236 -8.74076e-05 0.999932 
-0.000655236 -8.74076e-05 0.999932 
-0.000160368 0.000124903 1.00043 
-0.000160368 0.000124903 1.00043 
-0.000160368 0.000124903 1.00043 
-0.000160368 0.000124903 1.00043 
0.000226239 -0.000118993 1.00022 
0.000226239 -0.000118993 1.00022 
0.000226239 -0.000118993 1.00022 
0.000226239 -0.000118993 1.00022 
0.000296508 -6.02838e-05 1.00026 
0.000296508 -6.02838e-05 1.00026 
0.000296508 -6.02838e-05 1.00026 
0.000296508 -6.02838e-05 1.00026 
-0.000509708 -0.000155741 1.00017 
-0.000509708 -0.000155741 1.00017 
-0.000509708 -0.000155741 1.00017 
-0.000509708 -0.000155741 1.00017 
0.000359211 -1.07364e-05 0.99987 
0.000359211 -1.07364e-05 0.99987 
0.000359211 -1.07364e-05 0.99987 
0.000359211 -1.07364e-05 0.99987 
0.000319602 0.000383592 1.0002 
0.000319602 0.000383592 1.0002 
0.000319602 0.000383592 1.0002 
0.000319602 0.000383592 1.0002 
-0.000302429 5.73001e-05 1.00023 
-0.000302429 5.73001e-05 1.00023 
-0.000302429 5.73001e-05 1.00023 
-0.000302429 5.73001e-05 1.00023 
-1.69037e-05 1.25884e-05 1.00033 
-1.69037e-05 1.25884e-05 1.00033 
-1.69037e-05 1.25884e-05 1.00033 
-1.69037e-05 1.25884e-05 1.00033 
-0.00348605 0.000343151 0.997241 
-0.00348605 0.000343151 0.997241 
-0.00348605 0.000343151 0.997241 
-0.00348605 0.000343151 0.997241 
-0.000816254 -0.000157864 0.999534 
-0.000816254 -0.000157864 0.999534 
-0.000816254 -0.000157864 0.999534 
-0.000816254 -0.000157864 0.999534 
0.000176408 -0.000501149 1.00012 
0.000176408 -0.000501149 1.00012 
0.000176408 -0.000501149 1.00012 
0.000176408 -0.000501149 1.00012 
2.3935e-05 -0.000231329 1.00036 
2.3935e-05 -0.000231329 1.00036 
2.3935e-05 -0.000231329 1.00036 
2.3935e-05 -0.000231329 1.00036 
0.000428414 -0.000193271 1.00023 
0.000428414 -0.000193271 1.00023 
0.000428414 -0.000193271 1.00023 
0.000428414 -0.000193271 1.00023 
0.000426575 1.48148e-06 1.00016 
0.000426575 1.48148e-06 1.00016 
0.000426575 1.48148e-06 1.00016 
0.000426575 1.48148e-06 1.00016 
-0.00033351 0.000170972 0.999748 
-0.00033351 0.000170972 0.999748 
-0.00033351 0.000170972 0.999748 
-0.00033351 0.000170972 0.999748 
8.77814e-05 0.000177005 1.00042 
8.77814e-05 0.000177005 1.00042 
8.77814e-05 0.000177005 1.00042 
8.77814e-05 0.000177005 1.00042 
0.000378152 3.73349e-05 1.00015 
0.000378152 3.73349e-05 1.00015 
0.000378152 3.73349e-05 1.00015 
0.000378152 3.73349e-05 1.00015 
-0.000230872 0.000124269 1.00025 
-0.000230872 0.000124269 1.00025 
-0.000230872 0.000124269 1.00025 
-0.000230872 0.000124269 1.00025 
-0.000848203 -1.8282e-05 0.999921 
-0.000848203 -1.8282e-05 0.999921 
-0.000848203 -1.8282e-05 0.999921 
-0.000848203 -1.8282e-05 0.999921 
0.00264009 0.000171479 0.998874 
0.00264009 0.000171479 0.998874 
0.00264009 0.000171479 0.998874 
0.00264009 0.000171479 0.998874 
-0.000432714 -0.000329984 1.00005 
-0.000432714 -0.000329984 1.00005 
-0.000432714 -0.000329984 1.00005 
-0.000432714 -0.000329984 1.00005 
0.000134119 -4.84336e-05 1.00037 
0.000134119 -4.84336e-05 1.00037 
0.000134119 -4.84336e-05 1.00037 
0.000134119 -4.84336e-05 1.00037 
-5.59274e-05 -0.00015597 1.00034 
-5.59274e-05 -0.00015597 1.00034 
-5.59274e-05 -0.00015597 1.00034 
-5.59274e-05 -0.00015597 1.00034 
0.000551958 0.000123755 1.00023 
0.000551958 0.000123755 1.00023 
0.000551958 0.000123755 1.00023 
0.000551958 0.000123755 1.00023 
-0.000135055 -0.000278741 1.00017 
-0.000135055 -0.000278741 1.00017 
-0.000135055 -0.000278741 1.00017 
-0.000135055 -0.000278741 1.00017 
0.000115983 0.000242221 1.00023 
0.000115983 0.000242221 1.00023 
0.000115983 0.000242221 1.00023 
0.000115983 0.000242221 1.00023 
0.000189193 -0.000467829 1.00019 
0.000189193 -0.000467829 1.00019 
0.000189193 -0.000467829 1.00019 
0.000189193 -0.000467829 1.00019 
-0.000473768 5.5889e-05 1.00021 
-0.000473768 5.5889e-05 1.00021 
-0.000473768 5.5889e-05 1.00021 
-0.000473768 5.5889e-05 1.00021 
0.000553417 0.000119012 1.00023 
0.000553417 0.000119012 1.00023 
0.000553417 0.000119012 1.00023 
0.000553417 0.000119012 1.00023 
-7.31712e-05 0.000503943 1.0001 
-7.31712e-05 0.000503943 1.0001 
-7.31712e-05 0.000503943 1.0001 
-7.31712e-05 0.000503943 1.0001 
0.000338859 9.66597e-05 1.0002 
0.000338859 9.66597e-05 1.0002 
0.000338859 9.66597e-05 1.0002 
0.000338859 9.66597e-05 1.0002 
-0.000811868 9.58364e-05 1.00005 
-0.000811868 9.58364e-05 1.00005 
-0.000811868 9.58364e-05 1.00005 
-0.000811868 9.58364e-05 1.00005 
-1.31547e-05 -0.000410612 1.00016 
-1.31547e-05 -0.000410612 1.00016 
-1.31547e-05 -0.000410612 1.00016 
-1.31547e-05 -0.000410612 1.00016 
0.000237854 0.000241893 1.00019 
0.000237854 0.000241893 1.00019 
0.000237854 0.000241893 1.00019 
0.000237854 0.000241893 1.00019 
-0.000768236 -0.000498207 0.999539 
-0.000768236 -0.000498207 0.999539 
-0.000768236 -0.000498207 0.999539 
-0.000768236 -0.000498207 0.999539 
-0.000308702 0.000357375 1.00019 
-0.000308702 0.000357375 1.00019 
-0.000308702 0.000357375 1.00019 
-0.000308702 0.000357375 1.00019 
0.000453003 3.74855e-05 0.999755 
0.000453003 3.74855e-05 0.999755 
0.000453003 3.74855e-05 0.999755 
0.000453003 3.74855e-05 0.999755 
-0.000345543 0.000265425 1.00016 
-0.000345543 0.000265425 1.00016 
-0.000345543 0.000265425 1.00016 
-0.000345543 0.000265425 1.00016 
-0.000237716 -4.60334e-06 1.00039 
-0.000237716 -4.60334e-06 1.00039 
-0.000237716 -4.60334e-06 1.00039 
-0.000237716 -4.60334e-06 1.00039 
-0.000126483 0.000397087 1.00023 
-0.000126483 0.000397087 1.00023 
-0.000126483 0.000397087 1.00023 
-0.000126483 0.000397087 1.00023 
0.000320768 0.000124826 1.0002 
0.000320768 0.000124826 1.0002 
0.000320768 0.000124826 1.0002 
0.000320768 0.000124826 1.0002 
0.000394736 9.88226e-06 1.0002 
0.000394736 9.88226e-06 1.0002 
0.000394736 9.88226e-06 1.0002 
0.000394736 9.88226e-06 1.0002 
0.000301747 -0.000436069 0.999601 
0.000301747 -0.000436069 0.999601 
0.000301747 -0.000436069 0.999601 
0.000301747 -0.000436069 0.999601 
5.92602e-06 5.51554e-05 1.00026 
5.92602e-06 5.51554e-05 1.00026 
5.92602e-06 5.51554e-05 1.00026 
5.92602e-06 5.51554e-05 1.00026 
0.000387566 -0.000160367 1.00024 
0.000387566 -0.000160367 1.00024 
0.000387566 -0.000160367 1.00024 
0.000387566 -0.000160367 1.00024 
6.19148e-05 0.000100413 1.00036 
6.19148e-05 0.000100413 1.00036 
6.19148e-05 0.000100413 1.00036 
6.19148e-05 0.000100413 1.00036 
0.000137953 0.000645494 1.00013 
0.000137953 0.000645494 1.00013 
0.000137953 0.000645494 1.00013 
0.000137953 0.000645494 1.00013 
-0.00020664 0.000174895 0.999787 
-0.00020664 0.000174895 0.999787 
-0.00020664 0.000174895 0.999787 
-0.00020664 0.000174895 0.999787 
0.000102997 -0.000345953 0.998942 
0.000102997 -0.000345953 0.998942 
0.000102997 -0.000345953 0.998942 
0.000102997 -0.000345953 0.998942 
4.74468e-06 0.000258346 1.00042 
4.74468e-06 0.000258346 1.00042 
4.74468e-06 0.000258346 1.00042 
4.74468e-06 0.000258346 1.00042 
-0.000294516 -5.3427e-05 1.00005 
-0.000294516 -5.3427e-05 1.00005 
-0.000294516 -5.3427e-05 1.00005 
-0.000294516 -5.3427e-05 1.00005 
-1.23912e-05 -0.000437552 1.00017 
-1.23912e-05 -0.000437552 1.00017 
-1.23912e-05 -0.000437552 1.00017 
-1.23912e-05 -0.000437552 1.00017 
0.000307991 0.000188687 1.0002 
0.000307991 0.000188687 1.0002 
0.000307991 0.000188687 1.0002 
0.000307991 0.000188687 1.0002 
-0.000175294 0.000104841 1.00045 
-0.000175294 0.000104841 1.00045 
-0.000175294 0.000104841 1.00045 
-0.000175294 0.000104841 1.00045 
-0.000409553 0.000147178 1.00025 
-0.000409553 0.000147178 1.00025 
-0.000409553 0.000147178 1.00025 
-0.000409553 0.000147178 1.00025 
-0.000798672 -0.000384807 0.99995 
-0.000798672 -0.000384807 0.99995 
-0.000798672 -0.000384807 0.99995 
-0.000798672 -0.000384807 0.99995 
-0.00107359 3.91445e-05 0.99938 
-0.00107359 3.91445e-05 0.99938 
-0.00107359 3.91445e-05 0.99938 
-0.00107359 3.91445e-05 0.99938 
0.000418484 2.34748e-05 1.00016 
0.000418484 2.34748e-05 1.00016 
0.000418484 2.34748e-05 1.00016 
0.000418484 2.34748e-05 1.00016 
-0.000445392 -0.000398646 0.999925 
-0.000445392 -0.000398646 0.999925 
-0.000445392 -0.000398646 0.999925 
-0.000445392 -0.000398646 0.999925 
-0.000492839 -6.29786e-05 1.0001 
-0.000492839 -6.29786e-05 1.0001 
-0.000492839 -6.29786e-05 1.0001 
-0.000492839 -6.29786e-05 1.0001 
4.46338e-05 0.000461978 1.00018 
4.46338e-05 0.000461978 1.00018 
4.46338e-05 0.000461978 1.00018 
4.46338e-05 0.000461978 1.00018 
0.000688177 0.000501214 0.998419 
0.000688177 0.000501214 0.998419 
0.000688177 0.000501214 0.998419 
0.000688177 0.000501214 0.998419 
3.54927e-05 -0.000472444 1.00027 
3.54927e-05 -0.000472444 1.00027 
3.54927e-05 -0.000472444 1.00027 
3.54927e-05 -0.000472444 1.00027 
0.000996734 -0.00024409 0.99799 
0.000996734 -0.00024409 0.99799 
0.000996734 -0.00024409 0.99799 
0.000996734 -0.00024409 0.99799 
0.000207675 -0.000155176 1.00026 
0.000207675 -0.000155176 1.00026 
0.000207675 -0.000155176 1.00026 
0.000207675 -0.000155176 1.00026 
-0.000851924 -0.000267082 0.99995 
-0.000851924 -0.000267082 0.99995 
-0.000851924 -0.000267082 0.99995 
-0.000851924 -0.000267082 0.99995 
-0.000508419 0.00101462 0.997923 
-0.000508419 0.00101462 0.997923 
-0.000508419 0.00101462 0.997923 
-0.000508419 0.00101462 0.997923 
7.20949e-05 0.000118301 1.00038 
7.20949e-05 0.000118301 1.00038 
7.20949e-05 0.000118301 1.00038 
7.20949e-05 0.000118301 1.00038 
0.000223056 -0.000297709 1.00015 
0.000223056 -0.000297709 1.00015 
0.000223056 -0.000297709 1.00015 
0.000223056 -0.000297709 1.00015 
3.02946e-05 -5.59731e-06 1.00036 
3.02946e-05 -5.59731e-06 1.00036 
3.02946e-05 -5.59731e-06 1.00036 
3.02946e-05 -5.59731e-06 1.00036 
0.00131739 0.00318244 0.997558 
0.00131739 0.00318244 0.997558 
0.00131739 0.00318244 0.997558 
0.00131739 0.00318244 0.997558 
3.55209e-05 0.0010133 0.999436 
3.55209e-05 0.0010133 0.999436 
3.55209e-05 0.0010133 0.999436 
3.55209e-05 0.0010133 0.999436 
-0.00016093 0.000571261 0.999976 
-0.00016093 0.000571261 0.999976 
-0.00016093 0.000571261 0.999976 
-0.00016093 0.000571261 0.999976 
0.000102175 0.00109653 0.998112 
0.000102175 0.00109653 0.998112 
0.000102175 0.00109653 0.998112 
0.000102175 0.00109653 0.998112 
-9.12555e-05 0.000457434 1.00008 
-9.12555e-05 0.000457434 1.00008 
-9.12555e-05 0.000457434 1.00008 
-9.12555e-05 0.000457434 1.00008 
0.000119529 -0.000105991 1.00036 
0.000119529 -0.000105991 1.00036 
0.000119529 -0.000105991 1.00036 
0.000119529 -0.000105991 1.00036 
-0.000257455 -0.000254426 1.00003 
-0.000257455 -0.000254426 1.00003 
-0.000257455 -0.000254426 1.00003 
-0.000257455 -0.000254426 1.00003 
-0.000112638 -0.000868661 0.998998 
-0.000112638 -0.000868661 0.998998 
-0.000112638 -0.000868661 0.998998 
-0.000112638 -0.000868661 0.998998 
-0.000141057 -0.000127453 1.00043 
-0.000141057 -0.000127453 1.00043 
-0.000141057 -0.000127453 1.00043 
-0.000141057 -0.000127453 1.00043 
0.000106851 0.000110527 1.00039 
0.000106851 0.000110527 1.00039 
0.000106851 0.000110527 1.00039 
0.000106851 0.000110527 1.00039 
0.000295821 -0.000586773 1.00006 
0.000295821 -0.000586773 1.00006 
0.000295821 -0.000586773 1.00006 
0.000295821 -0.000586773 1.00006 
-3.49003e-05 0.000320364 1.00019 
-3.49003e-05 0.000320364 1.00019 
-3.49003e-05 0.000320364 1.00019 
-3.49003e-05 0.000320364 1.00019 
0.000448319 0.000141097 1.00022 
0.000448319 0.000141097 1.00022 
0.000448319 0.000141097 1.00022 
0.000448319 0.000141097 1.00022 
-0.000391048 -0.000318474 1.00015 
-0.000391048 -0.000318474 1.00015 
-0.000391048 -0.000318474 1.00015 
-0.000391048 -0.000318474 1.00015 
-0.000554848 0.000156149 0.999934 
-0.000554848 0.000156149 0.999934 
-0.000554848 0.000156149 0.999934 
-0.000554848 0.000156149 0.999934 
-0.000238707 0.00121242 0.998135 
-0.000238707 0.00121242 0.998135 
-0.000238707 0.00121242 0.998135 
-0.000238707 0.00121242 0.998135 
0.000182128 -0.00059363 1.00014 
0.000182128 -0.00059363 1.00014 
0.000182128 -0.00059363 1.00014 
0.000182128 -0.00059363 1.00014 
-0.000116039 5.48429e-05 1.00037 
-0.000116039 5.48429e-05 1.00037 
-0.000116039 5.48429e-05 1.00037 
-0.000116039 5.48429e-05 1.00037 
-0.00106372 0.000923295 0.998448 
-0.00106372 0.000923295 0.998448 
-0.00106372 0.000923295 0.998448 
-0.00106372 0.000923295 0.998448 
-0.000114709 -0.00039334 1.00027 
-0.000114709 -0.00039334 1.00027 
-0.000114709 -0.00039334 1.00027 
-0.000114709 -0.00039334 1.00027 
5.48662e-05 0.00157892 0.997622 
5.48662e-05 0.00157892 0.997622 
5.48662e-05 0.00157892 0.997622 
5.48662e-05 0.00157892 0.997622 
-0.00055955 -0.000560128 0.999989 
-0.00055955 -0.000560128 0.999989 
-0.00055955 -0.000560128 0.999989 
-0.00055955 -0.000560128 0.999989 
0.000277979 0.000180639 1.00021 
0.000277979 0.000180639 1.00021 
0.000277979 0.000180639 1.00021 
0.000277979 0.000180639 1.00021 
-0.000437365 0.000254298 1.00017 
-0.000437365 0.000254298 1.00017 
-0.000437365 0.000254298 1.00017 
-0.000437365 0.000254298 1.00017 
-0.000266512 -0.000271459 0.999909 
-0.000266512 -0.000271459 0.999909 
-0.000266512 -0.000271459 0.999909 
-0.000266512 -0.000271459 0.999909 
2.60875e-05 0.000252883 1.00039 
2.60875e-05 0.000252883 1.00039 
2.60875e-05 0.000252883 1.00039 
2.60875e-05 0.000252883 1.00039 
-0.000112494 5.87947e-05 1.00006 
-0.000112494 5.87947e-05 1.00006 
-0.000112494 5.87947e-05 1.00006 
-0.000112494 5.87947e-05 1.00006 
-0.000122033 0.000455285 1.00011 
-0.000122033 0.000455285 1.00011 
-0.000122033 0.000455285 1.00011 
-0.000122033 0.000455285 1.00011 
0.000541054 -0.000447144 0.999996 
0.000541054 -0.000447144 0.999996 
0.000541054 -0.000447144 0.999996 
0.000541054 -0.000447144 0.999996 
-8.61787e-05 -0.0004619 1.00012 
-8.61787e-05 -0.0004619 1.00012 
-8.61787e-05 -0.0004619 1.00012 
-8.61787e-05 -0.0004619 1.00012 
0.000349948 0.000519958 0.999811 
0.000349948 0.000519958 0.999811 
0.000349948 0.000519958 0.999811 
0.000349948 0.000519958 0.999811 
-0.000428666 0.000190117 1.00025 
-0.000428666 0.000190117 1.00025 
-0.000428666 0.000190117 1.00025 
-0.000428666 0.000190117 1.00025 
-0.000244866 -0.000242215 1.0002 
-0.000244866 -0.000242215 1.0002 
-0.000244866 -0.000242215 1.0002 
-0.000244866 -0.000242215 1.0002 
2.66832e-05 2.98436e-05 1.00034 
2.66832e-05 2.98436e-05 1.00034 
2.66832e-05 2.98436e-05 1.00034 
2.66832e-05 2.98436e-05 1.00034 
0.000285844 -1.41853e-05 1.00021 
0.000285844 -1.41853e-05 1.00021 
0.000285844 -1.41853e-05 1.00021 
0.000285844 -1.41853e-05 1.00021 
-0.000283799 -0.000209677 1.00019 
-0.000283799 -0.000209677 1.00019 
-0.000283799 -0.000209677 1.00019 
-0.000283799 -0.000209677 1.00019 
-0.000919172 -0.000440325 0.999398 
-0.000919172 -0.000440325 0.999398 
-0.000919172 -0.000440325 0.999398 
-0.000919172 -0.000440325 0.999398 
-1.67384e-05 0.000386735 1.00021 
-1.67384e-05 0.000386735 1.00021 
-1.67384e-05 0.000386735 1.00021 
-1.67384e-05 0.000386735 1.00021 
-0.000127929 0.000954383 0.999469 
-0.000127929 0.000954383 0.999469 
-0.000127929 0.000954383 0.999469 
-0.000127929 0.000954383 0.999469 
-1.30848e-05 0.000123861 1.00029 
-1.30848e-05 0.000123861 1.00029 
-1.30848e-05 0.000123861 1.00029 
-1.30848e-05 0.000123861 1.00029 
-0.000265742 0.000388433 1.00015 
-0.000265742 0.000388433 1.00015 
-0.000265742 0.000388433 1.00015 
-0.000265742 0.000388433 1.00015 
-0.00020018 0.000238733 1.0003 
-0.00020018 0.000238733 1.0003 
-0.00020018 0.000238733 1.0003 
-0.00020018 0.000238733 1.0003 
-0.000341476 7.53495e-06 1.00015 
-0.000341476 7.53495e-06 1.00015 
-0.000341476 7.53495e-06 1.00015 
-0.000341476 7.53495e-06 1.00015 
0.000333894 -0.000224056 1.00015 
0.000333894 -0.000224056 1.00015 
0.000333894 -0.000224056 1.00015 
0.000333894 -0.000224056 1.00015 
-2.7969e-05 -0.000385493 1.00026 
-2.7969e-05 -0.000385493 1.00026 
-2.7969e-05 -0.000385493 1.00026 
-2.7969e-05 -0.000385493 1.00026 
-0.000297987 0.000366902 1.00019 
-0.000297987 0.000366902 1.00019 
-0.000297987 0.000366902 1.00019 
-0.000297987 0.000366902 1.00019 
-0.000143982 -0.000127946 1.00043 
-0.000143982 -0.000127946 1.00043 
-0.000143982 -0.000127946 1.00043 
-0.000143982 -0.000127946 1.00043 
-0.00122703 -0.00106573 0.998078 
-0.00122703 -0.00106573 0.998078 
-0.00122703 -0.00106573 0.998078 
-0.00122703 -0.00106573 0.998078 
0.000178648 4.6276e-05 1.00036 
0.000178648 4.6276e-05 1.00036 
0.000178648 4.6276e-05 1.00036 
0.000178648 4.6276e-05 1.00036 
0.000119408 -0.000754183 1.00005 
0.000119408 -0.000754183 1.00005 
0.000119408 -0.000754183 1.00005 
0.000119408 -0.000754183 1.00005 
-0.00018422 0.000302696 0.999962 
-0.00018422 0.000302696 0.999962 
-0.00018422 0.000302696 0.999962 
-0.00018422 0.000302696 0.999962 
9.13058e-05 7.2379e-06 1.00029 
9.13058e-05 7.2379e-06 1.00029 
9.13058e-05 7.2379e-06 1.00029 
9.13058e-05 7.2379e-06 1.00029 
0.000349199 0.000697529 0.999801 
0.000349199 0.000697529 0.999801 
0.000349199 0.000697529 0.999801 
0.000349199 0.000697529 0.999801 
0.000259216 0.000138019 1.00016 
0.000259216 0.000138019 1.00016 
0.000259216 0.000138019 1.00016 
0.000259216 0.000138019 1.00016 
-0.000168164 0.000401381 1.00023 
-0.000168164 0.000401381 1.00023 
-0.000168164 0.000401381 1.00023 
-0.000168164 0.000401381 1.00023 
0.000159662 0.000319923 1.00016 
0.000159662 0.000319923 1.00016 
0.000159662 0.000319923 1.00016 
0.000159662 0.000319923 1.00016 
-0.000286386 0.000444794 0.999986 
-0.000286386 0.000444794 0.999986 
-0.000286386 0.000444794 0.999986 
-0.000286386 0.000444794 0.999986 
0.000667551 -0.000203787 0.999662 
0.000667551 -0.000203787 0.999662 
0.000667551 -0.000203787 0.999662 
0.000667551 -0.000203787 0.999662 
-6.23688e-05 -4.30471e-05 1.00034 
-6.23688e-05 -4.30471e-05 1.00034 
-6.23688e-05 -4.30471e-05 1.00034 
-6.23688e-05 -4.30471e-05 1.00034 
0.000165098 -0.00016017 1.0004 
0.000165098 -0.00016017 1.0004 
0.000165098 -0.00016017 1.0004 
0.000165098 -0.00016017 1.0004 
7.65133e-05 0.000344041 0.99965 
7.65133e-05 0.000344041 0.99965 
7.65133e-05 0.000344041 0.99965 
7.65133e-05 0.000344041 0.99965 
1.24223e-05 0.000141481 1.00024 
1.24223e-05 0.000141481 1.00024 
1.24223e-05 0.000141481 1.00024 
1.24223e-05 0.000141481 1.00024 
-0.000443728 0.000457917 0.999993 
-0.000443728 0.000457917 0.999993 
-0.000443728 0.000457917 0.999993 
-0.000443728 0.000457917 0.999993 
-3.02874e-05 0.00101515 0.998111 
-3.02874e-05 0.00101515 0.998111 
-3.02874e-05 0.00101515 0.998111 
-3.02874e-05 0.00101515 0.998111 
-0.00124717 0.000447122 0.997515 
-0.00124717 0.000447122 0.997515 
-0.00124717 0.000447122 0.997515 
-0.00124717 0.000447122 0.997515 
0.000347343 -0.0003643 1.00008 
0.000347343 -0.0003643 1.00008 
0.000347343 -0.0003643 1.00008 
0.000347343 -0.0003643 1.00008 
0.000182273 0.0010157 0.999414 
0.000182273 0.0010157 0.999414 
0.000182273 0.0010157 0.999414 
0.000182273 0.0010157 0.999414 
-0.00266082 -0.000757594 0.997688 
-0.00266082 -0.000757594 0.997688 
-0.00266082 -0.000757594 0.997688 
-0.00266082 -0.000757594 0.997688 
0.000788853 -0.00148814 0.998341 
0.000788853 -0.00148814 0.998341 
0.000788853 -0.00148814 0.998341 
0.000788853 -0.00148814 0.998341 
-0.000322873 0.000125415 1.00015 
-0.000322873 0.000125415 1.00015 
-0.000322873 0.000125415 1.00015 
-0.000322873 0.000125415 1.00015 
-7.26136e-05 -5.81542e-06 0.999886 
-7.26136e-05 -5.81542e-06 0.999886 
-7.26136e-05 -5.81542e-06 0.999886 
-7.26136e-05 -5.81542e-06 0.999886 
0.00049117 -4.35274e-05 1.00017 
0.00049117 -4.35274e-05 1.00017 
0.00049117 -4.35274e-05 1.00017 
0.00049117 -4.35274e-05 1.00017 
0.00017547 0.000493138 1.00005 
0.00017547 0.000493138 1.00005 
0.00017547 0.000493138 1.00005 
0.00017547 0.000493138 1.00005 
0.000420372 0.00010832 0.999765 
0.000420372 0.00010832 0.999765 
0.000420372 0.00010832 0.999765 
0.000420372 0.00010832 0.999765 
0.000246573 -4.64076e-05 1.00026 
0.000246573 -4.64076e-05 1.00026 
0.000246573 -4.64076e-05 1.00026 
0.000246573 -4.64076e-05 1.00026 
0.000477342 -0.000119127 0.999592 
0.000477342 -0.000119127 0.999592 
0.000477342 -0.000119127 0.999592 
0.000477342 -0.000119127 0.999592 
0.000365705 -0.000179763 1.00024 
0.000365705 -0.000179763 1.00024 
0.000365705 -0.000179763 1.00024 
0.000365705 -0.000179763 1.00024 
0.000344713 -0.000207967 1.00004 
0.000344713 -0.000207967 1.00004 
0.000344713 -0.000207967 1.00004 
0.000344713 -0.000207967 1.00004 
0.000318542 0.000272861 1.00024 
0.000318542 0.000272861 1.00024 
0.000318542 0.000272861 1.00024 
0.000318542 0.000272861 1.00024 
0.000344221 0.000254605 1.00024 
0.000344221 0.000254605 1.00024 
0.000344221 0.000254605 1.00024 
0.000344221 0.000254605 1.00024 
2.14501e-05 0.000589177 1.00014 
2.14501e-05 0.000589177 1.00014 
2.14501e-05 0.000589177 1.00014 
2.14501e-05 0.000589177 1.00014 
0.000544855 0.000115363 1.00023 
0.000544855 0.000115363 1.00023 
0.000544855 0.000115363 1.00023 
0.000544855 0.000115363 1.00023 
-0.000618987 -4.55046e-05 0.999888 
-0.000618987 -4.55046e-05 0.999888 
-0.000618987 -4.55046e-05 0.999888 
-0.000618987 -4.55046e-05 0.999888 
-6.41476e-06 -0.000630201 0.999087 
-6.41476e-06 -0.000630201 0.999087 
-6.41476e-06 -0.000630201 0.999087 
-6.41476e-06 -0.000630201 0.999087 
0.00308283 -0.000254064 0.99856 
0.00308283 -0.000254064 0.99856 
0.00308283 -0.000254064 0.99856 
0.00308283 -0.000254064 0.99856 
-0.000511594 -5.05064e-05 1.00016 
-0.000511594 -5.05064e-05 1.00016 
-0.000511594 -5.05064e-05 1.00016 
-0.000511594 -5.05064e-05 1.00016 
-0.000105024 0.000603748 1.00002 
-0.000105024 0.000603748 1.00002 
-0.000105024 0.000603748 1.00002 
-0.000105024 0.000603748 1.00002 
-0.000476111 -4.77001e-05 0.999922 
-0.000476111 -4.77001e-05 0.999922 
-0.000476111 -4.77001e-05 0.999922 
-0.000476111 -4.77001e-05 0.999922 
-0.000596452 -0.000305893 1.00004 
-0.000596452 -0.000305893 1.00004 
-0.000596452 -0.000305893 1.00004 
-0.000596452 -0.000305893 1.00004 
0.000475596 -8.34514e-05 0.999894 
0.000475596 -8.34514e-05 0.999894 
0.000475596 -8.34514e-05 0.999894 
0.000475596 -8.34514e-05 0.999894 
0.000224923 -0.00020343 1.00013 
0.000224923 -0.00020343 1.00013 
0.000224923 -0.00020343 1.00013 
0.000224923 -0.00020343 1.00013 
-0.0003349 0.000163301 0.999748 
-0.0003349 0.000163301 0.999748 
-0.0003349 0.000163301 0.999748 
-0.0003349 0.000163301 0.999748 
0.000397236 0.000119288 0.999738 
0.000397236 0.000119288 0.999738 
0.000397236 0.000119288 0.999738 
0.000397236 0.000119288 0.999738 
-0.000475468 2.26267e-05 1.00022 
-0.000475468 2.26267e-05 1.00022 
-0.000475468 2.26267e-05 1.00022 
-0.000475468 2.26267e-05 1.00022 
-0.000728794 -0.000262837 0.999689 
-0.000728794 -0.000262837 0.999689 
-0.000728794 -0.000262837 0.999689 
-0.000728794 -0.000262837 0.999689 
-0.00100571 0.00132117 0.998358 
-0.00100571 0.00132117 0.998358 
-0.00100571 0.00132117 0.998358 
-0.00100571 0.00132117 0.998358 
-0.000146784 -0.000281233 1.00016 
-0.000146784 -0.000281233 1.00016 
-0.000146784 -0.000281233 1.00016 
-0.000146784 -0.000281233 1.00016 
7.35886e-05 0.00313091 0.998923 
7.35886e-05 0.00313091 0.998923 
7.35886e-05 0.00313091 0.998923 
7.35886e-05 0.00313091 0.998923 
-0.000331586 -0.000544447 0.999953 
-0.000331586 -0.000544447 0.999953 
-0.000331586 -0.000544447 0.999953 
-0.000331586 -0.000544447 0.999953 
-0.000184028 -0.000470891 1 
-0.000184028 -0.000470891 1 
-0.000184028 -0.000470891 1 
-0.000184028 -0.000470891 1 
-0.000632233 0.000597898 0.999075 
-0.000632233 0.000597898 0.999075 
-0.000632233 0.000597898 0.999075 
-0.000632233 0.000597898 0.999075 
-9.53982e-05 0.000132564 1.00024 
-9.53982e-05 0.000132564 1.00024 
-9.53982e-05 0.000132564 1.00024 
-9.53982e-05 0.000132564 1.00024 
0.000116653 -0.000253598 0.999925 
0.000116653 -0.000253598 0.999925 
0.000116653 -0.000253598 0.999925 
0.000116653 -0.000253598 0.999925 
-1.99268e-05 3.65027e-05 1.00034 
-1.99268e-05 3.65027e-05 1.00034 
-1.99268e-05 3.65027e-05 1.00034 
-1.99268e-05 3.65027e-05 1.00034 
-0.000144133 0.000136458 1.00043 
-0.000144133 0.000136458 1.00043 
-0.000144133 0.000136458 1.00043 
-0.000144133 0.000136458 1.00043 
4.39039e-05 -0.000244934 1.0001 
4.39039e-05 -0.000244934 1.0001 
4.39039e-05 -0.000244934 1.0001 
4.39039e-05 -0.000244934 1.0001 
0.000139854 -4.52716e-05 1.00035 
0.000139854 -4.52716e-05 1.00035 
0.000139854 -4.52716e-05 1.00035 
0.000139854 -4.52716e-05 1.00035 
-0.00128115 0.000471827 0.997572 
-0.00128115 0.000471827 0.997572 
-0.00128115 0.000471827 0.997572 
-0.00128115 0.000471827 0.997572 
0.000739706 -0.00174395 0.997255 
0.000739706 -0.00174395 0.997255 
0.000739706 -0.00174395 0.997255 
0.000739706 -0.00174395 0.997255 
0.000312524 0.000326191 1.00028 
0.000312524 0.000326191 1.00028 
0.000312524 0.000326191 1.00028 
0.000312524 0.000326191 1.00028 
-0.000221237 -0.000439808 1.00006 
-0.000221237 -0.000439808 1.00006 
-0.000221237 -0.000439808 1.00006 
-0.000221237 -0.000439808 1.00006 
-0.000390357 0.000670952 0.997898 
-0.000390357 0.000670952 0.997898 
-0.000390357 0.000670952 0.997898 
-0.000390357 0.000670952 0.997898 
-0.00178998 -0.00028216 0.99844 
-0.00178998 -0.00028216 0.99844 
-0.00178998 -0.00028216 0.99844 
-0.00178998 -0.00028216 0.99844 
0.00113507 0.00301398 0.995729 
0.00113507 0.00301398 0.995729 
0.00113507 0.00301398 0.995729 
0.00113507 0.00301398 0.995729 
-0.000179943 0.000124175 1.00037 
-0.000179943 0.000124175 1.00037 
-0.000179943 0.000124175 1.00037 
-0.000179943 0.000124175 1.00037 
0.000109703 9.72232e-06 1.00029 
0.000109703 9.72232e-06 1.00029 
0.000109703 9.72232e-06 1.00029 
0.000109703 9.72232e-06 1.00029 
0.00037041 0.000466703 1.00011 
0.00037041 0.000466703 1.00011 
0.00037041 0.000466703 1.00011 
0.00037041 0.000466703 1.00011 
-0.000145336 0.0001534 1.00038 
-0.000145336 0.0001534 1.00038 
-0.000145336 0.0001534 1.00038 
-0.000145336 0.0001534 1.00038 
-0.000856441 0.00176557 0.998423 
-0.000856441 0.00176557 0.998423 
-0.000856441 0.00176557 0.998423 
-0.000856441 0.00176557 0.998423 
0.00071147 0.000568657 0.998173 
0.00071147 0.000568657 0.998173 
0.00071147 0.000568657 0.998173 
0.00071147 0.000568657 0.998173 
-0.000711961 0.000521509 0.999084 
-0.000711961 0.000521509 0.999084 
-0.000711961 0.000521509 0.999084 
-0.000711961 0.000521509 0.999084 
-0.00274153 -0.000946161 0.998575 
-0.00274153 -0.000946161 0.998575 
-0.00274153 -0.000946161 0.998575 
-0.00274153 -0.000946161 0.998575 
-0.0013562 -0.000916982 0.996722 
-0.0013562 -0.000916982 0.996722 
-0.0013562 -0.000916982 0.996722 
-0.0013562 -0.000916982 0.996722 
0.0016835 0.000161136 0.997934 
0.0016835 0.000161136 0.997934 
0.0016835 0.000161136 0.997934 
0.0016835 0.000161136 0.997934 
0.00133266 -0.000328927 0.998518 
0.00133266 -0.000328927 0.998518 
0.00133266 -0.000328927 0.998518 
0.00133266 -0.000328927 0.998518 
0.000934078 0.00033437 0.998652 
0.000934078 0.00033437 0.998652 
0.000934078 0.00033437 0.998652 
0.000934078 0.00033437 0.998652 
0.000128595 -3.09293e-05 1.00035 
0.000128595 -3.09293e-05 1.00035 
0.000128595 -3.09293e-05 1.00035 
0.000128595 -3.09293e-05 1.00035 
0.00140225 0.0005313 0.99717 
0.00140225 0.0005313 0.99717 
0.00140225 0.0005313 0.99717 
0.00140225 0.0005313 0.99717 
-0.000173926 0.000375369 0.99997 
-0.000173926 0.000375369 0.99997 
-0.000173926 0.000375369 0.99997 
-0.000173926 0.000375369 0.99997 
0.000549712 0.000784662 0.998671 
0.000549712 0.000784662 0.998671 
0.000549712 0.000784662 0.998671 
0.000549712 0.000784662 0.998671 
3.69805e-05 -0.000385364 1.00026 
3.69805e-05 -0.000385364 1.00026 
3.69805e-05 -0.000385364 1.00026 
3.69805e-05 -0.000385364 1.00026 
-0.000445292 0.00340654 0.997385 
-0.000445292 0.00340654 0.997385 
-0.000445292 0.00340654 0.997385 
-0.000445292 0.00340654 0.997385 
0.000164146 -0.000276159 1.00009 
0.000164146 -0.000276159 1.00009 
0.000164146 -0.000276159 1.00009 
0.000164146 -0.000276159 1.00009 
-7.3883e-05 -0.00297565 0.997501 
-7.3883e-05 -0.00297565 0.997501 
-7.3883e-05 -0.00297565 0.997501 
-7.3883e-05 -0.00297565 0.997501 
0.000369688 -0.000641829 0.999829 
0.000369688 -0.000641829 0.999829 
0.000369688 -0.000641829 0.999829 
0.000369688 -0.000641829 0.999829 
-0.000716457 -0.000194082 0.999434 
-0.000716457 -0.000194082 0.999434 
-0.000716457 -0.000194082 0.999434 
-0.000716457 -0.000194082 0.999434 
-0.000424226 0.000596611 0.999518 
-0.000424226 0.000596611 0.999518 
-0.000424226 0.000596611 0.999518 
-0.000424226 0.000596611 0.999518 
-0.000460196 6.01994e-05 1.00005 
-0.000460196 6.01994e-05 1.00005 
-0.000460196 6.01994e-05 1.00005 
-0.000460196 6.01994e-05 1.00005 
-0.000180314 -8.23998e-05 1.00016 
-0.000180314 -8.23998e-05 1.00016 
-0.000180314 -8.23998e-05 1.00016 
-0.000180314 -8.23998e-05 1.00016 
-0.00125675 8.42155e-05 0.999478 
-0.00125675 8.42155e-05 0.999478 
-0.00125675 8.42155e-05 0.999478 
-0.00125675 8.42155e-05 0.999478 
0.00129841 -0.000331492 0.997549 
0.00129841 -0.000331492 0.997549 
0.00129841 -0.000331492 0.997549 
0.00129841 -0.000331492 0.997549 
7.69513e-05 7.84196e-05 1.00034 
7.69513e-05 7.84196e-05 1.00034 
7.69513e-05 7.84196e-05 1.00034 
7.69513e-05 7.84196e-05 1.00034 
-3.04977e-05 -0.00141571 0.99738 
-3.04977e-05 -0.00141571 0.99738 
-3.04977e-05 -0.00141571 0.99738 
-3.04977e-05 -0.00141571 0.99738 
0.000337185 -0.000173992 1.00006 
0.000337185 -0.000173992 1.00006 
0.000337185 -0.000173992 1.00006 
0.000337185 -0.000173992 1.00006 
0.000409182 0.000788295 0.999461 
0.000409182 0.000788295 0.999461 
0.000409182 0.000788295 0.999461 
0.000409182 0.000788295 0.999461 
-1.88141e-05 -0.000518702 0.999937 
-1.88141e-05 -0.000518702 0.999937 
-1.88141e-05 -0.000518702 0.999937 
-1.88141e-05 -0.000518702 0.999937 
-0.00106109 -0.0011145 0.998269 
-0.00106109 -0.0011145 0.998269 
-0.00106109 -0.0011145 0.998269 
-0.00106109 -0.0011145 0.998269 
-4.85006e-05 0.000527324 0.999811 
-4.85006e-05 0.000527324 0.999811 
-4.85006e-05 0.000527324 0.999811 
-4.85006e-05 0.000527324 0.999811 
-1.93461e-05 0.000159353 0.999595 
-1.93461e-05 0.000159353 0.999595 
-1.93461e-05 0.000159353 0.999595 
-1.93461e-05 0.000159353 0.999595 
0.000412547 -0.000587841 0.999636 
0.000412547 -0.000587841 0.999636 
0.000412547 -0.000587841 0.999636 
0.000412547 -0.000587841 0.999636 
0.00076241 0.00168935 0.998379 
0.00076241 0.00168935 0.998379 
0.00076241 0.00168935 0.998379 
0.00076241 0.00168935 0.998379 
0.000752695 0.000348653 0.998446 
0.000752695 0.000348653 0.998446 
0.000752695 0.000348653 0.998446 
0.000752695 0.000348653 0.998446 
-0.00126257 0.00137075 0.997875 
-0.00126257 0.00137075 0.997875 
-0.00126257 0.00137075 0.997875 
-0.00126257 0.00137075 0.997875 
0.0001547 -0.00021172 1.00045 
0.0001547 -0.00021172 1.00045 
0.0001547 -0.00021172 1.00045 
0.0001547 -0.00021172 1.00045 
-4.2454e-05 7.16914e-05 1.00035 
-4.2454e-05 7.16914e-05 1.00035 
-4.2454e-05 7.16914e-05 1.00035 
-4.2454e-05 7.16914e-05 1.00035 
-0.00059659 -0.000286494 1.00019 
-0.00059659 -0.000286494 1.00019 
-0.00059659 -0.000286494 1.00019 
-0.00059659 -0.000286494 1.00019 
5.6766e-05 -0.000148127 1.00037 
5.6766e-05 -0.000148127 1.00037 
5.6766e-05 -0.000148127 1.00037 
5.6766e-05 -0.000148127 1.00037 
0.00015643 0.00183445 0.997202 
0.00015643 0.00183445 0.997202 
0.00015643 0.00183445 0.997202 
0.00015643 0.00183445 0.997202 
0.00025846 -0.000285156 1.0001 
0.00025846 -0.000285156 1.0001 
0.00025846 -0.000285156 1.0001 
0.00025846 -0.000285156 1.0001 
0.000419014 -0.000277727 0.998189 
0.000419014 -0.000277727 0.998189 
0.000419014 -0.000277727 0.998189 
0.000419014 -0.000277727 0.998189 
0.00172184 3.38765e-05 0.997512 
0.00172184 3.38765e-05 0.997512 
0.00172184 3.38765e-05 0.997512 
0.00172184 3.38765e-05 0.997512 
0.00045857 -0.000110894 0.999173 
0.00045857 -0.000110894 0.999173 
0.00045857 -0.000110894 0.999173 
0.00045857 -0.000110894 0.999173 
0.00028923 0.000297543 1.00028 
0.00028923 0.000297543 1.00028 
0.00028923 0.000297543 1.00028 
0.00028923 0.000297543 1.00028 
-0.00122098 -0.000415921 0.997926 
-0.00122098 -0.000415921 0.997926 
-0.00122098 -0.000415921 0.997926 
-0.00122098 -0.000415921 0.997926 
-0.00110574 0.00104803 0.998496 
-0.00110574 0.00104803 0.998496 
-0.00110574 0.00104803 0.998496 
-0.00110574 0.00104803 0.998496 
-0.000302793 0.000156574 0.999535 
-0.000302793 0.000156574 0.999535 
-0.000302793 0.000156574 0.999535 
-0.000302793 0.000156574 0.999535 
-0.000299669 0.000379118 1.00012 
-0.000299669 0.000379118 1.00012 
-0.000299669 0.000379118 1.00012 
-0.000299669 0.000379118 1.00012 
0.00118336 -0.00220449 0.99931 
0.00118336 -0.00220449 0.99931 
0.00118336 -0.00220449 0.99931 
0.00118336 -0.00220449 0.99931 
-0.000317841 0.00153633 0.998372 
-0.000317841 0.00153633 0.998372 
-0.000317841 0.00153633 0.998372 
-0.000317841 0.00153633 0.998372 
-7.84411e-05 9.96824e-05 0.999905 
-7.84411e-05 9.96824e-05 0.999905 
-7.84411e-05 9.96824e-05 0.999905 
-7.84411e-05 9.96824e-05 0.999905 
-0.000399131 0.000567508 0.999762 
-0.000399131 0.000567508 0.999762 
-0.000399131 0.000567508 0.999762 
-0.000399131 0.000567508 0.999762 
0.000116754 -6.45382e-05 1.00033 
0.000116754 -6.45382e-05 1.00033 
0.000116754 -6.45382e-05 1.00033 
0.000116754 -6.45382e-05 1.00033 
0.00114249 -5.79658e-05 0.999204 
0.00114249 -5.79658e-05 0.999204 
0.00114249 -5.79658e-05 0.999204 
0.00114249 -5.79658e-05 0.999204 
0.000447535 0.000260996 1.0001 
0.000447535 0.000260996 1.0001 
0.000447535 0.000260996 1.0001 
0.000447535 0.000260996 1.0001 
0.000109322 0.00250393 0.998488 
0.000109322 0.00250393 0.998488 
0.000109322 0.00250393 0.998488 
0.000109322 0.00250393 0.998488 
-0.000561703 0.00055674 0.997883 
-0.000561703 0.00055674 0.997883 
-0.000561703 0.00055674 0.997883 
-0.000561703 0.00055674 0.997883 
9.33523e-05 -0.000102184 1.00032 
9.33523e-05 -0.000102184 1.00032 
9.33523e-05 -0.000102184 1.00032 
9.33523e-05 -0.000102184 1.00032 
0.000165688 0.00032078 1.00016 
0.000165688 0.00032078 1.00016 
0.000165688 0.00032078 1.00016 
0.000165688 0.00032078 1.00016 
-0.000536945 0.00207025 0.998572 
-0.000536945 0.00207025 0.998572 
-0.000536945 0.00207025 0.998572 
-0.000536945 0.00207025 0.998572 
-0.000123 -0.000134047 1.00039 
-0.000123 -0.000134047 1.00039 
-0.000123 -0.000134047 1.00039 
-0.000123 -0.000134047 1.00039 
-0.000464977 0.000510462 0.999755 
-0.000464977 0.000510462 0.999755 
-0.000464977 0.000510462 0.999755 
-0.000464977 0.000510462 0.999755 
-0.000108218 0.000651677 0.999348 
-0.000108218 0.000651677 0.999348 
-0.000108218 0.000651677 0.999348 
-0.000108218 0.000651677 0.999348 
-0.000376525 0.000452187 0.999688 
-0.000376525 0.000452187 0.999688 
-0.000376525 0.000452187 0.999688 
-0.000376525 0.000452187 0.999688 
-0.000128816 -0.000246419 0.999541 
-0.000128816 -0.000246419 0.999541 
-0.000128816 -0.000246419 0.999541 
-0.000128816 -0.000246419 0.999541 
-0.000279433 0.000867397 0.999353 
-0.000279433 0.000867397 0.999353 
-0.000279433 0.000867397 0.999353 
-0.000279433 0.000867397 0.999353 
-8.42391e-05 0.000240121 1.00025 
-8.42391e-05 0.000240121 1.00025 
-8.42391e-05 0.000240121 1.00025 
-8.42391e-05 0.000240121 1.00025 
0.00139192 -0.00155083 0.997695 
0.00139192 -0.00155083 0.997695 
0.00139192 -0.00155083 0.997695 
0.00139192 -0.00155083 0.997695 
-0.000323802 -7.65611e-05 1.00005 
-0.000323802 -7.65611e-05 1.00005 
-0.000323802 -7.65611e-05 1.00005 
-0.000323802 -7.65611e-05 1.00005 
-0.000237585 0.00018332 0.999895 
-0.000237585 0.00018332 0.999895 
-0.000237585 0.00018332 0.999895 
-0.000237585 0.00018332 0.999895 
-0.00254402 -0.000305864 0.997636 
-0.00254402 -0.000305864 0.997636 
-0.00254402 -0.000305864 0.997636 
-0.00254402 -0.000305864 0.997636 
1.41395e-05 -0.000508132 1.00006 
1.41395e-05 -0.000508132 1.00006 
1.41395e-05 -0.000508132 1.00006 
1.41395e-05 -0.000508132 1.00006 
0.00160276 0.00166152 0.999022 
0.00160276 0.00166152 0.999022 
0.00160276 0.00166152 0.999022 
0.00160276 0.00166152 0.999022 
-0.000612854 -0.000247667 0.99952 
-0.000612854 -0.000247667 0.99952 
-0.000612854 -0.000247667 0.99952 
-0.000612854 -0.000247667 0.99952 
-0.000717459 -0.000626242 0.999398 
-0.000717459 -0.000626242 0.999398 
-0.000717459 -0.000626242 0.999398 
-0.000717459 -0.000626242 0.999398 
0.000171521 0.00032429 0.999532 
0.000171521 0.00032429 0.999532 
0.000171521 0.00032429 0.999532 
0.000171521 0.00032429 0.999532 
-0.000153304 -2.94683e-05 0.999523 
-0.000153304 -2.94683e-05 0.999523 
-0.000153304 -2.94683e-05 0.999523 
-0.000153304 -2.94683e-05 0.999523 
0.00122882 0.000364827 0.998492 
0.00122882 0.000364827 0.998492 
0.00122882 0.000364827 0.998492 
0.00122882 0.000364827 0.998492 
0.000541379 1.24784e-05 1.00014 
0.000541379 1.24784e-05 1.00014 
0.000541379 1.24784e-05 1.00014 
0.000541379 1.24784e-05 1.00014 
0.000123335 -0.000209924 0.999933 
0.000123335 -0.000209924 0.999933 
0.000123335 -0.000209924 0.999933 
0.000123335 -0.000209924 0.999933 
-0.000397666 0.00119544 0.998109 
-0.000397666 0.00119544 0.998109 
-0.000397666 0.00119544 0.998109 
-0.000397666 0.00119544 0.998109 
-0.00117389 -0.000512643 0.997981 
-0.00117389 -0.000512643 0.997981 
-0.00117389 -0.000512643 0.997981 
-0.00117389 -0.000512643 0.997981 
-0.000325618 8.41681e-05 1.00017 
-0.000325618 8.41681e-05 1.00017 
-0.000325618 8.41681e-05 1.00017 
-0.000325618 8.41681e-05 1.00017 
9.98696e-05 -0.000517808 1.00012 
9.98696e-05 -0.000517808 1.00012 
9.98696e-05 -0.000517808 1.00012 
9.98696e-05 -0.000517808 1.00012 
0.000877797 0.000106295 0.999629 
0.000877797 0.000106295 0.999629 
0.000877797 0.000106295 0.999629 
0.000877797 0.000106295 0.999629 
-0.000524269 -0.00079524 0.997877 
-0.000524269 -0.00079524 0.997877 
-0.000524269 -0.00079524 0.997877 
-0.000524269 -0.00079524 0.997877 
-0.000276861 -0.000346644 0.999259 
-0.000276861 -0.000346644 0.999259 
-0.000276861 -0.000346644 0.999259 
-0.000276861 -0.000346644 0.999259 
0.000717968 0.00360847 0.997429 
0.000717968 0.00360847 0.997429 
0.000717968 0.00360847 0.997429 
0.000717968 0.00360847 0.997429 
-0.000156907 -0.000146895 1 
-0.000156907 -0.000146895 1 
-0.000156907 -0.000146895 1 
-0.000156907 -0.000146895 1 
-0.000132842 -2.67214e-05 1.00034 
-0.000132842 -2.67214e-05 1.00034 
-0.000132842 -2.67214e-05 1.00034 
-0.000132842 -2.67214e-05 1.00034 
0.000632826 -0.00243556 0.997896 
0.000632826 -0.00243556 0.997896 
0.000632826 -0.00243556 0.997896 
0.000632826 -0.00243556 0.997896 
2.05775e-05 -0.000503494 0.999434 
2.05775e-05 -0.000503494 0.999434 
2.05775e-05 -0.000503494 0.999434 
2.05775e-05 -0.000503494 0.999434 
-0.000399833 -0.000288803 0.999503 
-0.000399833 -0.000288803 0.999503 
-0.000399833 -0.000288803 0.999503 
-0.000399833 -0.000288803 0.999503 
0.000284374 -0.000192226 1.00014 
0.000284374 -0.000192226 1.00014 
0.000284374 -0.000192226 1.00014 
0.000284374 -0.000192226 1.00014 
0.000772959 -0.00150387 0.998328 
0.000772959 -0.00150387 0.998328 
0.000772959 -0.00150387 0.998328 
0.000772959 -0.00150387 0.998328 
-5.90644e-05 0.000694696 0.99916 
-5.90644e-05 0.000694696 0.99916 
-5.90644e-05 0.000694696 0.99916 
-5.90644e-05 0.000694696 0.99916 
0.00291196 -0.000588637 0.998604 
0.00291196 -0.000588637 0.998604 
0.00291196 -0.000588637 0.998604 
0.00291196 -0.000588637 0.998604 
6.53711e-05 -0.000386677 1.00009 
6.53711e-05 -0.000386677 1.00009 
6.53711e-05 -0.000386677 1.00009 
6.53711e-05 -0.000386677 1.00009 
0.00051244 -0.000164465 0.999992 
0.00051244 -0.000164465 0.999992 
0.00051244 -0.000164465 0.999992 
0.00051244 -0.000164465 0.999992 
-0.000750422 0.00110738 0.998445 
-0.000750422 0.00110738 0.998445 
-0.000750422 0.00110738 0.998445 
-0.000750422 0.00110738 0.998445 
0.000687564 -0.000340053 0.999694 
0.000687564 -0.000340053 0.999694 
0.000687564 -0.000340053 0.999694 
0.000687564 -0.000340053 0.999694 
-7.43315e-05 4.3681e-06 1.00036 
-7.43315e-05 4.3681e-06 1.00036 
-7.43315e-05 4.3681e-06 1.00036 
-7.43315e-05 4.3681e-06 1.00036 
-0.00032813 -0.000339807 0.999555 
-0.00032813 -0.000339807 0.999555 
-0.00032813 -0.000339807 0.999555 
-0.00032813 -0.000339807 0.999555 
-0.00307427 0.00112308 0.997392 
-0.00307427 0.00112308 0.997392 
-0.00307427 0.00112308 0.997392 
-0.00307427 0.00112308 0.997392 
-0.000298699 -0.000455419 0.999984 
-0.000298699 -0.000455419 0.999984 
-0.000298699 -0.000455419 0.999984 
-0.000298699 -0.000455419 0.999984 
-8.00524e-05 -0.000294762 1.00008 
-8.00524e-05 -0.000294762 1.00008 
-8.00524e-05 -0.000294762 1.00008 
-8.00524e-05 -0.000294762 1.00008 
0.00124246 -0.00112838 0.998865 
0.00124246 -0.00112838 0.998865 
0.00124246 -0.00112838 0.998865 
0.00124246 -0.00112838 0.998865 
2.81693e-05 0.000182042 1.0004 
2.81693e-05 0.000182042 1.0004 
2.81693e-05 0.000182042 1.0004 
2.81693e-05 0.000182042 1.0004 
-7.92987e-05 -0.000408474 1.00011 
-7.92987e-05 -0.000408474 1.00011 
-7.92987e-05 -0.000408474 1.00011 
-7.92987e-05 -0.000408474 1.00011 
-0.000739269 0.000326169 0.999915 
-0.000739269 0.000326169 0.999915 
-0.000739269 0.000326169 0.999915 
-0.000739269 0.000326169 0.999915 
-0.00138205 -0.000234281 0.997997 
-0.00138205 -0.000234281 0.997997 
-0.00138205 -0.000234281 0.997997 
-0.00138205 -0.000234281 0.997997 
-0.000242686 -0.00174999 0.998153 
-0.000242686 -0.00174999 0.998153 
-0.000242686 -0.00174999 0.998153 
-0.000242686 -0.00174999 0.998153 
-0.00018635 -0.000466481 0.999594 
-0.00018635 -0.000466481 0.999594 
-0.00018635 -0.000466481 0.999594 
-0.00018635 -0.000466481 0.999594 
-0.000758796 0.00200158 0.998365 
-0.000758796 0.00200158 0.998365 
-0.000758796 0.00200158 0.998365 
-0.000758796 0.00200158 0.998365 
-0.000293117 -0.000232856 0.999585 
-0.000293117 -0.000232856 0.999585 
-0.000293117 -0.000232856 0.999585 
-0.000293117 -0.000232856 0.999585 
-0.000596451 -0.00199205 0.998935 
-0.000596451 -0.00199205 0.998935 
-0.000596451 -0.00199205 0.998935 
-0.000596451 -0.00199205 0.998935 
0.00129437 -0.000545253 0.998457 
0.00129437 -0.000545253 0.998457 
0.00129437 -0.000545253 0.998457 
0.00129437 -0.000545253 0.998457 
-0.000325615 0.000341255 0.999689 
-0.000325615 0.000341255 0.999689 
-0.000325615 0.000341255 0.999689 
-0.000325615 0.000341255 0.999689 
-0.000344022 0.000262233 1.00019 
-0.000344022 0.000262233 1.00019 
-0.000344022 0.000262233 1.00019 
-0.000344022 0.000262233 1.00019 
-0.000100726 0.000416462 1.00003 
-0.000100726 0.000416462 1.00003 
-0.000100726 0.000416462 1.00003 
-0.000100726 0.000416462 1.00003 
-0.000362106 -0.000878624 0.997947 
-0.000362106 -0.000878624 0.997947 
-0.000362106 -0.000878624 0.997947 
-0.000362106 -0.000878624 0.997947 
-4.09226e-05 -0.000422255 0.999388 
-4.09226e-05 -0.000422255 0.999388 
-4.09226e-05 -0.000422255 0.999388 
-4.09226e-05 -0.000422255 0.999388 
0.000429361 0.000142996 0.999761 
0.000429361 0.000142996 0.999761 
0.000429361 0.000142996 0.999761 
0.000429361 0.000142996 0.999761 
0.000232991 -0.00044642 1.00018 
0.000232991 -0.00044642 1.00018 
0.000232991 -0.00044642 1.00018 
0.000232991 -0.00044642 1.00018 
0.00199626 0.000162982 0.99785 
0.00199626 0.000162982 0.99785 
0.00199626 0.000162982 0.99785 
0.00199626 0.000162982 0.99785 
-0.000229723 0.000617506 0.999367 
-0.000229723 0.000617506 0.999367 
-0.000229723 0.000617506 0.999367 
-0.000229723 0.000617506 0.999367 
0.00220146 -0.00076225 0.996663 
0.00220146 -0.00076225 0.996663 
0.00220146 -0.00076225 0.996663 
0.00220146 -0.00076225 0.996663 
3.10989e-05 1.23723e-05 1.00033 
3.10989e-05 1.23723e-05 1.00033 
3.10989e-05 1.23723e-05 1.00033 
3.10989e-05 1.23723e-05 1.00033 
-0.000952869 0.000548773 0.998515 
-0.000952869 0.000548773 0.998515 
-0.000952869 0.000548773 0.998515 
-0.000952869 0.000548773 0.998515 
-0.000399894 -0.000466663 0.999491 
-0.000399894 -0.000466663 0.999491 
-0.000399894 -0.000466663 0.999491 
-0.000399894 -0.000466663 0.999491 
0.000122603 0.000316792 1.00014 
0.000122603 0.000316792 1.00014 
0.000122603 0.000316792 1.00014 
0.000122603 0.000316792 1.00014 
-0.000126952 -0.000613655 0.999567 
-0.000126952 -0.000613655 0.999567 
-0.000126952 -0.000613655 0.999567 
-0.000126952 -0.000613655 0.999567 
0.000492915 0.000808192 0.998864 
0.000492915 0.000808192 0.998864 
0.000492915 0.000808192 0.998864 
0.000492915 0.000808192 0.998864 
-0.000109253 4.61998e-05 1.00037 
-0.000109253 4.61998e-05 1.00037 
-0.000109253 4.61998e-05 1.00037 
-0.000109253 4.61998e-05 1.00037 
0.000267374 -0.000906562 0.999641 
0.000267374 -0.000906562 0.999641 
0.000267374 -0.000906562 0.999641 
0.000267374 -0.000906562 0.999641 
5.2193e-05 0.000271235 0.999602 
5.2193e-05 0.000271235 0.999602 
5.2193e-05 0.000271235 0.999602 
5.2193e-05 0.000271235 0.999602 
-0.000691203 -0.00105742 0.998 
-0.000691203 -0.00105742 0.998 
-0.000691203 -0.00105742 0.998 
-0.000691203 -0.00105742 0.998 
0.000270828 0.000289865 0.997951 
0.000270828 0.000289865 0.997951 
0.000270828 0.000289865 0.997951 
0.000270828 0.000289865 0.997951 
-0.000175814 -0.000159661 0.998903 
-0.000175814 -0.000159661 0.998903 
-0.000175814 -0.000159661 0.998903 
-0.000175814 -0.000159661 0.998903 
-0.000316773 0.000161347 1.00017 
-0.000316773 0.000161347 1.00017 
-0.000316773 0.000161347 1.00017 
-0.000316773 0.000161347 1.00017 
0.000600313 -0.000525612 0.997676 
0.000600313 -0.000525612 0.997676 
0.000600313 -0.000525612 0.997676 
0.000600313 -0.000525612 0.997676 
0.00066584 -0.000360686 0.999697 
0.00066584 -0.000360686 0.999697 
0.00066584 -0.000360686 0.999697 
0.00066584 -0.000360686 0.999697 
-0.000143632 0.00104869 0.99866 
-0.000143632 0.00104869 0.99866 
-0.000143632 0.00104869 0.99866 
-0.000143632 0.00104869 0.99866 
0.000717854 0.000133704 1.00001 
0.000717854 0.000133704 1.00001 
0.000717854 0.000133704 1.00001 
0.000717854 0.000133704 1.00001 
-0.000353822 9.87909e-05 1.00017 
-0.000353822 9.87909e-05 1.00017 
-0.000353822 9.87909e-05 1.00017 
-0.000353822 9.87909e-05 1.00017 
9.13935e-06 -7.60137e-05 1.00033 
9.13935e-06 -7.60137e-05 1.00033 
9.13935e-06 -7.60137e-05 1.00033 
9.13935e-06 -7.60137e-05 1.00033 
0.000112132 0.000220333 1.00023 
0.000112132 0.000220333 1.00023 
0.000112132 0.000220333 1.00023 
0.000112132 0.000220333 1.00023 
0.00139583 0.00105035 0.997913 
0.00139583 0.00105035 0.997913 
0.00139583 0.00105035 0.997913 
0.00139583 0.00105035 0.997913 
-9.65874e-05 7.0971e-05 1.00037 
-9.65874e-05 7.0971e-05 1.00037 
-9.65874e-05 7.0971e-05 1.00037 
-9.65874e-05 7.0971e-05 1.00037 
0.000357341 8.52273e-05 0.99978 
0.000357341 8.52273e-05 0.99978 
0.000357341 8.52273e-05 0.99978 
0.000357341 8.52273e-05 0.99978 
-0.000469214 -0.000167129 0.999995 
-0.000469214 -0.000167129 0.999995 
-0.000469214 -0.000167129 0.999995 
-0.000469214 -0.000167129 0.999995 
0.000386278 -0.00226149 0.996038 
0.000386278 -0.00226149 0.996038 
0.000386278 -0.00226149 0.996038 
0.000386278 -0.00226149 0.996038 
0.000427499 -0.000216658 0.999737 
0.000427499 -0.000216658 0.999737 
0.000427499 -0.000216658 0.999737 
0.000427499 -0.000216658 0.999737 
-0.000431021 -0.000799088 0.998486 
-0.000431021 -0.000799088 0.998486 
-0.000431021 -0.000799088 0.998486 
-0.000431021 -0.000799088 0.998486 
4.58862e-05 0.000109844 1.00036 
4.58862e-05 0.000109844 1.00036 
4.58862e-05 0.000109844 1.00036 
4.58862e-05 0.000109844 1.00036 
0.000472074 -0.000554414 0.999529 
0.000472074 -0.000554414 0.999529 
0.000472074 -0.000554414 0.999529 
0.000472074 -0.000554414 0.999529 
-0.000324978 -9.67497e-05 0.999518 
-0.000324978 -9.67497e-05 0.999518 
-0.000324978 -9.67497e-05 0.999518 
-0.000324978 -9.67497e-05 0.999518 
-0.000704448 7.67129e-05 0.999887 
-0.000704448 7.67129e-05 0.999887 
-0.000704448 7.67129e-05 0.999887 
-0.000704448 7.67129e-05 0.999887 
-0.000288706 0.00100118 0.997969 
-0.000288706 0.00100118 0.997969 
-0.000288706 0.00100118 0.997969 
-0.000288706 0.00100118 0.997969 
4.93313e-05 0.000113711 1.00036 
4.93313e-05 0.000113711 1.00036 
4.93313e-05 0.000113711 1.00036 
4.93313e-05 0.000113711 1.00036 
-0.000341006 -0.000904166 0.999046 
-0.000341006 -0.000904166 0.999046 
-0.000341006 -0.000904166 0.999046 
-0.000341006 -0.000904166 0.999046 
-0.000803272 -0.00204517 0.998438 
-0.000803272 -0.00204517 0.998438 
-0.000803272 -0.00204517 0.998438 
-0.000803272 -0.00204517 0.998438 
0.00100608 0.00144372 0.998672 
0.00100608 0.00144372 0.998672 
0.00100608 0.00144372 0.998672 
0.00100608 0.00144372 0.998672 
0.00146239 -0.00119707 0.997335 
0.00146239 -0.00119707 0.997335 
0.00146239 -0.00119707 0.997335 
0.00146239 -0.00119707 0.997335 
-0.000571393 -0.00154448 0.997588 
-0.000571393 -0.00154448 0.997588 
-0.000571393 -0.00154448 0.997588 
-0.000571393 -0.00154448 0.997588 
0.00146425 0.000561962 0.998074 
0.00146425 0.000561962 0.998074 
0.00146425 0.000561962 0.998074 
0.00146425 0.000561962 0.998074 
0.000238265 0.000373707 0.99956 
0.000238265 0.000373707 0.99956 
0.000238265 0.000373707 0.99956 
0.000238265 0.000373707 0.99956 
-0.00171523 -0.00218836 0.998351 
-0.00171523 -0.00218836 0.998351 
-0.00171523 -0.00218836 0.998351 
-0.00171523 -0.00218836 0.998351 
-0.00183039 -0.000607432 0.998179 
-0.00183039 -0.000607432 0.998179 
-0.00183039 -0.000607432 0.998179 
-0.00183039 -0.000607432 0.998179 
0.000125901 0.000447367 0.999642 
0.000125901 0.000447367 0.999642 
0.000125901 0.000447367 0.999642 
0.000125901 0.000447367 0.999642 
0.00236566 -0.000186686 0.99887 
0.00236566 -0.000186686 0.99887 
0.00236566 -0.000186686 0.99887 
0.00236566 -0.000186686 0.99887 
3.27367e-05 0.000258934 1.00039 
3.27367e-05 0.000258934 1.00039 
3.27367e-05 0.000258934 1.00039 
3.27367e-05 0.000258934 1.00039 
-0.000133049 3.31075e-05 1.00038 
-0.000133049 3.31075e-05 1.00038 
-0.000133049 3.31075e-05 1.00038 
-0.000133049 3.31075e-05 1.00038 
0.000359726 -0.000271437 0.99898 
0.000359726 -0.000271437 0.99898 
0.000359726 -0.000271437 0.99898 
0.000359726 -0.000271437 0.99898 
-0.000214099 -5.47042e-05 1.00038 
-0.000214099 -5.47042e-05 1.00038 
-0.000214099 -5.47042e-05 1.00038 
-0.000214099 -5.47042e-05 1.00038 
-0.00192453 -0.00187682 0.997444 
-0.00192453 -0.00187682 0.997444 
-0.00192453 -0.00187682 0.997444 
-0.00192453 -0.00187682 0.997444 
-0.00137878 0.00105601 0.997992 
-0.00137878 0.00105601 0.997992 
-0.00137878 0.00105601 0.997992 
-0.00137878 0.00105601 0.997992 
0.000266309 -0.000288617 0.999756 
0.000266309 -0.000288617 0.999756 
0.000266309 -0.000288617 0.999756 
0.000266309 -0.000288617 0.999756 
-5.32399e-05 0.00150741 0.997226 
-5.32399e-05 0.00150741 0.997226 
-5.32399e-05 0.00150741 0.997226 
-5.32399e-05 0.00150741 0.997226 
2.38733e-05 8.83855e-05 1.00033 
2.38733e-05 8.83855e-05 1.00033 
2.38733e-05 8.83855e-05 1.00033 
2.38733e-05 8.83855e-05 1.00033 
-0.000222477 0.000751112 0.999752 
-0.000222477 0.000751112 0.999752 
-0.000222477 0.000751112 0.999752 
-0.000222477 0.000751112 0.999752 
0.000195727 0.00020029 1.00016 
0.000195727 0.00020029 1.00016 
0.000195727 0.00020029 1.00016 
0.000195727 0.00020029 1.00016 
-0.00175477 0.000420885 0.999427 
-0.00175477 0.000420885 0.999427 
-0.00175477 0.000420885 0.999427 
-0.00175477 0.000420885 0.999427 
0.000846471 0.000163516 0.999591 
0.000846471 0.000163516 0.999591 
0.000846471 0.000163516 0.999591 
0.000846471 0.000163516 0.999591 
-0.000336425 -0.000417027 0.999886 
-0.000336425 -0.000417027 0.999886 
-0.000336425 -0.000417027 0.999886 
-0.000336425 -0.000417027 0.999886 
-0.000121662 6.06782e-05 1.00026 
-0.000121662 6.06782e-05 1.00026 
-0.000121662 6.06782e-05 1.00026 
-0.000121662 6.06782e-05 1.00026 
-0.000350199 -1.70141e-05 1.00016 
-0.000350199 -1.70141e-05 1.00016 
-0.000350199 -1.70141e-05 1.00016 
-0.000350199 -1.70141e-05 1.00016 
0.000214375 -0.000166976 0.999625 
0.000214375 -0.000166976 0.999625 
0.000214375 -0.000166976 0.999625 
0.000214375 -0.000166976 0.999625 
0.000694122 -0.00061046 0.999479 
0.000694122 -0.00061046 0.999479 
0.000694122 -0.00061046 0.999479 
0.000694122 -0.00061046 0.999479 
3.39873e-05 -0.000301598 0.999206 
3.39873e-05 -0.000301598 0.999206 
3.39873e-05 -0.000301598 0.999206 
3.39873e-05 -0.000301598 0.999206 
0.00219091 0.000521866 0.999074 
0.00219091 0.000521866 0.999074 
0.00219091 0.000521866 0.999074 
0.00219091 0.000521866 0.999074 
0.000562819 -4.79502e-05 0.999682 
0.000562819 -4.79502e-05 0.999682 
0.000562819 -4.79502e-05 0.999682 
0.000562819 -4.79502e-05 0.999682 
-0.000423616 -0.000323397 1.00005 
-0.000423616 -0.000323397 1.00005 
-0.000423616 -0.000323397 1.00005 
-0.000423616 -0.000323397 1.00005 
0.00248912 -0.000708588 0.99728 
0.00248912 -0.000708588 0.99728 
0.00248912 -0.000708588 0.99728 
0.00248912 -0.000708588 0.99728 
0.000501678 -0.000114237 0.999988 
0.000501678 -0.000114237 0.999988 
0.000501678 -0.000114237 0.999988 
0.000501678 -0.000114237 0.999988 
-3.29594e-05 -0.000642967 1.00005 
-3.29594e-05 -0.000642967 1.00005 
-3.29594e-05 -0.000642967 1.00005 
-3.29594e-05 -0.000642967 1.00005 
-4.10759e-05 -0.000182769 1.00037 
-4.10759e-05 -0.000182769 1.00037 
-4.10759e-05 -0.000182769 1.00037 
-4.10759e-05 -0.000182769 1.00037 
1.34648e-05 -0.000217472 1.00038 
1.34648e-05 -0.000217472 1.00038 
1.34648e-05 -0.000217472 1.00038 
1.34648e-05 -0.000217472 1.00038 
0.000453552 0.00051004 0.999886 
0.000453552 0.00051004 0.999886 
0.000453552 0.00051004 0.999886 
0.000453552 0.00051004 0.999886 
-0.00102837 -0.000119274 0.998011 
-0.00102837 -0.000119274 0.998011 
-0.00102837 -0.000119274 0.998011 
-0.00102837 -0.000119274 0.998011 
-0.000688081 0.000378569 0.999656 
-0.000688081 0.000378569 0.999656 
-0.000688081 0.000378569 0.999656 
-0.000688081 0.000378569 0.999656 
0.000607568 0.000472375 0.999577 
0.000607568 0.000472375 0.999577 
0.000607568 0.000472375 0.999577 
0.000607568 0.000472375 0.999577 
0.000419513 -0.000136311 0.999868 
0.000419513 -0.000136311 0.999868 
0.000419513 -0.000136311 0.999868 
0.000419513 -0.000136311 0.999868 
-0.000193554 -0.000290805 0.999572 
-0.000193554 -0.000290805 0.999572 
-0.000193554 -0.000290805 0.999572 
-0.000193554 -0.000290805 0.999572 
0.000921607 -7.01171e-05 0.999373 
0.000921607 -7.01171e-05 0.999373 
0.000921607 -7.01171e-05 0.999373 
0.000921607 -7.01171e-05 0.999373 
-0.000209846 -0.000587182 1.00001 
-0.000209846 -0.000587182 1.00001 
-0.000209846 -0.000587182 1.00001 
-0.000209846 -0.000587182 1.00001 
-0.000244609 0.000983176 0.99944 
-0.000244609 0.000983176 0.99944 
-0.000244609 0.000983176 0.99944 
-0.000244609 0.000983176 0.99944 
-0.000421556 0.000383167 0.999841 
-0.000421556 0.000383167 0.999841 
-0.000421556 0.000383167 0.999841 
-0.000421556 0.000383167 0.999841 
0.000179367 -0.00022694 0.997966 
0.000179367 -0.00022694 0.997966 
0.000179367 -0.00022694 0.997966 
0.000179367 -0.00022694 0.997966 
-0.000152903 0.00024652 0.999104 
-0.000152903 0.00024652 0.999104 
-0.000152903 0.00024652 0.999104 
-0.000152903 0.00024652 0.999104 
-8.19852e-05 0.000333249 0.999069 
-8.19852e-05 0.000333249 0.999069 
-8.19852e-05 0.000333249 0.999069 
-8.19852e-05 0.000333249 0.999069 
-0.000102113 0.000331829 0.99907 
-0.000102113 0.000331829 0.99907 
-0.000102113 0.000331829 0.99907 
-0.000102113 0.000331829 0.99907 
0.000475439 0.000667026 0.999578 
0.000475439 0.000667026 0.999578 
0.000475439 0.000667026 0.999578 
0.000475439 0.000667026 0.999578 
-0.000817104 -0.00206769 0.998689 
-0.000817104 -0.00206769 0.998689 
-0.000817104 -0.00206769 0.998689 
-0.000817104 -0.00206769 0.998689 
-0.00047553 3.65132e-05 0.999451 
-0.00047553 3.65132e-05 0.999451 
-0.00047553 3.65132e-05 0.999451 
-0.00047553 3.65132e-05 0.999451 
0.000253612 -0.000172713 0.999713 
0.000253612 -0.000172713 0.999713 
0.000253612 -0.000172713 0.999713 
0.000253612 -0.000172713 0.999713 
0.00194286 0.00148587 0.998554 
0.00194286 0.00148587 0.998554 
0.00194286 0.00148587 0.998554 
0.00194286 0.00148587 0.998554 
-0.000153527 -0.000505372 0.99998 
-0.000153527 -0.000505372 0.99998 
-0.000153527 -0.000505372 0.99998 
-0.000153527 -0.000505372 0.99998 
0.00199176 -0.00156278 0.997192 
0.00199176 -0.00156278 0.997192 
0.00199176 -0.00156278 0.997192 
0.00199176 -0.00156278 0.997192 
-0.00161356 -0.00198109 0.997662 
-0.00161356 -0.00198109 0.997662 
-0.00161356 -0.00198109 0.997662 
-0.00161356 -0.00198109 0.997662 
-0.0022418 0.000432526 0.997719 
-0.0022418 0.000432526 0.997719 
-0.0022418 0.000432526 0.997719 
-0.0022418 0.000432526 0.997719 
-0.000690432 -0.00119065 0.998413 
-0.000690432 -0.00119065 0.998413 
-0.000690432 -0.00119065 0.998413 
-0.000690432 -0.00119065 0.998413 
-0.000995366 -0.00278207 0.997825 
-0.000995366 -0.00278207 0.997825 
-0.000995366 -0.00278207 0.997825 
-0.000995366 -0.00278207 0.997825 
0.000138535 -0.00049706 0.99977 
0.000138535 -0.00049706 0.99977 
0.000138535 -0.00049706 0.99977 
0.000138535 -0.00049706 0.99977 
0.000986519 0.000153489 0.999082 
0.000986519 0.000153489 0.999082 
0.000986519 0.000153489 0.999082 
0.000986519 0.000153489 0.999082 
0.000770268 -0.00167672 0.998919 
0.000770268 -0.00167672 0.998919 
0.000770268 -0.00167672 0.998919 
0.000770268 -0.00167672 0.998919 
-0.000588685 0.000265645 0.999851 
-0.000588685 0.000265645 0.999851 
-0.000588685 0.000265645 0.999851 
-0.000588685 0.000265645 0.999851 
-0.0014631 0.0024792 0.998535 
-0.0014631 0.0024792 0.998535 
-0.0014631 0.0024792 0.998535 
-0.0014631 0.0024792 0.998535 
-0.00029497 -0.000414711 1.00002 
-0.00029497 -0.000414711 1.00002 
-0.00029497 -0.000414711 1.00002 
-0.00029497 -0.000414711 1.00002 
-1.23665e-05 -0.000140748 0.999652 
-1.23665e-05 -0.000140748 0.999652 
-1.23665e-05 -0.000140748 0.999652 
-1.23665e-05 -0.000140748 0.999652 
-0.000193111 -0.000584725 1.00003 
-0.000193111 -0.000584725 1.00003 
-0.000193111 -0.000584725 1.00003 
-0.000193111 -0.000584725 1.00003 
0.00272859 0.000728028 0.9983 
0.00272859 0.000728028 0.9983 
0.00272859 0.000728028 0.9983 
0.00272859 0.000728028 0.9983 
-0.000352647 0.000742553 0.999759 
-0.000352647 0.000742553 0.999759 
-0.000352647 0.000742553 0.999759 
-0.000352647 0.000742553 0.999759 
-0.000127373 -0.000112221 1.00041 
-0.000127373 -0.000112221 1.00041 
-0.000127373 -0.000112221 1.00041 
-0.000127373 -0.000112221 1.00041 
-0.000514107 0.000138192 0.999691 
-0.000514107 0.000138192 0.999691 
-0.000514107 0.000138192 0.999691 
-0.000514107 0.000138192 0.999691 
0.000282695 0.000223138 1.00017 
0.000282695 0.000223138 1.00017 
0.000282695 0.000223138 1.00017 
0.000282695 0.000223138 1.00017 
-0.00029931 -0.000301629 0.999536 
-0.00029931 -0.000301629 0.999536 
-0.00029931 -0.000301629 0.999536 
-0.00029931 -0.000301629 0.999536 
-0.00111123 -0.00272159 0.997327 
-0.00111123 -0.00272159 0.997327 
-0.00111123 -0.00272159 0.997327 
-0.00111123 -0.00272159 0.997327 
0.000196843 -9.90278e-05 0.999535 
0.000196843 -9.90278e-05 0.999535 
0.000196843 -9.90278e-05 0.999535 
0.000196843 -9.90278e-05 0.999535 
0.000320212 0.000396978 0.993552 
0.000320212 0.000396978 0.993552 
0.000320212 0.000396978 0.993552 
0.000320212 0.000396978 0.993552 
-0.000809977 -0.00053844 0.998862 
-0.000809977 -0.00053844 0.998862 
-0.000809977 -0.00053844 0.998862 
-0.000809977 -0.00053844 0.998862 
-0.000137385 0.000525689 1.00006 
-0.000137385 0.000525689 1.00006 
-0.000137385 0.000525689 1.00006 
-0.000137385 0.000525689 1.00006 
-0.000635804 -0.00140967 0.99829 
-0.000635804 -0.00140967 0.99829 
-0.000635804 -0.00140967 0.99829 
-0.000635804 -0.00140967 0.99829 
0.000343116 0.000503543 1.00012 
0.000343116 0.000503543 1.00012 
0.000343116 0.000503543 1.00012 
0.000343116 0.000503543 1.00012 
0.00064453 -0.00166613 0.999093 
0.00064453 -0.00166613 0.999093 
0.00064453 -0.00166613 0.999093 
0.00064453 -0.00166613 0.999093 
-0.000256794 -0.00017461 1.00012 
-0.000256794 -0.00017461 1.00012 
-0.000256794 -0.00017461 1.00012 
-0.000256794 -0.00017461 1.00012 
-0.00012125 2.18133e-05 0.999881 
-0.00012125 2.18133e-05 0.999881 
-0.00012125 2.18133e-05 0.999881 
-0.00012125 2.18133e-05 0.999881 
0.000897663 -0.000389474 0.999083 
0.000897663 -0.000389474 0.999083 
0.000897663 -0.000389474 0.999083 
0.000897663 -0.000389474 0.999083 
0.00206228 0.000342397 0.998893 
0.00206228 0.000342397 0.998893 
0.00206228 0.000342397 0.998893 
0.00206228 0.000342397 0.998893 
-0.000139156 0.000401054 0.999939 
-0.000139156 0.000401054 0.999939 
-0.000139156 0.000401054 0.999939 
-0.000139156 0.000401054 0.999939 
0.000217758 -0.000288523 1.00015 
0.000217758 -0.000288523 1.00015 
0.000217758 -0.000288523 1.00015 
0.000217758 -0.000288523 1.00015 
-0.000399343 0.000805448 0.999252 
-0.000399343 0.000805448 0.999252 
-0.000399343 0.000805448 0.999252 
-0.000399343 0.000805448 0.999252 
0.000660241 0.000159376 0.999065 
0.000660241 0.000159376 0.999065 
0.000660241 0.000159376 0.999065 
0.000660241 0.000159376 0.999065 
0.000912516 0.000268288 0.992172 
0.000912516 0.000268288 0.992172 
0.000912516 0.000268288 0.992172 
0.000912516 0.000268288 0.992172 
0.000403718 -0.000676454 0.998604 
0.000403718 -0.000676454 0.998604 
0.000403718 -0.000676454 0.998604 
0.000403718 -0.000676454 0.998604 
0.00027838 -0.000131052 0.999222 
0.00027838 -0.000131052 0.999222 
0.00027838 -0.000131052 0.999222 
0.00027838 -0.000131052 0.999222 
-0.000836241 0.000775871 0.99748 
-0.000836241 0.000775871 0.99748 
-0.000836241 0.000775871 0.99748 
-0.000836241 0.000775871 0.99748 
0.00199483 0.00046693 0.998271 
0.00199483 0.00046693 0.998271 
0.00199483 0.00046693 0.998271 
0.00199483 0.00046693 0.998271 
-0.000222072 -0.000526477 0.999569 
-0.000222072 -0.000526477 0.999569 
-0.000222072 -0.000526477 0.999569 
-0.000222072 -0.000526477 0.999569 
-0.000216396 -0.000856696 0.99796 
-0.000216396 -0.000856696 0.99796 
-0.000216396 -0.000856696 0.99796 
-0.000216396 -0.000856696 0.99796 
-6.73773e-05 -0.000247402 1.00016 
-6.73773e-05 -0.000247402 1.00016 
-6.73773e-05 -0.000247402 1.00016 
-6.73773e-05 -0.000247402 1.00016 
0.000156258 -0.000557807 0.999282 
0.000156258 -0.000557807 0.999282 
0.000156258 -0.000557807 0.999282 
0.000156258 -0.000557807 0.999282 
-0.000362415 -1.0999e-06 1.00011 
-0.000362415 -1.0999e-06 1.00011 
-0.000362415 -1.0999e-06 1.00011 
-0.000362415 -1.0999e-06 1.00011 
0.000953834 -0.000253655 0.999394 
0.000953834 -0.000253655 0.999394 
0.000953834 -0.000253655 0.999394 
0.000953834 -0.000253655 0.999394 
0.00033324 0.000150003 1.00016 
0.00033324 0.000150003 1.00016 
0.00033324 0.000150003 1.00016 
0.00033324 0.000150003 1.00016 
2.63778e-05 -9.12589e-05 1.00031 
2.63778e-05 -9.12589e-05 1.00031 
2.63778e-05 -9.12589e-05 1.00031 
2.63778e-05 -9.12589e-05 1.00031 
4.98469e-06 2.30624e-05 1.00034 
4.98469e-06 2.30624e-05 1.00034 
4.98469e-06 2.30624e-05 1.00034 
4.98469e-06 2.30624e-05 1.00034 
-0.000278587 0.000300541 1.00001 
-0.000278587 0.000300541 1.00001 
-0.000278587 0.000300541 1.00001 
-0.000278587 0.000300541 1.00001 
-0.000483414 -0.000535215 0.999533 
-0.000483414 -0.000535215 0.999533 
-0.000483414 -0.000535215 0.999533 
-0.000483414 -0.000535215 0.999533 
-0.00144383 0.00163841 0.998404 
-0.00144383 0.00163841 0.998404 
-0.00144383 0.00163841 0.998404 
-0.00144383 0.00163841 0.998404 
0.000195905 0.000639858 0.999546 
0.000195905 0.000639858 0.999546 
0.000195905 0.000639858 0.999546 
0.000195905 0.000639858 0.999546 
0.000527029 0.000442257 0.999748 
0.000527029 0.000442257 0.999748 
0.000527029 0.000442257 0.999748 
0.000527029 0.000442257 0.999748 
-0.00014939 -0.00100862 0.997891 
-0.00014939 -0.00100862 0.997891 
-0.00014939 -0.00100862 0.997891 
-0.00014939 -0.00100862 0.997891 
0.00043621 -0.000636072 0.999196 
0.00043621 -0.000636072 0.999196 
0.00043621 -0.000636072 0.999196 
0.00043621 -0.000636072 0.999196 
6.42931e-05 -0.000545173 0.999488 
6.42931e-05 -0.000545173 0.999488 
6.42931e-05 -0.000545173 0.999488 
6.42931e-05 -0.000545173 0.999488 
1.44995e-05 -0.0004413 0.999848 
1.44995e-05 -0.0004413 0.999848 
1.44995e-05 -0.0004413 0.999848 
1.44995e-05 -0.0004413 0.999848 
-0.000262492 0.000107078 1.00034 
-0.000262492 0.000107078 1.00034 
-0.000262492 0.000107078 1.00034 
-0.000262492 0.000107078 1.00034 
0.000149172 0.00205563 0.998842 
0.000149172 0.00205563 0.998842 
0.000149172 0.00205563 0.998842 
0.000149172 0.00205563 0.998842 
-0.00142444 0.00175732 0.997989 
-0.00142444 0.00175732 0.997989 
-0.00142444 0.00175732 0.997989 
-0.00142444 0.00175732 0.997989 
-0.000517651 0.000617394 0.999388 
-0.000517651 0.000617394 0.999388 
-0.000517651 0.000617394 0.999388 
-0.000517651 0.000617394 0.999388 
0.00242585 -0.00107734 0.99627 
0.00242585 -0.00107734 0.99627 
0.00242585 -0.00107734 0.99627 
0.00242585 -0.00107734 0.99627 
0.000123686 -4.65789e-05 1.00038 
0.000123686 -4.65789e-05 1.00038 
0.000123686 -4.65789e-05 1.00038 
0.000123686 -4.65789e-05 1.00038 
-0.00158184 -0.000604466 0.998181 
-0.00158184 -0.000604466 0.998181 
-0.00158184 -0.000604466 0.998181 
-0.00158184 -0.000604466 0.998181 
-2.56671e-05 -0.000540343 0.999615 
-2.56671e-05 -0.000540343 0.999615 
-2.56671e-05 -0.000540343 0.999615 
-2.56671e-05 -0.000540343 0.999615 
0.000279361 -0.000153412 0.99971 
0.000279361 -0.000153412 0.99971 
0.000279361 -0.000153412 0.99971 
0.000279361 -0.000153412 0.99971 
-3.04194e-05 0.000570656 0.99216 
-3.04194e-05 0.000570656 0.99216 
-3.04194e-05 0.000570656 0.99216 
-3.04194e-05 0.000570656 0.99216 
0.000409047 -0.000235787 1.00001 
0.000409047 -0.000235787 1.00001 
0.000409047 -0.000235787 1.00001 
0.000409047 -0.000235787 1.00001 
4.38276e-05 2.03697e-05 1.00033 
4.38276e-05 2.03697e-05 1.00033 
4.38276e-05 2.03697e-05 1.00033 
4.38276e-05 2.03697e-05 1.00033 
-0.000259902 0.000229229 0.999553 
-0.000259902 0.000229229 0.999553 
-0.000259902 0.000229229 0.999553 
-0.000259902 0.000229229 0.999553 
-0.00012216 0.000247862 0.999878 
-0.00012216 0.000247862 0.999878 
-0.00012216 0.000247862 0.999878 
-0.00012216 0.000247862 0.999878 
-0.000418478 0.000832198 0.999377 
-0.000418478 0.000832198 0.999377 
-0.000418478 0.000832198 0.999377 
-0.000418478 0.000832198 0.999377 
-0.000297842 -0.00010715 1.00035 
-0.000297842 -0.00010715 1.00035 
-0.000297842 -0.00010715 1.00035 
-0.000297842 -0.00010715 1.00035 
5.44292e-05 0.000137166 1 
5.44292e-05 0.000137166 1 
5.44292e-05 0.000137166 1 
5.44292e-05 0.000137166 1 
2.18812e-05 0.000208414 0.999594 
2.18812e-05 0.000208414 0.999594 
2.18812e-05 0.000208414 0.999594 
2.18812e-05 0.000208414 0.999594 
-1.63556e-05 -7.79182e-06 1.00033 
-1.63556e-05 -7.79182e-06 1.00033 
-1.63556e-05 -7.79182e-06 1.00033 
-1.63556e-05 -7.79182e-06 1.00033 
0.00108951 0.00192019 0.998369 
0.00108951 0.00192019 0.998369 
0.00108951 0.00192019 0.998369 
0.00108951 0.00192019 0.998369 
-0.000262353 -2.82116e-05 0.999172 
-0.000262353 -2.82116e-05 0.999172 
-0.000262353 -2.82116e-05 0.999172 
-0.000262353 -2.82116e-05 0.999172 
0.000732072 -0.00147599 0.991452 
0.000732072 -0.00147599 0.991452 
0.000732072 -0.00147599 0.991452 
0.000732072 -0.00147599 0.991452 
-0.00263477 -0.000522818 0.998799 
-0.00263477 -0.000522818 0.998799 
-0.00263477 -0.000522818 0.998799 
-0.00263477 -0.000522818 0.998799 
-0.00148066 2.25844e-06 0.998069 
-0.00148066 2.25844e-06 0.998069 
-0.00148066 2.25844e-06 0.998069 
-0.00148066 2.25844e-06 0.998069 
0.00125369 0.000744351 0.998142 
0.00125369 0.000744351 0.998142 
0.00125369 0.000744351 0.998142 
0.00125369 0.000744351 0.998142 
-0.000275798 -0.000111897 0.999102 
-0.000275798 -0.000111897 0.999102 
-0.000275798 -0.000111897 0.999102 
-0.000275798 -0.000111897 0.999102 
-0.000731868 -0.000419424 0.992162 
-0.000731868 -0.000419424 0.992162 
-0.000731868 -0.000419424 0.992162 
-0.000731868 -0.000419424 0.992162 
-0.00126364 0.000405042 0.997696 
-0.00126364 0.000405042 0.997696 
-0.00126364 0.000405042 0.997696 
-0.00126364 0.000405042 0.997696 
0.000164195 -0.000225941 0.999866 
0.000164195 -0.000225941 0.999866 
0.000164195 -0.000225941 0.999866 
0.000164195 -0.000225941 0.999866 
0.000459853 0.000357199 0.994605 
0.000459853 0.000357199 0.994605 
0.000459853 0.000357199 0.994605 
0.000459853 0.000357199 0.994605 
3.8007e-05 0.000721547 0.998923 
3.8007e-05 0.000721547 0.998923 
3.8007e-05 0.000721547 0.998923 
3.8007e-05 0.000721547 0.998923 
-0.000592176 0.000380618 0.992765 
-0.000592176 0.000380618 0.992765 
-0.000592176 0.000380618 0.992765 
-0.000592176 0.000380618 0.992765 
0.00010247 -0.000255478 1.00041 
0.00010247 -0.000255478 1.00041 
0.00010247 -0.000255478 1.00041 
0.00010247 -0.000255478 1.00041 
0.00165087 -0.000929427 0.998671 
0.00165087 -0.000929427 0.998671 
0.00165087 -0.000929427 0.998671 
0.00165087 -0.000929427 0.998671 
0.00153742 -0.00124872 0.998936 
0.00153742 -0.00124872 0.998936 
0.00153742 -0.00124872 0.998936 
0.00153742 -0.00124872 0.998936 
0.000312194 -0.000103128 0.9986 
0.000312194 -0.000103128 0.9986 
0.000312194 -0.000103128 0.9986 
0.000312194 -0.000103128 0.9986 
0.00143254 0.00163658 0.998358 
0.00143254 0.00163658 0.998358 
0.00143254 0.00163658 0.998358 
0.00143254 0.00163658 0.998358 
-0.000316328 -0.000794871 0.999613 
-0.000316328 -0.000794871 0.999613 
-0.000316328 -0.000794871 0.999613 
-0.000316328 -0.000794871 0.999613 
7.86818e-06 0.00012705 0.999567 
7.86818e-06 0.00012705 0.999567 
7.86818e-06 0.00012705 0.999567 
7.86818e-06 0.00012705 0.999567 
2.38845e-07 0.000168371 1.00006 
2.38845e-07 0.000168371 1.00006 
2.38845e-07 0.000168371 1.00006 
2.38845e-07 0.000168371 1.00006 
0.000363397 -0.000372574 1.00008 
0.000363397 -0.000372574 1.00008 
0.000363397 -0.000372574 1.00008 
0.000363397 -0.000372574 1.00008 
-0.000520377 0.000385619 0.990971 
-0.000520377 0.000385619 0.990971 
-0.000520377 0.000385619 0.990971 
-0.000520377 0.000385619 0.990971 
0.00013305 0.000712675 0.998059 
0.00013305 0.000712675 0.998059 
0.00013305 0.000712675 0.998059 
0.00013305 0.000712675 0.998059 
0.000141345 -0.000223225 1.00034 
0.000141345 -0.000223225 1.00034 
0.000141345 -0.000223225 1.00034 
0.000141345 -0.000223225 1.00034 
-0.0002063 0.000672643 0.99222 
-0.0002063 0.000672643 0.99222 
-0.0002063 0.000672643 0.99222 
-0.0002063 0.000672643 0.99222 
0.000482379 0.000786834 0.99959 
0.000482379 0.000786834 0.99959 
0.000482379 0.000786834 0.99959 
0.000482379 0.000786834 0.99959 
0.00060098 0.000545266 0.999594 
0.00060098 0.000545266 0.999594 
0.00060098 0.000545266 0.999594 
0.00060098 0.000545266 0.999594 
8.97105e-06 -0.000842154 0.992139 
8.97105e-06 -0.000842154 0.992139 
8.97105e-06 -0.000842154 0.992139 
8.97105e-06 -0.000842154 0.992139 
-9.76998e-05 0.00124585 0.99248 
-9.76998e-05 0.00124585 0.99248 
-9.76998e-05 0.00124585 0.99248 
-9.76998e-05 0.00124585 0.99248 
-0.000665875 0.000132438 0.999385 
-0.000665875 0.000132438 0.999385 
-0.000665875 0.000132438 0.999385 
-0.000665875 0.000132438 0.999385 
-0.00200632 -0.00115252 0.998219 
-0.00200632 -0.00115252 0.998219 
-0.00200632 -0.00115252 0.998219 
-0.00200632 -0.00115252 0.998219 
0.000471411 -0.000132425 0.999793 
0.000471411 -0.000132425 0.999793 
0.000471411 -0.000132425 0.999793 
0.000471411 -0.000132425 0.999793 
1.04125e-05 0.000392007 0.999669 
1.04125e-05 0.000392007 0.999669 
1.04125e-05 0.000392007 0.999669 
1.04125e-05 0.000392007 0.999669 
-0.000137405 0.000550096 0.999471 
-0.000137405 0.000550096 0.999471 
-0.000137405 0.000550096 0.999471 
-0.000137405 0.000550096 0.999471 
0.000437998 0.000256406 0.994428 
0.000437998 0.000256406 0.994428 
0.000437998 0.000256406 0.994428 
0.000437998 0.000256406 0.994428 
3.78037e-05 0.000309946 0.999607 
3.78037e-05 0.000309946 0.999607 
3.78037e-05 0.000309946 0.999607 
3.78037e-05 0.000309946 0.999607 
-0.000598133 -0.000491076 0.999608 
-0.000598133 -0.000491076 0.999608 
-0.000598133 -0.000491076 0.999608 
-0.000598133 -0.000491076 0.999608 
8.30079e-05 7.1124e-05 1.00019 
8.30079e-05 7.1124e-05 1.00019 
8.30079e-05 7.1124e-05 1.00019 
8.30079e-05 7.1124e-05 1.00019 
0.000200542 -0.000880097 0.999044 
0.000200542 -0.000880097 0.999044 
0.000200542 -0.000880097 0.999044 
0.000200542 -0.000880097 0.999044 
-0.00175726 -0.000158456 0.99815 
-0.00175726 -0.000158456 0.99815 
-0.00175726 -0.000158456 0.99815 
-0.00175726 -0.000158456 0.99815 
0.000718105 -0.00145608 0.99213 
0.000718105 -0.00145608 0.99213 
0.000718105 -0.00145608 0.99213 
0.000718105 -0.00145608 0.99213 
-4.81855e-06 -0.000208523 1.0004 
-4.81855e-06 -0.000208523 1.0004 
-4.81855e-06 -0.000208523 1.0004 
-4.81855e-06 -0.000208523 1.0004 
0.000380492 0.000464179 0.998053 
0.000380492 0.000464179 0.998053 
0.000380492 0.000464179 0.998053 
0.000380492 0.000464179 0.998053 
0.000623894 6.22577e-05 0.999786 
0.000623894 6.22577e-05 0.999786 
0.000623894 6.22577e-05 0.999786 
0.000623894 6.22577e-05 0.999786 
0.000188729 6.6966e-05 1.00041 
0.000188729 6.6966e-05 1.00041 
0.000188729 6.6966e-05 1.00041 
0.000188729 6.6966e-05 1.00041 
0.00111375 -6.99153e-05 0.998787 
0.00111375 -6.99153e-05 0.998787 
0.00111375 -6.99153e-05 0.998787 
0.00111375 -6.99153e-05 0.998787 
6.79506e-05 -0.000673401 0.999281 
6.79506e-05 -0.000673401 0.999281 
6.79506e-05 -0.000673401 0.999281 
6.79506e-05 -0.000673401 0.999281 
-0.000315551 0.000294619 0.99995 
-0.000315551 0.000294619 0.99995 
-0.000315551 0.000294619 0.99995 
-0.000315551 0.000294619 0.99995 
0.00064409 8.23575e-05 0.999788 
0.00064409 8.23575e-05 0.999788 
0.00064409 8.23575e-05 0.999788 
0.00064409 8.23575e-05 0.999788 
0.00104457 -7.65973e-05 0.992929 
0.00104457 -7.65973e-05 0.992929 
0.00104457 -7.65973e-05 0.992929 
0.00104457 -7.65973e-05 0.992929 
0.00053982 0.000395125 0.999066 
0.00053982 0.000395125 0.999066 
0.00053982 0.000395125 0.999066 
0.00053982 0.000395125 0.999066 
6.77626e-05 9.68766e-05 1.00036 
6.77626e-05 9.68766e-05 1.00036 
6.77626e-05 9.68766e-05 1.00036 
6.77626e-05 9.68766e-05 1.00036 
-0.00125509 -0.0010118 0.990822 
-0.00125509 -0.0010118 0.990822 
-0.00125509 -0.0010118 0.990822 
-0.00125509 -0.0010118 0.990822 
-0.000108781 0.000202155 0.998042 
-0.000108781 0.000202155 0.998042 
-0.000108781 0.000202155 0.998042 
-0.000108781 0.000202155 0.998042 
-0.00110812 0.00153287 0.99152 
-0.00110812 0.00153287 0.99152 
-0.00110812 0.00153287 0.99152 
-0.00110812 0.00153287 0.99152 
-0.000102767 -0.00117189 0.998465 
-0.000102767 -0.00117189 0.998465 
-0.000102767 -0.00117189 0.998465 
-0.000102767 -0.00117189 0.998465 
-0.000353518 0.000502714 0.992703 
-0.000353518 0.000502714 0.992703 
-0.000353518 0.000502714 0.992703 
-0.000353518 0.000502714 0.992703 
0.00124553 0.00135339 0.991286 
0.00124553 0.00135339 0.991286 
0.00124553 0.00135339 0.991286 
0.00124553 0.00135339 0.991286 
0.000634346 0.000152616 0.999593 
0.000634346 0.000152616 0.999593 
0.000634346 0.000152616 0.999593 
0.000634346 0.000152616 0.999593 
-6.4328e-05 0.000274893 0.999801 
-6.4328e-05 0.000274893 0.999801 
-6.4328e-05 0.000274893 0.999801 
-6.4328e-05 0.000274893 0.999801 
0.000263177 -0.000636064 0.999853 
0.000263177 -0.000636064 0.999853 
0.000263177 -0.000636064 0.999853 
0.000263177 -0.000636064 0.999853 
-0.00158646 0.000897839 0.989079 
-0.00158646 0.000897839 0.989079 
-0.00158646 0.000897839 0.989079 
-0.00158646 0.000897839 0.989079 
-6.1137e-05 -4.79933e-05 1.00033 
-6.1137e-05 -4.79933e-05 1.00033 
-6.1137e-05 -4.79933e-05 1.00033 
-6.1137e-05 -4.79933e-05 1.00033 
0.000157559 -0.00014614 0.999601 
0.000157559 -0.00014614 0.999601 
0.000157559 -0.00014614 0.999601 
0.000157559 -0.00014614 0.999601 
-0.00048846 -4.78586e-05 0.992731 
-0.00048846 -4.78586e-05 0.992731 
-0.00048846 -4.78586e-05 0.992731 
-0.00048846 -4.78586e-05 0.992731 
0.000390518 -0.000184882 0.99823 
0.000390518 -0.000184882 0.99823 
0.000390518 -0.000184882 0.99823 
0.000390518 -0.000184882 0.99823 
0.000111889 0.000740984 0.997908 
0.000111889 0.000740984 0.997908 
0.000111889 0.000740984 0.997908 
0.000111889 0.000740984 0.997908 
-8.96861e-05 -0.000436594 0.991909 
-8.96861e-05 -0.000436594 0.991909 
-8.96861e-05 -0.000436594 0.991909 
-8.96861e-05 -0.000436594 0.991909 
-0.000478678 -0.000595916 0.997822 
-0.000478678 -0.000595916 0.997822 
-0.000478678 -0.000595916 0.997822 
-0.000478678 -0.000595916 0.997822 
0.000351488 0.00014221 0.9995 
0.000351488 0.00014221 0.9995 
0.000351488 0.00014221 0.9995 
0.000351488 0.00014221 0.9995 
-0.000143009 -0.000308176 0.998526 
-0.000143009 -0.000308176 0.998526 
-0.000143009 -0.000308176 0.998526 
-0.000143009 -0.000308176 0.998526 
0.000290179 -0.00010648 0.998012 
0.000290179 -0.00010648 0.998012 
0.000290179 -0.00010648 0.998012 
0.000290179 -0.00010648 0.998012 
-0.000495167 0.000320247 0.992994 
-0.000495167 0.000320247 0.992994 
-0.000495167 0.000320247 0.992994 
-0.000495167 0.000320247 0.992994 
0.00179126 0.000346982 0.990819 
0.00179126 0.000346982 0.990819 
0.00179126 0.000346982 0.990819 
0.00179126 0.000346982 0.990819 
-4.99028e-05 -5.9922e-05 1.00034 
-4.99028e-05 -5.9922e-05 1.00034 
-4.99028e-05 -5.9922e-05 1.00034 
-4.99028e-05 -5.9922e-05 1.00034 
0.000915246 0.00163169 0.989704 
0.000915246 0.00163169 0.989704 
0.000915246 0.00163169 0.989704 
0.000915246 0.00163169 0.989704 
-1.92134e-05 0.00176903 0.988891 
-1.92134e-05 0.00176903 0.988891 
-1.92134e-05 0.00176903 0.988891 
-1.92134e-05 0.00176903 0.988891 
2.37724e-05 -0.000153955 0.99939 
2.37724e-05 -0.000153955 0.99939 
2.37724e-05 -0.000153955 0.99939 
2.37724e-05 -0.000153955 0.99939 
-3.93232e-05 -8.58929e-05 1.00034 
-3.93232e-05 -8.58929e-05 1.00034 
-3.93232e-05 -8.58929e-05 1.00034 
-3.93232e-05 -8.58929e-05 1.00034 
-0.00175354 -0.00128352 0.998467 
-0.00175354 -0.00128352 0.998467 
-0.00175354 -0.00128352 0.998467 
-0.00175354 -0.00128352 0.998467 
-0.000603429 0.00033357 0.999066 
-0.000603429 0.00033357 0.999066 
-0.000603429 0.00033357 0.999066 
-0.000603429 0.00033357 0.999066 
0.000255959 -0.000817837 0.9904 
0.000255959 -0.000817837 0.9904 
0.000255959 -0.000817837 0.9904 
0.000255959 -0.000817837 0.9904 
0.000181724 0.00167407 0.990398 
0.000181724 0.00167407 0.990398 
0.000181724 0.00167407 0.990398 
0.000181724 0.00167407 0.990398 
0.000377301 0.000413471 0.991783 
0.000377301 0.000413471 0.991783 
0.000377301 0.000413471 0.991783 
0.000377301 0.000413471 0.991783 
-0.000221628 0.000351355 0.999265 
-0.000221628 0.000351355 0.999265 
-0.000221628 0.000351355 0.999265 
-0.000221628 0.000351355 0.999265 
-3.8153e-05 -0.000348992 0.999567 
-3.8153e-05 -0.000348992 0.999567 
-3.8153e-05 -0.000348992 0.999567 
-3.8153e-05 -0.000348992 0.999567 
0.00116703 0.00154227 0.998387 
0.00116703 0.00154227 0.998387 
0.00116703 0.00154227 0.998387 
0.00116703 0.00154227 0.998387 
0.000384584 0.000709917 0.999005 
0.000384584 0.000709917 0.999005 
0.000384584 0.000709917 0.999005 
0.000384584 0.000709917 0.999005 
-8.03229e-05 -0.000444218 0.99953 
-8.03229e-05 -0.000444218 0.99953 
-8.03229e-05 -0.000444218 0.99953 
-8.03229e-05 -0.000444218 0.99953 
0.000210885 0.000474821 0.999469 
0.000210885 0.000474821 0.999469 
0.000210885 0.000474821 0.999469 
0.000210885 0.000474821 0.999469 
-9.77057e-06 1.57721e-06 1.00033 
-9.77057e-06 1.57721e-06 1.00033 
-9.77057e-06 1.57721e-06 1.00033 
-9.77057e-06 1.57721e-06 1.00033 
0.00089621 0.000926134 0.998731 
0.00089621 0.000926134 0.998731 
0.00089621 0.000926134 0.998731 
0.00089621 0.000926134 0.998731 
4.6798e-05 -0.000577134 0.992772 
4.6798e-05 -0.000577134 0.992772 
4.6798e-05 -0.000577134 0.992772 
4.6798e-05 -0.000577134 0.992772 
0.000100974 -9.38861e-05 1.00034 
0.000100974 -9.38861e-05 1.00034 
0.000100974 -9.38861e-05 1.00034 
0.000100974 -9.38861e-05 1.00034 
-0.000250159 3.20417e-05 0.998527 
-0.000250159 3.20417e-05 0.998527 
-0.000250159 3.20417e-05 0.998527 
-0.000250159 3.20417e-05 0.998527 
0.0014801 -0.000279025 0.991786 
0.0014801 -0.000279025 0.991786 
0.0014801 -0.000279025 0.991786 
0.0014801 -0.000279025 0.991786 
0.000116036 -1.48329e-05 0.999224 
0.000116036 -1.48329e-05 0.999224 
0.000116036 -1.48329e-05 0.999224 
0.000116036 -1.48329e-05 0.999224 
-0.000280176 -7.2617e-05 0.999953 
-0.000280176 -7.2617e-05 0.999953 
-0.000280176 -7.2617e-05 0.999953 
-0.000280176 -7.2617e-05 0.999953 
0.000547442 0.00018249 0.999844 
0.000547442 0.00018249 0.999844 
0.000547442 0.00018249 0.999844 
0.000547442 0.00018249 0.999844 
0.000854818 0.00065214 0.991088 
0.000854818 0.00065214 0.991088 
0.000854818 0.00065214 0.991088 
0.000854818 0.00065214 0.991088 
-0.000635952 0.000369234 0.997768 
-0.000635952 0.000369234 0.997768 
-0.000635952 0.000369234 0.997768 
-0.000635952 0.000369234 0.997768 
0.00134112 0.0013319 0.991725 
0.00134112 0.0013319 0.991725 
0.00134112 0.0013319 0.991725 
0.00134112 0.0013319 0.991725 
9.73095e-05 -0.000431549 1.00026 
9.73095e-05 -0.000431549 1.00026 
9.73095e-05 -0.000431549 1.00026 
9.73095e-05 -0.000431549 1.00026 
0.000173338 0.000492087 0.999848 
0.000173338 0.000492087 0.999848 
0.000173338 0.000492087 0.999848 
0.000173338 0.000492087 0.999848 
0.000248002 -0.000158942 0.999267 
0.000248002 -0.000158942 0.999267 
0.000248002 -0.000158942 0.999267 
0.000248002 -0.000158942 0.999267 
0.00147037 -0.00061477 0.991821 
0.00147037 -0.00061477 0.991821 
0.00147037 -0.00061477 0.991821 
0.00147037 -0.00061477 0.991821 
0.000203333 -0.000141079 0.99922 
0.000203333 -0.000141079 0.99922 
0.000203333 -0.000141079 0.99922 
0.000203333 -0.000141079 0.99922 
0.000664459 0.000172292 0.999224 
0.000664459 0.000172292 0.999224 
0.000664459 0.000172292 0.999224 
0.000664459 0.000172292 0.999224 
-0.00168626 0.000160706 0.991687 
-0.00168626 0.000160706 0.991687 
-0.00168626 0.000160706 0.991687 
-0.00168626 0.000160706 0.991687 
-0.000315375 -0.000380471 0.999961 
-0.000315375 -0.000380471 0.999961 
-0.000315375 -0.000380471 0.999961 
-0.000315375 -0.000380471 0.999961 
0.00137969 0.000151797 0.998214 
0.00137969 0.000151797 0.998214 
0.00137969 0.000151797 0.998214 
0.00137969 0.000151797 0.998214 
-0.00155514 0.00120148 0.990651 
-0.00155514 0.00120148 0.990651 
-0.00155514 0.00120148 0.990651 
-0.00155514 0.00120148 0.990651 
-0.000587926 -0.00144899 0.991675 
-0.000587926 -0.00144899 0.991675 
-0.000587926 -0.00144899 0.991675 
-0.000587926 -0.00144899 0.991675 
-0.000843789 -9.34993e-05 0.991297 
-0.000843789 -9.34993e-05 0.991297 
-0.000843789 -9.34993e-05 0.991297 
-0.000843789 -9.34993e-05 0.991297 
8.69099e-05 -0.000422309 0.999565 
8.69099e-05 -0.000422309 0.999565 
8.69099e-05 -0.000422309 0.999565 
8.69099e-05 -0.000422309 0.999565 
-0.000660132 4.22393e-05 0.989967 
-0.000660132 4.22393e-05 0.989967 
-0.000660132 4.22393e-05 0.989967 
-0.000660132 4.22393e-05 0.989967 
0.000398552 -6.62337e-05 0.999082 
0.000398552 -6.62337e-05 0.999082 
0.000398552 -6.62337e-05 0.999082 
0.000398552 -6.62337e-05 0.999082 
2.87475e-05 -0.00101543 0.990271 
2.87475e-05 -0.00101543 0.990271 
2.87475e-05 -0.00101543 0.990271 
2.87475e-05 -0.00101543 0.990271 
0.000183635 8.18134e-05 1.00035 
0.000183635 8.18134e-05 1.00035 
0.000183635 8.18134e-05 1.00035 
0.000183635 8.18134e-05 1.00035 
0.000704268 3.9446e-05 0.999247 
0.000704268 3.9446e-05 0.999247 
0.000704268 3.9446e-05 0.999247 
0.000704268 3.9446e-05 0.999247 
-0.00189287 -0.000450359 0.991376 
-0.00189287 -0.000450359 0.991376 
-0.00189287 -0.000450359 0.991376 
-0.00189287 -0.000450359 0.991376 
-0.000464727 -0.000747161 0.99965 
-0.000464727 -0.000747161 0.99965 
-0.000464727 -0.000747161 0.99965 
-0.000464727 -0.000747161 0.99965 
-0.000383708 -2.37587e-05 0.999708 
-0.000383708 -2.37587e-05 0.999708 
-0.000383708 -2.37587e-05 0.999708 
-0.000383708 -2.37587e-05 0.999708 
0.000202863 -0.000144879 0.999337 
0.000202863 -0.000144879 0.999337 
0.000202863 -0.000144879 0.999337 
0.000202863 -0.000144879 0.999337 
0.000392239 0.000431093 0.99988 
0.000392239 0.000431093 0.99988 
0.000392239 0.000431093 0.99988 
0.000392239 0.000431093 0.99988 
-4.20561e-05 -0.000916114 0.989851 
-4.20561e-05 -0.000916114 0.989851 
-4.20561e-05 -0.000916114 0.989851 
-4.20561e-05 -0.000916114 0.989851 
-0.000847607 -0.000122664 0.991433 
-0.000847607 -0.000122664 0.991433 
-0.000847607 -0.000122664 0.991433 
-0.000847607 -0.000122664 0.991433 
0.000222029 0.000162901 0.999725 
0.000222029 0.000162901 0.999725 
0.000222029 0.000162901 0.999725 
0.000222029 0.000162901 0.999725 
0.000235941 -0.000926897 0.999424 
0.000235941 -0.000926897 0.999424 
0.000235941 -0.000926897 0.999424 
0.000235941 -0.000926897 0.999424 
0.000266171 0.000400997 0.999869 
0.000266171 0.000400997 0.999869 
0.000266171 0.000400997 0.999869 
0.000266171 0.000400997 0.999869 
0.000118022 -0.000516218 0.999365 
0.000118022 -0.000516218 0.999365 
0.000118022 -0.000516218 0.999365 
0.000118022 -0.000516218 0.999365 
-0.000830784 0.0015104 0.990958 
-0.000830784 0.0015104 0.990958 
-0.000830784 0.0015104 0.990958 
-0.000830784 0.0015104 0.990958 
0.000619579 -0.000105898 0.993016 
0.000619579 -0.000105898 0.993016 
0.000619579 -0.000105898 0.993016 
0.000619579 -0.000105898 0.993016 
0.00101669 -0.00114148 0.991413 
0.00101669 -0.00114148 0.991413 
0.00101669 -0.00114148 0.991413 
0.00101669 -0.00114148 0.991413 
0.000139465 0.000280399 0.999816 
0.000139465 0.000280399 0.999816 
0.000139465 0.000280399 0.999816 
0.000139465 0.000280399 0.999816 
-0.00067199 4.52467e-05 0.999424 
-0.00067199 4.52467e-05 0.999424 
-0.00067199 4.52467e-05 0.999424 
-0.00067199 4.52467e-05 0.999424 
0.00034122 7.97136e-05 0.999486 
0.00034122 7.97136e-05 0.999486 
0.00034122 7.97136e-05 0.999486 
0.00034122 7.97136e-05 0.999486 
-0.000970946 0.000630119 0.999502 
-0.000970946 0.000630119 0.999502 
-0.000970946 0.000630119 0.999502 
-0.000970946 0.000630119 0.999502 
0.000836789 9.39073e-05 0.991951 
0.000836789 9.39073e-05 0.991951 
0.000836789 9.39073e-05 0.991951 
0.000836789 9.39073e-05 0.991951 
0.000643187 0.000406452 0.999868 
0.000643187 0.000406452 0.999868 
0.000643187 0.000406452 0.999868 
0.000643187 0.000406452 0.999868 
0.000889841 0.000128382 0.990494 
0.000889841 0.000128382 0.990494 
0.000889841 0.000128382 0.990494 
0.000889841 0.000128382 0.990494 
0.000829578 -1.78569e-05 0.992139 
0.000829578 -1.78569e-05 0.992139 
0.000829578 -1.78569e-05 0.992139 
0.000829578 -1.78569e-05 0.992139 
-0.000712689 0.00211311 0.990659 
-0.000712689 0.00211311 0.990659 
-0.000712689 0.00211311 0.990659 
-0.000712689 0.00211311 0.990659 
0.00120486 0.000834058 0.991413 
0.00120486 0.000834058 0.991413 
0.00120486 0.000834058 0.991413 
0.00120486 0.000834058 0.991413 
-2.76693e-05 -0.00016029 1.00035 
-2.76693e-05 -0.00016029 1.00035 
-2.76693e-05 -0.00016029 1.00035 
-2.76693e-05 -0.00016029 1.00035 
0.000376256 -6.24423e-05 0.999092 
0.000376256 -6.24423e-05 0.999092 
0.000376256 -6.24423e-05 0.999092 
0.000376256 -6.24423e-05 0.999092 
0.000128704 -0.000237465 1.00034 
0.000128704 -0.000237465 1.00034 
0.000128704 -0.000237465 1.00034 
0.000128704 -0.000237465 1.00034 
0.000288663 -0.000530281 0.999596 
0.000288663 -0.000530281 0.999596 
0.000288663 -0.000530281 0.999596 
0.000288663 -0.000530281 0.999596 
4.2086e-05 -0.000186863 1.0004 
4.2086e-05 -0.000186863 1.0004 
4.2086e-05 -0.000186863 1.0004 
4.2086e-05 -0.000186863 1.0004 
6.96455e-05 -0.000228867 1.00015 
6.96455e-05 -0.000228867 1.00015 
6.96455e-05 -0.000228867 1.00015 
6.96455e-05 -0.000228867 1.00015 
0.000172192 -0.000208598 0.99952 
0.000172192 -0.000208598 0.99952 
0.000172192 -0.000208598 0.99952 
0.000172192 -0.000208598 0.99952 
-0.000146276 -0.000729558 0.992514 
-0.000146276 -0.000729558 0.992514 
-0.000146276 -0.000729558 0.992514 
-0.000146276 -0.000729558 0.992514 
-0.00206038 0.000749127 0.990972 
-0.00206038 0.000749127 0.990972 
-0.00206038 0.000749127 0.990972 
-0.00206038 0.000749127 0.990972 
-0.000119257 -0.000354148 0.999466 
-0.000119257 -0.000354148 0.999466 
-0.000119257 -0.000354148 0.999466 
-0.000119257 -0.000354148 0.999466 
-0.000121398 0.000298068 0.999095 
-0.000121398 0.000298068 0.999095 
-0.000121398 0.000298068 0.999095 
-0.000121398 0.000298068 0.999095 
-0.00174981 -0.000447959 0.99092 
-0.00174981 -0.000447959 0.99092 
-0.00174981 -0.000447959 0.99092 
-0.00174981 -0.000447959 0.99092 
0.00138771 -0.00130212 0.990972 
0.00138771 -0.00130212 0.990972 
0.00138771 -0.00130212 0.990972 
0.00138771 -0.00130212 0.990972 
-0.00100719 -0.000792598 0.991048 
-0.00100719 -0.000792598 0.991048 
-0.00100719 -0.000792598 0.991048 
-0.00100719 -0.000792598 0.991048 
7.53143e-05 0.00017224 0.999563 
7.53143e-05 0.00017224 0.999563 
7.53143e-05 0.00017224 0.999563 
7.53143e-05 0.00017224 0.999563 
0.000208282 -0.000127794 0.999472 
0.000208282 -0.000127794 0.999472 
0.000208282 -0.000127794 0.999472 
0.000208282 -0.000127794 0.999472 
-5.92685e-05 -0.0022042 0.990564 
-5.92685e-05 -0.0022042 0.990564 
-5.92685e-05 -0.0022042 0.990564 
-5.92685e-05 -0.0022042 0.990564 
-5.93768e-05 -0.00013301 1.00034 
-5.93768e-05 -0.00013301 1.00034 
-5.93768e-05 -0.00013301 1.00034 
-5.93768e-05 -0.00013301 1.00034 
0.000132639 -3.42465e-05 0.999097 
0.000132639 -3.42465e-05 0.999097 
0.000132639 -3.42465e-05 0.999097 
0.000132639 -3.42465e-05 0.999097 
-0.00203957 0.0013901 0.989889 
-0.00203957 0.0013901 0.989889 
-0.00203957 0.0013901 0.989889 
-0.00203957 0.0013901 0.989889 
-0.000370164 -0.000238285 0.991944 
-0.000370164 -0.000238285 0.991944 
-0.000370164 -0.000238285 0.991944 
-0.000370164 -0.000238285 0.991944 
0.00138082 0.00174223 0.989872 
0.00138082 0.00174223 0.989872 
0.00138082 0.00174223 0.989872 
0.00138082 0.00174223 0.989872 
0.000310933 -0.000802772 0.99919 
0.000310933 -0.000802772 0.99919 
0.000310933 -0.000802772 0.99919 
0.000310933 -0.000802772 0.99919 
0.000833461 -1.52939e-05 0.992469 
0.000833461 -1.52939e-05 0.992469 
0.000833461 -1.52939e-05 0.992469 
0.000833461 -1.52939e-05 0.992469 
0.0010557 -0.00110183 0.992521 
0.0010557 -0.00110183 0.992521 
0.0010557 -0.00110183 0.992521 
0.0010557 -0.00110183 0.992521 
-5.19297e-05 -0.00133178 0.988808 
-5.19297e-05 -0.00133178 0.988808 
-5.19297e-05 -0.00133178 0.988808 
-5.19297e-05 -0.00133178 0.988808 
-0.00072196 0.000131595 0.99955 
-0.00072196 0.000131595 0.99955 
-0.00072196 0.000131595 0.99955 
-0.00072196 0.000131595 0.99955 
0.000336076 -0.000370739 0.992925 
0.000336076 -0.000370739 0.992925 
0.000336076 -0.000370739 0.992925 
0.000336076 -0.000370739 0.992925 
0.000377632 -0.000393323 0.992747 
0.000377632 -0.000393323 0.992747 
0.000377632 -0.000393323 0.992747 
0.000377632 -0.000393323 0.992747 
0.000158284 -0.000443738 0.992595 
0.000158284 -0.000443738 0.992595 
0.000158284 -0.000443738 0.992595 
0.000158284 -0.000443738 0.992595 
0.000452307 3.83165e-05 0.991433 
0.000452307 3.83165e-05 0.991433 
0.000452307 3.83165e-05 0.991433 
0.000452307 3.83165e-05 0.991433 
-0.00140797 0.000871386 0.999473 
-0.00140797 0.000871386 0.999473 
-0.00140797 0.000871386 0.999473 
-0.00140797 0.000871386 0.999473 
0.000573024 0.00384505 0.983523 
0.000573024 0.00384505 0.983523 
0.000573024 0.00384505 0.983523 
0.000573024 0.00384505 0.983523 
0.00194402 0.000288512 0.991636 
0.00194402 0.000288512 0.991636 
0.00194402 0.000288512 0.991636 
0.00194402 0.000288512 0.991636 
0.000647925 -0.00130226 0.991096 
0.000647925 -0.00130226 0.991096 
0.000647925 -0.00130226 0.991096 
0.000647925 -0.00130226 0.991096 
-0.00153528 0.00189458 0.990197 
-0.00153528 0.00189458 0.990197 
-0.00153528 0.00189458 0.990197 
-0.00153528 0.00189458 0.990197 
-0.000149572 0.000113149 1.00042 
-0.000149572 0.000113149 1.00042 
-0.000149572 0.000113149 1.00042 
-0.000149572 0.000113149 1.00042 
0.000204756 4.03818e-05 1.00044 
0.000204756 4.03818e-05 1.00044 
0.000204756 4.03818e-05 1.00044 
0.000204756 4.03818e-05 1.00044 
-0.00148897 -0.00128228 0.991273 
-0.00148897 -0.00128228 0.991273 
-0.00148897 -0.00128228 0.991273 
-0.00148897 -0.00128228 0.991273 
-0.00372621 -0.000906144 0.983536 
-0.00372621 -0.000906144 0.983536 
-0.00372621 -0.000906144 0.983536 
-0.00372621 -0.000906144 0.983536 
-0.000253407 -5.56847e-05 0.999093 
-0.000253407 -5.56847e-05 0.999093 
-0.000253407 -5.56847e-05 0.999093 
-0.000253407 -5.56847e-05 0.999093 
0.000605154 -0.000257151 0.991347 
0.000605154 -0.000257151 0.991347 
0.000605154 -0.000257151 0.991347 
0.000605154 -0.000257151 0.991347 
0.00143144 0.00175775 0.998309 
0.00143144 0.00175775 0.998309 
0.00143144 0.00175775 0.998309 
0.00143144 0.00175775 0.998309 
-0.00022501 -1.96651e-05 1.0004 
-0.00022501 -1.96651e-05 1.0004 
-0.00022501 -1.96651e-05 1.0004 
-0.00022501 -1.96651e-05 1.0004 
-0.000588402 0.00108232 0.991336 
-0.000588402 0.00108232 0.991336 
-0.000588402 0.00108232 0.991336 
-0.000588402 0.00108232 0.991336 
-0.00184962 6.53562e-05 0.988746 
-0.00184962 6.53562e-05 0.988746 
-0.00184962 6.53562e-05 0.988746 
-0.00184962 6.53562e-05 0.988746 
4.93293e-05 0.000113265 1.00036 
4.93293e-05 0.000113265 1.00036 
4.93293e-05 0.000113265 1.00036 
4.93293e-05 0.000113265 1.00036 
0.000240347 -9.36054e-06 0.999316 
0.000240347 -9.36054e-06 0.999316 
0.000240347 -9.36054e-06 0.999316 
0.000240347 -9.36054e-06 0.999316 
0.000135178 0.000868745 0.992591 
0.000135178 0.000868745 0.992591 
0.000135178 0.000868745 0.992591 
0.000135178 0.000868745 0.992591 
0.000176013 -0.000138264 0.999594 
0.000176013 -0.000138264 0.999594 
0.000176013 -0.000138264 0.999594 
0.000176013 -0.000138264 0.999594 
0.00161819 -0.0012572 0.990027 
0.00161819 -0.0012572 0.990027 
0.00161819 -0.0012572 0.990027 
0.00161819 -0.0012572 0.990027 
0.00102728 -0.00115764 0.992005 
0.00102728 -0.00115764 0.992005 
0.00102728 -0.00115764 0.992005 
0.00102728 -0.00115764 0.992005 
0.00216593 0.00132504 0.989699 
0.00216593 0.00132504 0.989699 
0.00216593 0.00132504 0.989699 
0.00216593 0.00132504 0.989699 
6.95169e-05 0.000232572 1.00045 
6.95169e-05 0.000232572 1.00045 
6.95169e-05 0.000232572 1.00045 
6.95169e-05 0.000232572 1.00045 
-0.000312781 -0.000445969 0.993672 
-0.000312781 -0.000445969 0.993672 
-0.000312781 -0.000445969 0.993672 
-0.000312781 -0.000445969 0.993672 
-0.000190234 -0.00021623 0.999501 
-0.000190234 -0.00021623 0.999501 
-0.000190234 -0.00021623 0.999501 
-0.000190234 -0.00021623 0.999501 
-0.00088989 0.00169615 0.99052 
-0.00088989 0.00169615 0.99052 
-0.00088989 0.00169615 0.99052 
-0.00088989 0.00169615 0.99052 
0.000146451 0.000975477 0.992713 
0.000146451 0.000975477 0.992713 
0.000146451 0.000975477 0.992713 
0.000146451 0.000975477 0.992713 
-0.000313479 -7.46505e-05 1.00048 
-0.000313479 -7.46505e-05 1.00048 
-0.000313479 -7.46505e-05 1.00048 
-0.000313479 -7.46505e-05 1.00048 
0.000460361 0.00169494 0.991844 
0.000460361 0.00169494 0.991844 
0.000460361 0.00169494 0.991844 
0.000460361 0.00169494 0.991844 
-0.000166608 0.000124465 1.00043 
-0.000166608 0.000124465 1.00043 
-0.000166608 0.000124465 1.00043 
-0.000166608 0.000124465 1.00043 
3.95273e-05 0.000249853 1.00041 
3.95273e-05 0.000249853 1.00041 
3.95273e-05 0.000249853 1.00041 
3.95273e-05 0.000249853 1.00041 
-0.000173185 8.50963e-05 1.0001 
-0.000173185 8.50963e-05 1.0001 
-0.000173185 8.50963e-05 1.0001 
-0.000173185 8.50963e-05 1.0001 
0.000325931 -0.000348726 0.99248 
0.000325931 -0.000348726 0.99248 
0.000325931 -0.000348726 0.99248 
0.000325931 -0.000348726 0.99248 
0.00129565 0.000766143 0.991776 
0.00129565 0.000766143 0.991776 
0.00129565 0.000766143 0.991776 
0.00129565 0.000766143 0.991776 
-0.000180401 -6.12731e-05 1.00035 
-0.000180401 -6.12731e-05 1.00035 
-0.000180401 -6.12731e-05 1.00035 
-0.000180401 -6.12731e-05 1.00035 
-0.00018149 0.000415083 0.993877 
-0.00018149 0.000415083 0.993877 
-0.00018149 0.000415083 0.993877 
-0.00018149 0.000415083 0.993877 
-0.00169624 -0.000728144 0.989298 
-0.00169624 -0.000728144 0.989298 
-0.00169624 -0.000728144 0.989298 
-0.00169624 -0.000728144 0.989298 
0.000669979 -0.00122365 0.991281 
0.000669979 -0.00122365 0.991281 
0.000669979 -0.00122365 0.991281 
0.000669979 -0.00122365 0.991281 
0.000354346 0.00275646 0.987628 
0.000354346 0.00275646 0.987628 
0.000354346 0.00275646 0.987628 
0.000354346 0.00275646 0.987628 
1.19803e-05 0.000123354 1.00008 
1.19803e-05 0.000123354 1.00008 
1.19803e-05 0.000123354 1.00008 
1.19803e-05 0.000123354 1.00008 
-0.00137223 -0.00122008 0.991589 
-0.00137223 -0.00122008 0.991589 
-0.00137223 -0.00122008 0.991589 
-0.00137223 -0.00122008 0.991589 
0.000388031 0.00120559 0.988191 
0.000388031 0.00120559 0.988191 
0.000388031 0.00120559 0.988191 
0.000388031 0.00120559 0.988191 
0.00197698 -0.000387335 0.987724 
0.00197698 -0.000387335 0.987724 
0.00197698 -0.000387335 0.987724 
0.00197698 -0.000387335 0.987724 
-0.0029355 0.000896866 0.983536 
-0.0029355 0.000896866 0.983536 
-0.0029355 0.000896866 0.983536 
-0.0029355 0.000896866 0.983536 
3.96876e-05 -9.03175e-05 1.00016 
3.96876e-05 -9.03175e-05 1.00016 
3.96876e-05 -9.03175e-05 1.00016 
3.96876e-05 -9.03175e-05 1.00016 
-0.000757623 -0.00185536 0.991064 
-0.000757623 -0.00185536 0.991064 
-0.000757623 -0.00185536 0.991064 
-0.000757623 -0.00185536 0.991064 
0.00167659 -0.00156232 0.989083 
0.00167659 -0.00156232 0.989083 
0.00167659 -0.00156232 0.989083 
0.00167659 -0.00156232 0.989083 
-0.000104109 -0.000131966 1.00011 
-0.000104109 -0.000131966 1.00011 
-0.000104109 -0.000131966 1.00011 
-0.000104109 -0.000131966 1.00011 
0.0013023 -0.000198595 0.98843 
0.0013023 -0.000198595 0.98843 
0.0013023 -0.000198595 0.98843 
0.0013023 -0.000198595 0.98843 
-0.00074764 0.00267509 0.988709 
-0.00074764 0.00267509 0.988709 
-0.00074764 0.00267509 0.988709 
-0.00074764 0.00267509 0.988709 
-0.000147558 -0.000141187 1.00041 
-0.000147558 -0.000141187 1.00041 
-0.000147558 -0.000141187 1.00041 
-0.000147558 -0.000141187 1.00041 
-0.000143072 -0.000160635 1.00039 
-0.000143072 -0.000160635 1.00039 
-0.000143072 -0.000160635 1.00039 
-0.000143072 -0.000160635 1.00039 
4.55214e-06 -0.000504395 0.993292 
4.55214e-06 -0.000504395 0.993292 
4.55214e-06 -0.000504395 0.993292 
4.55214e-06 -0.000504395 0.993292 
-0.00013238 5.20835e-05 1.00039 
-0.00013238 5.20835e-05 1.00039 
-0.00013238 5.20835e-05 1.00039 
-0.00013238 5.20835e-05 1.00039 
-3.46432e-05 0.000107726 1.00017 
-3.46432e-05 0.000107726 1.00017 
-3.46432e-05 0.000107726 1.00017 
-3.46432e-05 0.000107726 1.00017 
0.00126223 -0.000610332 0.988808 
0.00126223 -0.000610332 0.988808 
0.00126223 -0.000610332 0.988808 
0.00126223 -0.000610332 0.988808 
-0.00139266 0.000672249 0.991834 
-0.00139266 0.000672249 0.991834 
-0.00139266 0.000672249 0.991834 
-0.00139266 0.000672249 0.991834 
5.29433e-06 -0.00026055 0.991464 
5.29433e-06 -0.00026055 0.991464 
5.29433e-06 -0.00026055 0.991464 
5.29433e-06 -0.00026055 0.991464 
0.000138375 -0.000210666 1.00046 
0.000138375 -0.000210666 1.00046 
0.000138375 -0.000210666 1.00046 
0.000138375 -0.000210666 1.00046 
0.000159005 -0.000190913 1.00043 
0.000159005 -0.000190913 1.00043 
0.000159005 -0.000190913 1.00043 
0.000159005 -0.000190913 1.00043 
2.39227e-05 0.00017978 1.00036 
2.39227e-05 0.00017978 1.00036 
2.39227e-05 0.00017978 1.00036 
2.39227e-05 0.00017978 1.00036 
-0.000885586 0.000697257 0.991288 
-0.000885586 0.000697257 0.991288 
-0.000885586 0.000697257 0.991288 
-0.000885586 0.000697257 0.991288 
0.00133921 -0.00448585 0.982007 
0.00133921 -0.00448585 0.982007 
0.00133921 -0.00448585 0.982007 
0.00133921 -0.00448585 0.982007 
0.00491636 0.000814257 0.981266 
0.00491636 0.000814257 0.981266 
0.00491636 0.000814257 0.981266 
0.00491636 0.000814257 0.981266 
-0.00110676 -0.000988808 0.991942 
-0.00110676 -0.000988808 0.991942 
-0.00110676 -0.000988808 0.991942 
-0.00110676 -0.000988808 0.991942 
-0.00185662 0.000561656 0.98899 
-0.00185662 0.000561656 0.98899 
-0.00185662 0.000561656 0.98899 
-0.00185662 0.000561656 0.98899 
-0.000213276 -1.28849e-05 1.00035 
-0.000213276 -1.28849e-05 1.00035 
-0.000213276 -1.28849e-05 1.00035 
-0.000213276 -1.28849e-05 1.00035 
0.000971109 -0.000742132 0.98843 
0.000971109 -0.000742132 0.98843 
0.000971109 -0.000742132 0.98843 
0.000971109 -0.000742132 0.98843 
-0.000532993 0.000374677 0.992524 
-0.000532993 0.000374677 0.992524 
-0.000532993 0.000374677 0.992524 
-0.000532993 0.000374677 0.992524 
8.13225e-05 -7.85011e-05 1.00013 
8.13225e-05 -7.85011e-05 1.00013 
8.13225e-05 -7.85011e-05 1.00013 
8.13225e-05 -7.85011e-05 1.00013 
4.61478e-05 -0.000188206 0.999162 
4.61478e-05 -0.000188206 0.999162 
4.61478e-05 -0.000188206 0.999162 
4.61478e-05 -0.000188206 0.999162 
0.00104283 -0.00136983 0.990632 
0.00104283 -0.00136983 0.990632 
0.00104283 -0.00136983 0.990632 
0.00104283 -0.00136983 0.990632 
0.000216216 -0.00242045 0.988333 
0.000216216 -0.00242045 0.988333 
0.000216216 -0.00242045 0.988333 
0.000216216 -0.00242045 0.988333 
-0.000485752 -0.000226149 0.992297 
-0.000485752 -0.000226149 0.992297 
-0.000485752 -0.000226149 0.992297 
-0.000485752 -0.000226149 0.992297 
0.00204595 -0.000294152 0.987818 
0.00204595 -0.000294152 0.987818 
0.00204595 -0.000294152 0.987818 
0.00204595 -0.000294152 0.987818 
-0.000955423 0.00308874 0.983523 
-0.000955423 0.00308874 0.983523 
-0.000955423 0.00308874 0.983523 
-0.000955423 0.00308874 0.983523 
0.000517528 -0.00208187 0.988346 
0.000517528 -0.00208187 0.988346 
0.000517528 -0.00208187 0.988346 
0.000517528 -0.00208187 0.988346 
-0.00030008 -9.96971e-05 1.00034 
-0.00030008 -9.96971e-05 1.00034 
-0.00030008 -9.96971e-05 1.00034 
-0.00030008 -9.96971e-05 1.00034 
-0.00101073 7.73188e-05 0.988498 
-0.00101073 7.73188e-05 0.988498 
-0.00101073 7.73188e-05 0.988498 
-0.00101073 7.73188e-05 0.988498 
-0.0014208 0.000599486 0.988191 
-0.0014208 0.000599486 0.988191 
-0.0014208 0.000599486 0.988191 
-0.0014208 0.000599486 0.988191 
0.00010975 -8.83129e-05 1.00035 
0.00010975 -8.83129e-05 1.00035 
0.00010975 -8.83129e-05 1.00035 
0.00010975 -8.83129e-05 1.00035 
-0.00113871 -0.00122727 0.990793 
-0.00113871 -0.00122727 0.990793 
-0.00113871 -0.00122727 0.990793 
-0.00113871 -0.00122727 0.990793 
0.000958078 -7.12671e-05 0.992753 
0.000958078 -7.12671e-05 0.992753 
0.000958078 -7.12671e-05 0.992753 
0.000958078 -7.12671e-05 0.992753 
8.93487e-05 -8.87489e-05 1.00013 
8.93487e-05 -8.87489e-05 1.00013 
8.93487e-05 -8.87489e-05 1.00013 
8.93487e-05 -8.87489e-05 1.00013 
0.000591055 0.00125167 0.99174 
0.000591055 0.00125167 0.99174 
0.000591055 0.00125167 0.99174 
0.000591055 0.00125167 0.99174 
-0.000109367 4.36123e-05 1.00039 
-0.000109367 4.36123e-05 1.00039 
-0.000109367 4.36123e-05 1.00039 
-0.000109367 4.36123e-05 1.00039 
-7.25879e-06 0.000811973 0.99017 
-7.25879e-06 0.000811973 0.99017 
-7.25879e-06 0.000811973 0.99017 
-7.25879e-06 0.000811973 0.99017 
-0.000273085 -8.00014e-05 1.00047 
-0.000273085 -8.00014e-05 1.00047 
-0.000273085 -8.00014e-05 1.00047 
-0.000273085 -8.00014e-05 1.00047 
4.29391e-05 -5.43972e-05 1.00011 
4.29391e-05 -5.43972e-05 1.00011 
4.29391e-05 -5.43972e-05 1.00011 
4.29391e-05 -5.43972e-05 1.00011 
0.00101975 0.000980753 0.991667 
0.00101975 0.000980753 0.991667 
0.00101975 0.000980753 0.991667 
0.00101975 0.000980753 0.991667 
0.000101914 -0.000194177 1.00039 
0.000101914 -0.000194177 1.00039 
0.000101914 -0.000194177 1.00039 
0.000101914 -0.000194177 1.00039 
-0.000432813 8.4891e-05 0.993262 
-0.000432813 8.4891e-05 0.993262 
-0.000432813 8.4891e-05 0.993262 
-0.000432813 8.4891e-05 0.993262 
-0.000111754 -0.000132966 1.00043 
-0.000111754 -0.000132966 1.00043 
-0.000111754 -0.000132966 1.00043 
-0.000111754 -0.000132966 1.00043 
0.000163642 7.25759e-05 1.00043 
0.000163642 7.25759e-05 1.00043 
0.000163642 7.25759e-05 1.00043 
0.000163642 7.25759e-05 1.00043 
-0.000150252 -0.00191312 0.988498 
-0.000150252 -0.00191312 0.988498 
-0.000150252 -0.00191312 0.988498 
-0.000150252 -0.00191312 0.988498 
3.12949e-06 -0.000209793 1.00007 
3.12949e-06 -0.000209793 1.00007 
3.12949e-06 -0.000209793 1.00007 
3.12949e-06 -0.000209793 1.00007 
0.00034149 0.00397369 0.983523 
0.00034149 0.00397369 0.983523 
0.00034149 0.00397369 0.983523 
0.00034149 0.00397369 0.983523 
-0.00015981 0.000140614 1.00043 
-0.00015981 0.000140614 1.00043 
-0.00015981 0.000140614 1.00043 
-0.00015981 0.000140614 1.00043 
0.000650577 0.00153728 0.98843 
0.000650577 0.00153728 0.98843 
0.000650577 0.00153728 0.98843 
0.000650577 0.00153728 0.98843 
3.26141e-06 -0.000196126 1.00039 
3.26141e-06 -0.000196126 1.00039 
3.26141e-06 -0.000196126 1.00039 
3.26141e-06 -0.000196126 1.00039 
-0.000356397 -0.000139724 1.00043 
-0.000356397 -0.000139724 1.00043 
-0.000356397 -0.000139724 1.00043 
-0.000356397 -0.000139724 1.00043 
-3.63278e-05 -6.12726e-05 1.00011 
-3.63278e-05 -6.12726e-05 1.00011 
-3.63278e-05 -6.12726e-05 1.00011 
-3.63278e-05 -6.12726e-05 1.00011 
-0.000735547 -0.00353775 0.982007 
-0.000735547 -0.00353775 0.982007 
-0.000735547 -0.00353775 0.982007 
-0.000735547 -0.00353775 0.982007 
0.000110842 8.18925e-05 1.00008 
0.000110842 8.18925e-05 1.00008 
0.000110842 8.18925e-05 1.00008 
0.000110842 8.18925e-05 1.00008 
0.00431455 -0.000345532 0.981266 
0.00431455 -0.000345532 0.981266 
0.00431455 -0.000345532 0.981266 
0.00431455 -0.000345532 0.981266 
0.000132894 -0.000105946 1.00035 
0.000132894 -0.000105946 1.00035 
0.000132894 -0.000105946 1.00035 
0.000132894 -0.000105946 1.00035 
4.78266e-05 1.2677e-05 1.00013 
4.78266e-05 1.2677e-05 1.00013 
4.78266e-05 1.2677e-05 1.00013 
4.78266e-05 1.2677e-05 1.00013 
-3.54724e-05 -7.77179e-05 1.00035 
-3.54724e-05 -7.77179e-05 1.00035 
-3.54724e-05 -7.77179e-05 1.00035 
-3.54724e-05 -7.77179e-05 1.00035 
-0.000147608 -8.57938e-05 1.00037 
-0.000147608 -8.57938e-05 1.00037 
-0.000147608 -8.57938e-05 1.00037 
-0.000147608 -8.57938e-05 1.00037 
-0.000140005 -0.000114292 1.00041 
-0.000140005 -0.000114292 1.00041 
-0.000140005 -0.000114292 1.00041 
-0.000140005 -0.000114292 1.00041 
-9.4299e-05 4.39827e-05 1.00009 
-9.4299e-05 4.39827e-05 1.00009 
-9.4299e-05 4.39827e-05 1.00009 
-9.4299e-05 4.39827e-05 1.00009 
-7.22328e-06 -5.9438e-06 1.00006 
-7.22328e-06 -5.9438e-06 1.00006 
-7.22328e-06 -5.9438e-06 1.00006 
-7.22328e-06 -5.9438e-06 1.00006 
7.01808e-05 9.37636e-05 1.00009 
7.01808e-05 9.37636e-05 1.00009 
7.01808e-05 9.37636e-05 1.00009 
7.01808e-05 9.37636e-05 1.00009 
7.13836e-05 1.66024e-05 1.00012 
7.13836e-05 1.66024e-05 1.00012 
7.13836e-05 1.66024e-05 1.00012 
7.13836e-05 1.66024e-05 1.00012 
0.000108008 -0.00018899 0.999912 
0.000108008 -0.00018899 0.999912 
0.000108008 -0.00018899 0.999912 
0.000108008 -0.00018899 0.999912 
-0.000167306 -0.000189313 1.00006 
-0.000167306 -0.000189313 1.00006 
-0.000167306 -0.000189313 1.00006 
-0.000167306 -0.000189313 1.00006 
-2.76591e-05 -8.49903e-05 1.00009 
-2.76591e-05 -8.49903e-05 1.00009 
-2.76591e-05 -8.49903e-05 1.00009 
-2.76591e-05 -8.49903e-05 1.00009 
-6.13141e-06 -1.77206e-05 1.00006 
-6.13141e-06 -1.77206e-05 1.00006 
-6.13141e-06 -1.77206e-05 1.00006 
-6.13141e-06 -1.77206e-05 1.00006 
-0.000217967 -8.75988e-05 1.00011 
-0.000217967 -8.75988e-05 1.00011 
-0.000217967 -8.75988e-05 1.00011 
-0.000217967 -8.75988e-05 1.00011 
-0.000167773 0.000159326 1.00002 
-0.000167773 0.000159326 1.00002 
-0.000167773 0.000159326 1.00002 
-0.000167773 0.000159326 1.00002 
0.000894135 0.000845561 0.988191 
0.000894135 0.000845561 0.988191 
0.000894135 0.000845561 0.988191 
0.000894135 0.000845561 0.988191 
-2.49088e-06 0.000177855 1.00012 
-2.49088e-06 0.000177855 1.00012 
-2.49088e-06 0.000177855 1.00012 
-2.49088e-06 0.000177855 1.00012 
-0.00106926 -0.000810444 0.988808 
-0.00106926 -0.000810444 0.988808 
-0.00106926 -0.000810444 0.988808 
-0.00106926 -0.000810444 0.988808 
-0.000310715 -0.00014028 0.999981 
-0.000310715 -0.00014028 0.999981 
-0.000310715 -0.00014028 0.999981 
-0.000310715 -0.00014028 0.999981 
6.46977e-05 0.000212178 1.00002 
6.46977e-05 0.000212178 1.00002 
6.46977e-05 0.000212178 1.00002 
6.46977e-05 0.000212178 1.00002 
-0.00021226 -3.8311e-05 1.00009 
-0.00021226 -3.8311e-05 1.00009 
-0.00021226 -3.8311e-05 1.00009 
-0.00021226 -3.8311e-05 1.00009 
-2.356e-06 0.000221858 1.00045 
-2.356e-06 0.000221858 1.00045 
-2.356e-06 0.000221858 1.00045 
-2.356e-06 0.000221858 1.00045 
-9.78409e-06 -0.000228082 1.00003 
-9.78409e-06 -0.000228082 1.00003 
-9.78409e-06 -0.000228082 1.00003 
-9.78409e-06 -0.000228082 1.00003 
-8.53757e-05 -0.000126844 1.00008 
-8.53757e-05 -0.000126844 1.00008 
-8.53757e-05 -0.000126844 1.00008 
-8.53757e-05 -0.000126844 1.00008 
-0.000287634 5.49989e-05 1.00013 
-0.000287634 5.49989e-05 1.00013 
-0.000287634 5.49989e-05 1.00013 
-0.000287634 5.49989e-05 1.00013 
0.000246012 3.6247e-05 0.999997 
0.000246012 3.6247e-05 0.999997 
0.000246012 3.6247e-05 0.999997 
0.000246012 3.6247e-05 0.999997 
0.000125365 -0.000203223 1.00044 
0.000125365 -0.000203223 1.00044 
0.000125365 -0.000203223 1.00044 
0.000125365 -0.000203223 1.00044 
-0.000188906 0.000615845 0.992725 
-0.000188906 0.000615845 0.992725 
-0.000188906 0.000615845 0.992725 
-0.000188906 0.000615845 0.992725 
5.06539e-05 -6.20378e-05 1.0001 
5.06539e-05 -6.20378e-05 1.0001 
5.06539e-05 -6.20378e-05 1.0001 
5.06539e-05 -6.20378e-05 1.0001 
-0.000277493 -7.81235e-05 1.00036 
-0.000277493 -7.81235e-05 1.00036 
-0.000277493 -7.81235e-05 1.00036 
-0.000277493 -7.81235e-05 1.00036 
0.000251438 4.54279e-05 0.999995 
0.000251438 4.54279e-05 0.999995 
0.000251438 4.54279e-05 0.999995 
0.000251438 4.54279e-05 0.999995 
0.00044205 -0.00503323 0.982007 
0.00044205 -0.00503323 0.982007 
0.00044205 -0.00503323 0.982007 
0.00044205 -0.00503323 0.982007 
-0.000173378 -0.000125636 1.0001 
-0.000173378 -0.000125636 1.0001 
-0.000173378 -0.000125636 1.0001 
-0.000173378 -0.000125636 1.0001 
0.000122395 -0.000257591 0.999905 
0.000122395 -0.000257591 0.999905 
0.000122395 -0.000257591 0.999905 
0.000122395 -0.000257591 0.999905 
0.000163324 -8.93368e-07 1.00007 
0.000163324 -8.93368e-07 1.00007 
0.000163324 -8.93368e-07 1.00007 
0.000163324 -8.93368e-07 1.00007 
-4.00068e-05 2.85119e-05 1.0001 
-4.00068e-05 2.85119e-05 1.0001 
-4.00068e-05 2.85119e-05 1.0001 
-4.00068e-05 2.85119e-05 1.0001 
-0.00351342 -0.0012747 0.983536 
-0.00351342 -0.0012747 0.983536 
-0.00351342 -0.0012747 0.983536 
-0.00351342 -0.0012747 0.983536 
-0.000148006 8.67323e-05 1.0001 
-0.000148006 8.67323e-05 1.0001 
-0.000148006 8.67323e-05 1.0001 
-0.000148006 8.67323e-05 1.0001 
-0.000351 0.00123565 0.988498 
-0.000351 0.00123565 0.988498 
-0.000351 0.00123565 0.988498 
-0.000351 0.00123565 0.988498 
-0.000156221 2.58708e-05 1.0001 
-0.000156221 2.58708e-05 1.0001 
-0.000156221 2.58708e-05 1.0001 
-0.000156221 2.58708e-05 1.0001 
2.09289e-05 4.49823e-05 1.00011 
2.09289e-05 4.49823e-05 1.00011 
2.09289e-05 4.49823e-05 1.00011 
2.09289e-05 4.49823e-05 1.00011 
-0.00294068 0.00189671 0.985665 
-0.00294068 0.00189671 0.985665 
-0.00294068 0.00189671 0.985665 
-0.00294068 0.00189671 0.985665 
0.000177117 5.07145e-05 1.00042 
0.000177117 5.07145e-05 1.00042 
0.000177117 5.07145e-05 1.00042 
0.000177117 5.07145e-05 1.00042 
0.00497713 0.00070496 0.981266 
0.00497713 0.00070496 0.981266 
0.00497713 0.00070496 0.981266 
0.00497713 0.00070496 0.981266 
-0.00203228 0.00337798 0.985272 
-0.00203228 0.00337798 0.985272 
-0.00203228 0.00337798 0.985272 
-0.00203228 0.00337798 0.985272 
-0.00040315 0.00115738 0.990772 
-0.00040315 0.00115738 0.990772 
-0.00040315 0.00115738 0.990772 
-0.00040315 0.00115738 0.990772 
-3.31335e-05 -2.59979e-05 1.00012 
-3.31335e-05 -2.59979e-05 1.00012 
-3.31335e-05 -2.59979e-05 1.00012 
-3.31335e-05 -2.59979e-05 1.00012 
-4.94711e-05 -3.58894e-05 1.00012 
-4.94711e-05 -3.58894e-05 1.00012 
-4.94711e-05 -3.58894e-05 1.00012 
-4.94711e-05 -3.58894e-05 1.00012 
-0.00025651 -5.67731e-05 0.999957 
-0.00025651 -5.67731e-05 0.999957 
-0.00025651 -5.67731e-05 0.999957 
-0.00025651 -5.67731e-05 0.999957 
0.000465165 -0.00119779 0.990829 
0.000465165 -0.00119779 0.990829 
0.000465165 -0.00119779 0.990829 
0.000465165 -0.00119779 0.990829 
-0.000217418 -4.13707e-05 1.00038 
-0.000217418 -4.13707e-05 1.00038 
-0.000217418 -4.13707e-05 1.00038 
-0.000217418 -4.13707e-05 1.00038 
7.26437e-05 0.000188371 1.00009 
7.26437e-05 0.000188371 1.00009 
7.26437e-05 0.000188371 1.00009 
7.26437e-05 0.000188371 1.00009 
5.29104e-05 -7.72545e-05 1.00017 
5.29104e-05 -7.72545e-05 1.00017 
5.29104e-05 -7.72545e-05 1.00017 
5.29104e-05 -7.72545e-05 1.00017 
-0.00121253 -0.0004875 0.99202 
-0.00121253 -0.0004875 0.99202 
-0.00121253 -0.0004875 0.99202 
-0.00121253 -0.0004875 0.99202 
0.00132433 0.000545642 0.991114 
0.00132433 0.000545642 0.991114 
0.00132433 0.000545642 0.991114 
0.00132433 0.000545642 0.991114 
0.00188659 0.000972018 0.990252 
0.00188659 0.000972018 0.990252 
0.00188659 0.000972018 0.990252 
0.00188659 0.000972018 0.990252 
-0.000112944 -0.000331299 1.00004 
-0.000112944 -0.000331299 1.00004 
-0.000112944 -0.000331299 1.00004 
-0.000112944 -0.000331299 1.00004 
0.00118378 -0.000490609 0.988918 
0.00118378 -0.000490609 0.988918 
0.00118378 -0.000490609 0.988918 
0.00118378 -0.000490609 0.988918 
-0.00200896 -0.00367858 0.984727 
-0.00200896 -0.00367858 0.984727 
-0.00200896 -0.00367858 0.984727 
-0.00200896 -0.00367858 0.984727 
0.0009205 0.000110723 0.992164 
0.0009205 0.000110723 0.992164 
0.0009205 0.000110723 0.992164 
0.0009205 0.000110723 0.992164 
0.000788416 0.00111071 0.992395 
0.000788416 0.00111071 0.992395 
0.000788416 0.00111071 0.992395 
0.000788416 0.00111071 0.992395 
-0.000823804 5.05744e-05 0.99158 
-0.000823804 5.05744e-05 0.99158 
-0.000823804 5.05744e-05 0.99158 
-0.000823804 5.05744e-05 0.99158 
0.000114722 0.000304241 0.991082 
0.000114722 0.000304241 0.991082 
0.000114722 0.000304241 0.991082 
0.000114722 0.000304241 0.991082 
-0.000213474 -0.000194705 1.00013 
-0.000213474 -0.000194705 1.00013 
-0.000213474 -0.000194705 1.00013 
-0.000213474 -0.000194705 1.00013 
0.00430145 -0.00206769 0.984757 
0.00430145 -0.00206769 0.984757 
0.00430145 -0.00206769 0.984757 
0.00430145 -0.00206769 0.984757 
-0.000471209 0.00042049 0.993202 
-0.000471209 0.00042049 0.993202 
-0.000471209 0.00042049 0.993202 
-0.000471209 0.00042049 0.993202 
0.00189566 -0.000668974 0.991006 
0.00189566 -0.000668974 0.991006 
0.00189566 -0.000668974 0.991006 
0.00189566 -0.000668974 0.991006 
0.000250005 0.000602317 0.993972 
0.000250005 0.000602317 0.993972 
0.000250005 0.000602317 0.993972 
0.000250005 0.000602317 0.993972 
-0.000229845 -5.59134e-05 1.00038 
-0.000229845 -5.59134e-05 1.00038 
-0.000229845 -5.59134e-05 1.00038 
-0.000229845 -5.59134e-05 1.00038 
5.23178e-05 0.000216244 1.00043 
5.23178e-05 0.000216244 1.00043 
5.23178e-05 0.000216244 1.00043 
5.23178e-05 0.000216244 1.00043 
0.0014721 0.00398653 0.985574 
0.0014721 0.00398653 0.985574 
0.0014721 0.00398653 0.985574 
0.0014721 0.00398653 0.985574 
-0.000968962 0.000325538 0.993461 
-0.000968962 0.000325538 0.993461 
-0.000968962 0.000325538 0.993461 
-0.000968962 0.000325538 0.993461 
-0.00107502 0.00173155 0.990486 
-0.00107502 0.00173155 0.990486 
-0.00107502 0.00173155 0.990486 
-0.00107502 0.00173155 0.990486 
-0.0019974 -0.000955826 0.99035 
-0.0019974 -0.000955826 0.99035 
-0.0019974 -0.000955826 0.99035 
-0.0019974 -0.000955826 0.99035 
0.000257194 -0.00258876 0.988892 
0.000257194 -0.00258876 0.988892 
0.000257194 -0.00258876 0.988892 
0.000257194 -0.00258876 0.988892 
-0.000321686 -7.9594e-05 1.00048 
-0.000321686 -7.9594e-05 1.00048 
-0.000321686 -7.9594e-05 1.00048 
-0.000321686 -7.9594e-05 1.00048 
0.000196276 -0.000528985 0.992944 
0.000196276 -0.000528985 0.992944 
0.000196276 -0.000528985 0.992944 
0.000196276 -0.000528985 0.992944 
0.000437094 0.000386566 0.994777 
0.000437094 0.000386566 0.994777 
0.000437094 0.000386566 0.994777 
0.000437094 0.000386566 0.994777 
5.16571e-05 -7.41455e-05 1.00017 
5.16571e-05 -7.41455e-05 1.00017 
5.16571e-05 -7.41455e-05 1.00017 
5.16571e-05 -7.41455e-05 1.00017 
0.000473962 -0.000281619 0.993364 
0.000473962 -0.000281619 0.993364 
0.000473962 -0.000281619 0.993364 
0.000473962 -0.000281619 0.993364 
0.000921194 -0.000138081 0.992727 
0.000921194 -0.000138081 0.992727 
0.000921194 -0.000138081 0.992727 
0.000921194 -0.000138081 0.992727 
0.000738612 0.000131507 0.992584 
0.000738612 0.000131507 0.992584 
0.000738612 0.000131507 0.992584 
0.000738612 0.000131507 0.992584 
-0.000104851 0.00250992 0.987965 
-0.000104851 0.00250992 0.987965 
-0.000104851 0.00250992 0.987965 
-0.000104851 0.00250992 0.987965 
-0.00211629 -8.66204e-05 0.989716 
-0.00211629 -8.66204e-05 0.989716 
-0.00211629 -8.66204e-05 0.989716 
-0.00211629 -8.66204e-05 0.989716 
-0.000465132 -0.00128932 0.990409 
-0.000465132 -0.00128932 0.990409 
-0.000465132 -0.00128932 0.990409 
-0.000465132 -0.00128932 0.990409 
-0.000932327 -0.00149175 0.991174 
-0.000932327 -0.00149175 0.991174 
-0.000932327 -0.00149175 0.991174 
-0.000932327 -0.00149175 0.991174 
0.000927175 -0.00144811 0.99043 
0.000927175 -0.00144811 0.99043 
0.000927175 -0.00144811 0.99043 
0.000927175 -0.00144811 0.99043 
-8.10965e-06 0.00100594 0.993053 
-8.10965e-06 0.00100594 0.993053 
-8.10965e-06 0.00100594 0.993053 
-8.10965e-06 0.00100594 0.993053 
-0.000801871 8.36331e-05 0.993137 
-0.000801871 8.36331e-05 0.993137 
-0.000801871 8.36331e-05 0.993137 
-0.000801871 8.36331e-05 0.993137 
0.00150579 -0.00120812 0.989577 
0.00150579 -0.00120812 0.989577 
0.00150579 -0.00120812 0.989577 
0.00150579 -0.00120812 0.989577 
0.0027151 0.000434482 0.987995 
0.0027151 0.000434482 0.987995 
0.0027151 0.000434482 0.987995 
0.0027151 0.000434482 0.987995 
7.21692e-05 -0.000256186 1.00004 
7.21692e-05 -0.000256186 1.00004 
7.21692e-05 -0.000256186 1.00004 
7.21692e-05 -0.000256186 1.00004 
-5.86507e-05 -0.00116822 0.992731 
-5.86507e-05 -0.00116822 0.992731 
-5.86507e-05 -0.00116822 0.992731 
-5.86507e-05 -0.00116822 0.992731 
0.00189996 -0.00509102 0.983844 
0.00189996 -0.00509102 0.983844 
0.00189996 -0.00509102 0.983844 
0.00189996 -0.00509102 0.983844 
-0.000299479 -0.000394561 0.99215 
-0.000299479 -0.000394561 0.99215 
-0.000299479 -0.000394561 0.99215 
-0.000299479 -0.000394561 0.99215 
0.00527907 0.00206334 0.983142 
0.00527907 0.00206334 0.983142 
0.00527907 0.00206334 0.983142 
0.00527907 0.00206334 0.983142 
0.000644068 0.00112992 0.988768 
0.000644068 0.00112992 0.988768 
0.000644068 0.00112992 0.988768 
0.000644068 0.00112992 0.988768 
-0.00114975 0.000429447 0.990489 
-0.00114975 0.000429447 0.990489 
-0.00114975 0.000429447 0.990489 
-0.00114975 0.000429447 0.990489 
-5.56007e-05 0.000970048 0.992789 
-5.56007e-05 0.000970048 0.992789 
-5.56007e-05 0.000970048 0.992789 
-5.56007e-05 0.000970048 0.992789 
-0.000150512 -0.000124023 1.00042 
-0.000150512 -0.000124023 1.00042 
-0.000150512 -0.000124023 1.00042 
-0.000150512 -0.000124023 1.00042 
-0.000309498 -0.000577945 0.993838 
-0.000309498 -0.000577945 0.993838 
-0.000309498 -0.000577945 0.993838 
-0.000309498 -0.000577945 0.993838 
-9.07072e-05 0.000530249 0.992152 
-9.07072e-05 0.000530249 0.992152 
-9.07072e-05 0.000530249 0.992152 
-9.07072e-05 0.000530249 0.992152 
-0.000593498 -0.000386744 0.994061 
-0.000593498 -0.000386744 0.994061 
-0.000593498 -0.000386744 0.994061 
-0.000593498 -0.000386744 0.994061 
-0.00211927 0.00179765 0.989119 
-0.00211927 0.00179765 0.989119 
-0.00211927 0.00179765 0.989119 
-0.00211927 0.00179765 0.989119 
-0.00248394 -0.000110673 0.987403 
-0.00248394 -0.000110673 0.987403 
-0.00248394 -0.000110673 0.987403 
-0.00248394 -0.000110673 0.987403 
-0.00363659 -0.00193581 0.984264 
-0.00363659 -0.00193581 0.984264 
-0.00363659 -0.00193581 0.984264 
-0.00363659 -0.00193581 0.984264 
0.00138957 -0.00156315 0.989958 
0.00138957 -0.00156315 0.989958 
0.00138957 -0.00156315 0.989958 
0.00138957 -0.00156315 0.989958 
0.000272873 0.00339749 0.986573 
0.000272873 0.00339749 0.986573 
0.000272873 0.00339749 0.986573 
0.000272873 0.00339749 0.986573 
0.00267438 -0.000439248 0.987029 
0.00267438 -0.000439248 0.987029 
0.00267438 -0.000439248 0.987029 
0.00267438 -0.000439248 0.987029 
-5.61987e-05 -3.82056e-05 1.00012 
-5.61987e-05 -3.82056e-05 1.00012 
-5.61987e-05 -3.82056e-05 1.00012 
-5.61987e-05 -3.82056e-05 1.00012 
-0.000323995 -0.00289819 0.988147 
-0.000323995 -0.00289819 0.988147 
-0.000323995 -0.00289819 0.988147 
-0.000323995 -0.00289819 0.988147 
-0.000427927 0.000496314 0.994212 
-0.000427927 0.000496314 0.994212 
-0.000427927 0.000496314 0.994212 
-0.000427927 0.000496314 0.994212 
0.000228872 -0.000759505 0.990529 
0.000228872 -0.000759505 0.990529 
0.000228872 -0.000759505 0.990529 
0.000228872 -0.000759505 0.990529 
-0.00195081 0.00119669 0.989292 
-0.00195081 0.00119669 0.989292 
-0.00195081 0.00119669 0.989292 
-0.00195081 0.00119669 0.989292 
-0.0018162 -0.00119585 0.988931 
-0.0018162 -0.00119585 0.988931 
-0.0018162 -0.00119585 0.988931 
-0.0018162 -0.00119585 0.988931 
-0.000421486 -0.000127582 0.991911 
-0.000421486 -0.000127582 0.991911 
-0.000421486 -0.000127582 0.991911 
-0.000421486 -0.000127582 0.991911 
-0.00208582 0.00229558 0.988003 
-0.00208582 0.00229558 0.988003 
-0.00208582 0.00229558 0.988003 
-0.00208582 0.00229558 0.988003 
0.000480068 -3.86721e-05 0.991723 
0.000480068 -3.86721e-05 0.991723 
0.000480068 -3.86721e-05 0.991723 
0.000480068 -3.86721e-05 0.991723 
0.00200605 0.00137984 0.988461 
0.00200605 0.00137984 0.988461 
0.00200605 0.00137984 0.988461 
0.00200605 0.00137984 0.988461 
0.00074543 0.00210386 0.988742 
0.00074543 0.00210386 0.988742 
0.00074543 0.00210386 0.988742 
0.00074543 0.00210386 0.988742 
0.000452598 -0.000601751 0.993111 
0.000452598 -0.000601751 0.993111 
0.000452598 -0.000601751 0.993111 
0.000452598 -0.000601751 0.993111 
-0.00116361 -0.00276332 0.988151 
-0.00116361 -0.00276332 0.988151 
-0.00116361 -0.00276332 0.988151 
-0.00116361 -0.00276332 0.988151 
0.000224543 -6.90875e-05 1.00024 
0.000224543 -6.90875e-05 1.00024 
0.000224543 -6.90875e-05 1.00024 
0.000224543 -6.90875e-05 1.00024 
0.000452512 -2.84848e-05 1.00018 
0.000452512 -2.84848e-05 1.00018 
0.000452512 -2.84848e-05 1.00018 
0.000452512 -2.84848e-05 1.00018 
-0.000357829 -0.000266935 1.00012 
-0.000357829 -0.000266935 1.00012 
-0.000357829 -0.000266935 1.00012 
-0.000357829 -0.000266935 1.00012 
-0.000659174 -0.000219295 0.999981 
-0.000659174 -0.000219295 0.999981 
-0.000659174 -0.000219295 0.999981 
-0.000659174 -0.000219295 0.999981 
-0.00026392 -0.000215706 0.999995 
-0.00026392 -0.000215706 0.999995 
-0.00026392 -0.000215706 0.999995 
-0.00026392 -0.000215706 0.999995 
6.67093e-05 -0.000404408 0.999867 
6.67093e-05 -0.000404408 0.999867 
6.67093e-05 -0.000404408 0.999867 
6.67093e-05 -0.000404408 0.999867 
-3.52585e-06 -0.000286265 1.00025 
-3.52585e-06 -0.000286265 1.00025 
-3.52585e-06 -0.000286265 1.00025 
-3.52585e-06 -0.000286265 1.00025 
0.000122762 -0.00068242 1.00005 
0.000122762 -0.00068242 1.00005 
0.000122762 -0.00068242 1.00005 
0.000122762 -0.00068242 1.00005 
-0.00019696 -5.08851e-05 1.00036 
-0.00019696 -5.08851e-05 1.00036 
-0.00019696 -5.08851e-05 1.00036 
-0.00019696 -5.08851e-05 1.00036 
-0.000360657 -8.83044e-05 1.0005 
-0.000360657 -8.83044e-05 1.0005 
-0.000360657 -8.83044e-05 1.0005 
-0.000360657 -8.83044e-05 1.0005 
-0.00025077 -0.000111025 1.00043 
-0.00025077 -0.000111025 1.00043 
-0.00025077 -0.000111025 1.00043 
-0.00025077 -0.000111025 1.00043 
-0.000544693 -2.78085e-05 1.00021 
-0.000544693 -2.78085e-05 1.00021 
-0.000544693 -2.78085e-05 1.00021 
-0.000544693 -2.78085e-05 1.00021 
0.000500155 -0.000666332 0.998964 
0.000500155 -0.000666332 0.998964 
0.000500155 -0.000666332 0.998964 
0.000500155 -0.000666332 0.998964 
0.000160806 0.000131984 0.999474 
0.000160806 0.000131984 0.999474 
0.000160806 0.000131984 0.999474 
0.000160806 0.000131984 0.999474 
0.000412425 0.000264441 0.999848 
0.000412425 0.000264441 0.999848 
0.000412425 0.000264441 0.999848 
0.000412425 0.000264441 0.999848 
0.000237647 0.000301633 1.00025 
0.000237647 0.000301633 1.00025 
0.000237647 0.000301633 1.00025 
0.000237647 0.000301633 1.00025 
0.000180516 -0.000411939 1.00013 
0.000180516 -0.000411939 1.00013 
0.000180516 -0.000411939 1.00013 
0.000180516 -0.000411939 1.00013 
7.37552e-05 -0.000694817 1.00004 
7.37552e-05 -0.000694817 1.00004 
7.37552e-05 -0.000694817 1.00004 
7.37552e-05 -0.000694817 1.00004 
1.39574e-05 0.000229547 1.00043 
1.39574e-05 0.000229547 1.00043 
1.39574e-05 0.000229547 1.00043 
1.39574e-05 0.000229547 1.00043 
3.06991e-05 0.000160312 1.00036 
3.06991e-05 0.000160312 1.00036 
3.06991e-05 0.000160312 1.00036 
3.06991e-05 0.000160312 1.00036 
-0.000110173 -0.000139245 1.00042 
-0.000110173 -0.000139245 1.00042 
-0.000110173 -0.000139245 1.00042 
-0.000110173 -0.000139245 1.00042 
-6.37267e-05 -9.26491e-05 1.00035 
-6.37267e-05 -9.26491e-05 1.00035 
-6.37267e-05 -9.26491e-05 1.00035 
-6.37267e-05 -9.26491e-05 1.00035 
0.00056849 -0.000732702 0.997882 
0.00056849 -0.000732702 0.997882 
0.00056849 -0.000732702 0.997882 
0.00056849 -0.000732702 0.997882 
-0.000153497 -0.00109642 0.998355 
-0.000153497 -0.00109642 0.998355 
-0.000153497 -0.00109642 0.998355 
-0.000153497 -0.00109642 0.998355 
0.000229224 0.000553979 0.999795 
0.000229224 0.000553979 0.999795 
0.000229224 0.000553979 0.999795 
0.000229224 0.000553979 0.999795 
0.000286154 0.000394969 1.00006 
0.000286154 0.000394969 1.00006 
0.000286154 0.000394969 1.00006 
0.000286154 0.000394969 1.00006 
3.31081e-06 -8.1567e-05 1.00033 
3.31081e-06 -8.1567e-05 1.00033 
3.31081e-06 -8.1567e-05 1.00033 
3.31081e-06 -8.1567e-05 1.00033 
-0.00020848 -1.98213e-05 1.0004 
-0.00020848 -1.98213e-05 1.0004 
-0.00020848 -1.98213e-05 1.0004 
-0.00020848 -1.98213e-05 1.0004 
-0.000132403 5.30487e-05 1.00037 
-0.000132403 5.30487e-05 1.00037 
-0.000132403 5.30487e-05 1.00037 
-0.000132403 5.30487e-05 1.00037 
0.000101842 -0.000115216 1.00033 
0.000101842 -0.000115216 1.00033 
0.000101842 -0.000115216 1.00033 
0.000101842 -0.000115216 1.00033 
6.10933e-06 -0.000192125 1.00036 
6.10933e-06 -0.000192125 1.00036 
6.10933e-06 -0.000192125 1.00036 
6.10933e-06 -0.000192125 1.00036 
0.000611979 -0.00255317 0.999359 
0.000611979 -0.00255317 0.999359 
0.000611979 -0.00255317 0.999359 
0.000611979 -0.00255317 0.999359 
-0.000612741 -0.00295449 0.997795 
-0.000612741 -0.00295449 0.997795 
-0.000612741 -0.00295449 0.997795 
-0.000612741 -0.00295449 0.997795 
-0.00020507 -0.00242648 0.998499 
-0.00020507 -0.00242648 0.998499 
-0.00020507 -0.00242648 0.998499 
-0.00020507 -0.00242648 0.998499 
0.000619555 -0.00234352 0.997801 
0.000619555 -0.00234352 0.997801 
0.000619555 -0.00234352 0.997801 
0.000619555 -0.00234352 0.997801 
-0.000108938 0.000264094 0.997898 
-0.000108938 0.000264094 0.997898 
-0.000108938 0.000264094 0.997898 
-0.000108938 0.000264094 0.997898 
-0.000489094 -0.000284984 0.999511 
-0.000489094 -0.000284984 0.999511 
-0.000489094 -0.000284984 0.999511 
-0.000489094 -0.000284984 0.999511 
-0.000581702 -0.000251398 1.00019 
-0.000581702 -0.000251398 1.00019 
-0.000581702 -0.000251398 1.00019 
-0.000581702 -0.000251398 1.00019 
-0.000187535 -5.28565e-05 1.00043 
-0.000187535 -5.28565e-05 1.00043 
-0.000187535 -5.28565e-05 1.00043 
-0.000187535 -5.28565e-05 1.00043 
-0.000634581 9.50267e-05 0.999387 
-0.000634581 9.50267e-05 0.999387 
-0.000634581 9.50267e-05 0.999387 
-0.000634581 9.50267e-05 0.999387 
0.00099035 -0.000357726 0.997977 
0.00099035 -0.000357726 0.997977 
0.00099035 -0.000357726 0.997977 
0.00099035 -0.000357726 0.997977 
-0.000432076 -0.00202394 0.988406 
-0.000432076 -0.00202394 0.988406 
-0.000432076 -0.00202394 0.988406 
-0.000432076 -0.00202394 0.988406 
-0.00188992 -0.00196946 0.989856 
-0.00188992 -0.00196946 0.989856 
-0.00188992 -0.00196946 0.989856 
-0.00188992 -0.00196946 0.989856 
7.01441e-05 -5.3246e-06 0.99963 
7.01441e-05 -5.3246e-06 0.99963 
7.01441e-05 -5.3246e-06 0.99963 
7.01441e-05 -5.3246e-06 0.99963 
0.00016154 0.000267035 0.999207 
0.00016154 0.000267035 0.999207 
0.00016154 0.000267035 0.999207 
0.00016154 0.000267035 0.999207 
-0.000197539 -0.000235625 0.999542 
-0.000197539 -0.000235625 0.999542 
-0.000197539 -0.000235625 0.999542 
-0.000197539 -0.000235625 0.999542 
-0.000668062 -0.000606305 0.998446 
-0.000668062 -0.000606305 0.998446 
-0.000668062 -0.000606305 0.998446 
-0.000668062 -0.000606305 0.998446 
-0.000809932 -0.000544432 0.999405 
-0.000809932 -0.000544432 0.999405 
-0.000809932 -0.000544432 0.999405 
-0.000809932 -0.000544432 0.999405 
-0.000433118 -0.000266231 0.999511 
-0.000433118 -0.000266231 0.999511 
-0.000433118 -0.000266231 0.999511 
-0.000433118 -0.000266231 0.999511 
-0.000503746 0.00078353 0.999256 
-0.000503746 0.00078353 0.999256 
-0.000503746 0.00078353 0.999256 
-0.000503746 0.00078353 0.999256 
0.000359668 -2.41319e-06 0.998494 
0.000359668 -2.41319e-06 0.998494 
0.000359668 -2.41319e-06 0.998494 
0.000359668 -2.41319e-06 0.998494 
-0.000142234 0.000556475 0.99902 
-0.000142234 0.000556475 0.99902 
-0.000142234 0.000556475 0.99902 
-0.000142234 0.000556475 0.99902 
-0.000736123 0.000118907 0.999049 
-0.000736123 0.000118907 0.999049 
-0.000736123 0.000118907 0.999049 
-0.000736123 0.000118907 0.999049 
-0.00211514 0.00104049 0.998763 
-0.00211514 0.00104049 0.998763 
-0.00211514 0.00104049 0.998763 
-0.00211514 0.00104049 0.998763 
-0.00226899 0.00066808 0.998622 
-0.00226899 0.00066808 0.998622 
-0.00226899 0.00066808 0.998622 
-0.00226899 0.00066808 0.998622 
4.03716e-05 5.28008e-06 1.00033 
4.03716e-05 5.28008e-06 1.00033 
4.03716e-05 5.28008e-06 1.00033 
4.03716e-05 5.28008e-06 1.00033 
0.00010246 -6.38826e-05 1.00038 
0.00010246 -6.38826e-05 1.00038 
0.00010246 -6.38826e-05 1.00038 
0.00010246 -6.38826e-05 1.00038 
-0.00150144 -0.00108214 0.999015 
-0.00150144 -0.00108214 0.999015 
-0.00150144 -0.00108214 0.999015 
-0.00150144 -0.00108214 0.999015 
-0.000939907 0.000333332 0.997452 
-0.000939907 0.000333332 0.997452 
-0.000939907 0.000333332 0.997452 
-0.000939907 0.000333332 0.997452 
0.000877876 -0.000282243 0.999389 
0.000877876 -0.000282243 0.999389 
0.000877876 -0.000282243 0.999389 
0.000877876 -0.000282243 0.999389 
0.000461216 -0.000174909 0.999609 
0.000461216 -0.000174909 0.999609 
0.000461216 -0.000174909 0.999609 
0.000461216 -0.000174909 0.999609 
