# vtk DataFile Version 3.0
vtk output
ASCII
DATASET UNSTRUCTURED_GRID
POINTS 8576 float
0.114043	0.0943971	0.1	
0.0858783	0.0607949	0.1	
0.0741079	0.088115	0.1	
0.0632975	0.0980676	0	
0.204676	0.0233192	0.1	
0.153315	0.00689278	0.1	
0.160735	0.0621263	0.1	
0.132963	0.044259	0	
-0.0269211	0.0671862	0.1	
0.00442099	0.0829354	0.1	
0	0.045	0.1	
0.0186333	0.101613	0.0479424	
-0.075941	0.18593	0.1	
-0.0880857	0.11829	0	
-0.0278782	0.153479	0.1	
-0.0791922	0.124893	0.1	
-0.0880857	0.11829	0	
-0.0254114	0.106009	0.1	
-0.0278782	0.153479	0.1	
-0.0791922	0.124893	0.1	
0.0741079	0.088115	0.1	
0.0632975	0.0980676	0	
0.0858783	0.0607949	0.1	
0.0396544	0.04868	0.0438187	
0.194544	-0.0323862	0.1	
0.136366	-0.0453365	0.1	
0.153315	0.00689278	0.1	
0.201967	-0.00950962	0	
0.114043	0.0943971	0.1	
0.160735	0.0621263	0.1	
0.114815	0.0394603	0.1	
0.0969794	0.021072	0.0441191	
-0.0269211	0.0671862	0.1	
0	0.045	0.1	
-0.0318198	0.0318198	0.1	
-0.0436673	0.0180876	0.0496986	
0.104819	-0.00331638	0.1	
0.136366	-0.0453365	0.1	
0.0986719	-0.0360043	0.1	
0.0969794	0.021072	0.0441191	
0.0207402	-0.174187	0.1	
-0.0142517	-0.205249	0.1	
-0.0203113	-0.154489	0.1	
0.0279075	-0.16395	0	
0.114043	0.0943971	0.1	
0.0741079	0.088115	0.1	
0.0691478	0.134694	0.1	
0.0632975	0.0980676	0	
-0.0607822	-0.132192	0.1	
-0.109965	-0.155382	0.1	
-0.0529805	-0.19738	0	
-0.0566812	-0.183891	0.1	
-0.0269211	0.0671862	0.1	
-0.0182151	0.0644617	0	
0	0.045	0.1	
-0.0436673	0.0180876	0.0496986	
0.194544	-0.0323862	0.1	
0.183564	-0.0903245	0.1	
0.136366	-0.0453365	0.1	
0.190166	-0.0983881	0	
-0.0607822	-0.132192	0.1	
-0.0529805	-0.19738	0	
-0.0203113	-0.154489	0.1	
-0.0566812	-0.183891	0.1	
0.0986719	-0.0360043	0.1	
0.136366	-0.0453365	0.1	
0.0868431	-0.0680824	0.1	
0.12107	-0.0431928	0	
-0.12308	-0.143942	0	
-0.108753	-0.0943056	0.1	
-0.109965	-0.155382	0.1	
-0.0607822	-0.132192	0.1	
-0.203899	-0.0323666	0.1	
-0.181323	-0.0027565	0	
-0.253293	0.00301969	0.1	
-0.19804	0.0242816	0.1	
-0.0278782	0.153479	0.1	
-0.0758641	0.204419	0	
-0.075941	0.18593	0.1	
-0.0232097	0.208019	0.1	
-0.140177	0.0445127	0.1	
-0.13855	0.104902	0.1	
-0.0949426	0.0752698	0.1	
-0.0733988	0.0716859	0.0422482	
-0.108753	-0.0943056	0.1	
-0.0607822	-0.132192	0.1	
-0.12308	-0.143942	0	
-0.0647576	-0.0686517	0.0541732	
-0.0254114	0.106009	0.1	
-0.0791922	0.124893	0.1	
-0.0880857	0.11829	0	
-0.0733988	0.0716859	0.0422482	
0.114043	0.0943971	0.1	
0.0858783	0.0607949	0.1	
0.0632975	0.0980676	0	
0.0969794	0.021072	0.0441191	
-0.247343	0.061739	0.1	
-0.242461	0.118505	0.1	
-0.296313	0.0995627	0	
-0.29431	0.0991694	0.1	
-0.242461	0.118505	0.1	
-0.191044	0.0809942	0.1	
-0.169647	0.0846842	0	
-0.1869	0.140647	0.1	
0.0783782	0.19473	0.1	
0.0236281	0.174203	0.1	
0.0312955	0.232251	0.1	
0.0750467	0.185499	0	
-0.0791922	0.124893	0.1	
-0.075941	0.18593	0.1	
-0.0880857	0.11829	0	
-0.131315	0.16418	0.1	
0.0139627	0.124614	0.1	
-0.0278782	0.153479	0.1	
0.0236281	0.174203	0.1	
0.0186333	0.101613	0.0479424	
0.130886	-0.100339	0.1	
0.136366	-0.0453365	0.1	
0.183564	-0.0903245	0.1	
0.190166	-0.0983881	0	
0.0691478	0.134694	0.1	
0.0236281	0.174203	0.1	
0.0750467	0.185499	0	
0.0186333	0.101613	0.0479424	
0.240073	-0.0744514	0.1	
0.225509	-0.136032	0.1	
0.26859	-0.0619166	0	
0.287371	-0.120299	0.1	
0.0864603	-0.112342	0.1	
0.0868431	-0.0680824	0.1	
0.130886	-0.100339	0.1	
0.062652	-0.118801	0.041886	
-0.110394	-0.216726	0.1	
-0.12308	-0.143942	0	
-0.16441	-0.183508	0.1	
-0.109965	-0.155382	0.1	
0.251733	-0.014256	0.1	
0.240073	-0.0744514	0.1	
0.194544	-0.0323862	0.1	
0.201967	-0.00950962	0	
-0.160221	-0.122206	0.1	
-0.108753	-0.0943056	0.1	
-0.12308	-0.143942	0	
-0.142279	-0.0393203	0.0487826	
-0.248332	0.050693	0	
-0.191044	0.0809942	0.1	
-0.242461	0.118505	0.1	
-0.247343	0.061739	0.1	
0.204676	0.0233192	0.1	
0.255462	0.038247	0.1	
0.251733	-0.014256	0.1	
0.201967	-0.00950962	0	
-0.0201457	0.00856081	0.1	
0	0.045	0.1	
0.00677135	0.0163475	0.1	
-0.0436673	0.0180876	0.0496986	
-0.0269211	0.0671862	0.1	
0	0.045	0.1	
-0.0182151	0.0644617	0	
0.0186333	0.101613	0.0479424	
-0.203899	-0.0323666	0.1	
-0.19804	0.0242816	0.1	
-0.153293	-0.011499	0.1	
-0.142279	-0.0393203	0.0487826	
-0.00311199	0.32667	0.1	
-0.0730421	0.296762	0	
-0.0135764	0.270208	0.1	
-0.0572929	0.316053	0.1	
0.114043	0.0943971	0.1	
0.0691478	0.134694	0.1	
0.124146	0.156872	0.1	
0.144601	0.131477	0	
-0.00500969	-0.0120945	0.1	
-0.0318198	-0.0318198	0.1	
-0.0201457	0.00856081	0.1	
-0.0436673	0.0180876	0.0496986	
0.12107	-0.0431928	0	
0.130886	-0.100339	0.1	
0.0868431	-0.0680824	0.1	
0.062652	-0.118801	0.041886	
-0.157075	-0.0653284	0.1	
-0.108753	-0.0943056	0.1	
-0.160221	-0.122206	0.1	
-0.142279	-0.0393203	0.0487826	
-0.155635	0.172227	0	
-0.237687	0.180874	0.1	
-0.1869	0.140647	0.1	
-0.175847	0.204716	0.1	
-0.0254114	0.106009	0.1	
-0.0583523	0.0875158	0.1	
-0.0791922	0.124893	0.1	
-0.0733988	0.0716859	0.0422482	
-0.0318198	-0.0318198	0.1	
-0.0712343	-0.0265969	0.1	
-0.045	0	0.1	
-0.088703	-0.0138649	0.0491848	
0.0691478	0.134694	0.1	
0.0236281	0.174203	0.1	
0.0783782	0.19473	0.1	
0.0750467	0.185499	0	
-0.0232097	0.208019	0.1	
-0.0278782	0.153479	0.1	
-0.00652201	0.151895	0	
0.0236281	0.174203	0.1	
0.0312955	0.232251	0.1	
0.0906227	0.254757	0.1	
0.0783782	0.19473	0.1	
0.0750467	0.185499	0	
-0.0254114	0.106009	0.1	
-0.00652201	0.151895	0	
-0.0880857	0.11829	0	
-0.0278782	0.153479	0.1	
0.124146	0.156872	0.1	
0.0691478	0.134694	0.1	
0.0783782	0.19473	0.1	
0.0750467	0.185499	0	
0.130886	-0.100339	0.1	
0.0868431	-0.0680824	0.1	
0.136366	-0.0453365	0.1	
0.12107	-0.0431928	0	
0.0986719	-0.0360043	0.1	
0.12107	-0.0431928	0	
0.0868431	-0.0680824	0.1	
0.0512771	-0.0404658	0.045086	
0.0858783	0.0607949	0.1	
0.114043	0.0943971	0.1	
0.114815	0.0394603	0.1	
0.0969794	0.021072	0.0441191	
-0.110394	-0.216726	0.1	
-0.0529805	-0.19738	0	
-0.109965	-0.155382	0.1	
-0.0566812	-0.183891	0.1	
-0.1869	0.140647	0.1	
-0.13855	0.104902	0.1	
-0.155635	0.172227	0	
-0.131315	0.16418	0.1	
-0.0880857	0.11829	0	
-0.0758641	0.204419	0	
-0.075941	0.18593	0.1	
-0.0278782	0.153479	0.1	
0.153315	0.00689278	0.1	
0.114815	0.0394603	0.1	
0.160735	0.0621263	0.1	
0.0969794	0.021072	0.0441191	
0.124146	0.156872	0.1	
0.0783782	0.19473	0.1	
0.129359	0.208003	0.1	
0.0750467	0.185499	0	
0.204676	0.0233192	0.1	
0.153315	0.00689278	0.1	
0.132963	0.044259	0	
0.201967	-0.00950962	0	
-0.104461	0.000932435	0.1	
-0.140177	0.0445127	0.1	
-0.0944203	0.0353385	0.1	
-0.088703	-0.0138649	0.0491848	
-0.0254114	0.106009	0.1	
-0.0733988	0.0716859	0.0422482	
-0.00652201	0.151895	0	
0.0186333	0.101613	0.0479424	
-0.0269211	0.0671862	0.1	
-0.0318198	0.0318198	0.1	
-0.0611924	0.0535755	0.1	
-0.0436673	0.0180876	0.0496986	
-0.0142517	-0.205249	0.1	
-0.0203113	-0.154489	0.1	
-0.0529805	-0.19738	0	
-0.0566812	-0.183891	0.1	
0.114043	0.0943971	0.1	
0.168985	0.119579	0.1	
0.160735	0.0621263	0.1	
0.144601	0.131477	0	
-0.0142517	-0.205249	0.1	
-0.0529805	-0.19738	0	
-0.0203113	-0.154489	0.1	
0.0279075	-0.16395	0	
0.240073	-0.0744514	0.1	
0.183564	-0.0903245	0.1	
0.194544	-0.0323862	0.1	
0.190166	-0.0983881	0	
-0.0880857	0.11829	0	
-0.13855	0.104902	0.1	
-0.0791922	0.124893	0.1	
-0.131315	0.16418	0.1	
-0.0278782	0.153479	0.1	
-0.0254114	0.106009	0.1	
-0.00652201	0.151895	0	
0.0186333	0.101613	0.0479424	
0.0207402	-0.174187	0.1	
0.0587245	-0.143156	0.1	
0.0725059	-0.197526	0.1	
0.062652	-0.118801	0.041886	
0.104819	-0.00331638	0.1	
0.153315	0.00689278	0.1	
0.136366	-0.0453365	0.1	
0.0969794	0.021072	0.0441191	
-0.0674604	0.249371	0.1	
-0.0135764	0.270208	0.1	
-0.0232097	0.208019	0.1	
0.00604814	0.236488	0	
0.129359	0.208003	0.1	
0.0783782	0.19473	0.1	
0.0906227	0.254757	0.1	
0.0750467	0.185499	0	
0.124146	0.156872	0.1	
0.129359	0.208003	0.1	
0.179715	0.179275	0.1	
0.154944	0.223937	0	
-0.258057	-0.0572365	0.1	
-0.256491	-0.0362829	0	
-0.203899	-0.0323666	0.1	
-0.209136	-0.0909343	0.1	
0	-0.045	0.1	
0.0401753	-0.0586342	0.1	
0.00728726	-0.0832273	0.1	
-0.0200153	-0.0483211	0.048598	
-0.0583523	0.0875158	0.1	
-0.0254114	0.106009	0.1	
-0.0269211	0.0671862	0.1	
-0.0733988	0.0716859	0.0422482	
-0.140177	0.0445127	0.1	
-0.191044	0.0809942	0.1	
-0.169647	0.0846842	0	
-0.19804	0.0242816	0.1	
0.0741079	0.088115	0.1	
0.0858783	0.0607949	0.1	
0.0550025	0.059172	0.1	
0.0396544	0.04868	0.0438187	
-0.248332	0.050693	0	
-0.191044	0.0809942	0.1	
-0.247343	0.061739	0.1	
-0.19804	0.0242816	0.1	
-0.0538392	-0.0535857	0.1	
-0.0712343	-0.0265969	0.1	
-0.0318198	-0.0318198	0.1	
-0.0647576	-0.0686517	0.0541732	
-0.0415815	-0.110392	0	
-0.0607822	-0.132192	0.1	
-0.0203113	-0.154489	0.1	
0.00260765	-0.105267	0.0427151	
-0.075941	0.18593	0.1	
-0.121547	0.224354	0.1	
-0.0758641	0.204419	0	
-0.131315	0.16418	0.1	
-0.109965	-0.155382	0.1	
-0.0529805	-0.19738	0	
-0.12308	-0.143942	0	
-0.0607822	-0.132192	0.1	
0.0279075	-0.16395	0	
0.0725059	-0.197526	0.1	
0.0207402	-0.174187	0.1	
0.0204871	-0.24099	0.1	
-0.296313	0.0995627	0	
-0.247343	0.061739	0.1	
-0.29431	0.0991694	0.1	
-0.304909	0.0444641	0.1	
0	0.045	0.1	
0.0318198	0.0318198	0.1	
0.00677135	0.0163475	0.1	
0.0396544	0.04868	0.0438187	
0.153315	0.00689278	0.1	
0.204676	0.0233192	0.1	
0.194544	-0.0323862	0.1	
0.201967	-0.00950962	0	
-0.0203113	-0.154489	0.1	
-0.0415815	-0.110392	0	
-0.0529805	-0.19738	0	
-0.0607822	-0.132192	0.1	
-0.121547	0.224354	0.1	
-0.138104	0.243902	0	
-0.116127	0.293072	0.1	
-0.0674604	0.249371	0.1	
0.12107	-0.0431928	0	
0.153315	0.00689278	0.1	
0.136366	-0.0453365	0.1	
0.201967	-0.00950962	0	
-0.0201457	0.00856081	0.1	
-0.0318198	0.0318198	0.1	
0	0.045	0.1	
-0.0436673	0.0180876	0.0496986	
-0.0659287	-0.28985	0	
-0.111587	-0.287654	0.1	
-0.0496677	-0.250381	0.1	
-0.110394	-0.216726	0.1	
0.0858783	0.0607949	0.1	
0.0396544	0.04868	0.0438187	
0.0632975	0.0980676	0	
0.0969794	0.021072	0.0441191	
-0.0269211	0.0671862	0.1	
-0.0733988	0.0716859	0.0422482	
-0.0254114	0.106009	0.1	
0.0186333	0.101613	0.0479424	
-0.0201457	0.00856081	0.1	
-0.0318198	-0.0318198	0.1	
-0.045	0	0.1	
-0.0436673	0.0180876	0.0496986	
-0.108753	-0.0943056	0.1	
-0.160221	-0.122206	0.1	
-0.12308	-0.143942	0	
-0.109965	-0.155382	0.1	
-0.0203113	-0.154489	0.1	
-0.0607822	-0.132192	0.1	
-0.0251864	-0.106886	0.1	
0.00260765	-0.105267	0.0427151	
0.230865	0.135658	0.1	
0.168985	0.119579	0.1	
0.179715	0.179275	0.1	
0.237285	0.176133	0	
0.0312955	0.232251	0.1	
0.0236281	0.174203	0.1	
-0.0232097	0.208019	0.1	
0.00604814	0.236488	0	
0.387235	0.0357483	0.1	
0.45	0	0.05	
0.374822	-0.0324999	0.1	
0.384421	-0.0378621	0	
-0.0611924	0.0535755	0.1	
-0.0606984	0.0243229	0.1	
-0.0944203	0.0353385	0.1	
-0.0733988	0.0716859	0.0422482	
-0.269145	-0.181189	0.1	
-0.265692	-0.195501	0	
-0.217835	-0.151685	0.1	
-0.225546	-0.215121	0.1	
0.154944	0.223937	0	
0.124146	0.156872	0.1	
0.129359	0.208003	0.1	
0.0750467	0.185499	0	
0.160735	0.0621263	0.1	
0.204676	0.0233192	0.1	
0.132963	0.044259	0	
0.213357	0.0766959	0	
-0.0358979	0.379949	0.1	
-0.0339688	0.375665	0	
0	0.45	0.05	
0.0381609	0.387454	0	
-0.0758641	0.204419	0	
-0.0880857	0.11829	0	
-0.075941	0.18593	0.1	
-0.131315	0.16418	0.1	
-0.0278782	0.153479	0.1	
-0.00652201	0.151895	0	
-0.0758641	0.204419	0	
-0.0232097	0.208019	0.1	
-0.256491	-0.0362829	0	
-0.203899	-0.0323666	0.1	
-0.181323	-0.0027565	0	
-0.253293	0.00301969	0.1	
-0.110394	-0.216726	0.1	
-0.0529805	-0.19738	0	
-0.12308	-0.143942	0	
-0.109965	-0.155382	0.1	
0.201967	-0.00950962	0	
0.240073	-0.0744514	0.1	
0.194544	-0.0323862	0.1	
0.190166	-0.0983881	0	
-0.242461	0.118505	0.1	
-0.300257	0.152847	0.1	
-0.296313	0.0995627	0	
-0.29431	0.0991694	0.1	
-0.16441	-0.183508	0.1	
-0.12308	-0.143942	0	
-0.160221	-0.122206	0.1	
-0.109965	-0.155382	0.1	
-0.00652201	0.151895	0	
-0.0254114	0.106009	0.1	
-0.0880857	0.11829	0	
-0.0733988	0.0716859	0.0422482	
0.110168	-0.152489	0.1	
0.0864603	-0.112342	0.1	
0.130886	-0.100339	0.1	
0.062652	-0.118801	0.041886	
0	-0.045	0.1	
-0.00500969	-0.0120945	0.1	
0.0202986	-0.00819178	0.1	
0.0060848	-2.90377e-05	0.0422367	
-0.0251864	-0.106886	0.1	
0.00260765	-0.105267	0.0427151	
-0.0607822	-0.132192	0.1	
-0.0647576	-0.0686517	0.0541732	
-0.13855	0.104902	0.1	
-0.0880857	0.11829	0	
-0.155635	0.172227	0	
-0.131315	0.16418	0.1	
-0.0737761	0.00176994	0.1	
-0.0944203	0.0353385	0.1	
-0.0606984	0.0243229	0.1	
-0.088703	-0.0138649	0.0491848	
0.153315	0.00689278	0.1	
0.12107	-0.0431928	0	
0.136366	-0.0453365	0.1	
0.0969794	0.021072	0.0441191	
-0.140177	0.0445127	0.1	
-0.169647	0.0846842	0	
-0.13855	0.104902	0.1	
-0.0733988	0.0716859	0.0422482	
0.0714224	0.0228299	0.1	
0.0662467	-0.0253248	0.1	
0.045	0	0.1	
0.0969794	0.021072	0.0441191	
0.0986719	-0.0360043	0.1	
0.0662467	-0.0253248	0.1	
0.104819	-0.00331638	0.1	
0.0969794	0.021072	0.0441191	
0.0450774	0.367889	0.1	
-0.0358979	0.379949	0.1	
0	0.45	0.05	
0.0381609	0.387454	0	
-0.0997698	0.0308567	0	
-0.0944203	0.0353385	0.1	
-0.140177	0.0445127	0.1	
-0.088703	-0.0138649	0.0491848	
-0.275518	-0.12132	0	
-0.217835	-0.151685	0.1	
-0.279108	-0.122562	0.1	
-0.269145	-0.181189	0.1	
-0.140177	0.0445127	0.1	
-0.0949426	0.0752698	0.1	
-0.0944203	0.0353385	0.1	
-0.0733988	0.0716859	0.0422482	
0.136366	-0.0453365	0.1	
0.130886	-0.100339	0.1	
0.12107	-0.0431928	0	
0.190166	-0.0983881	0	
0.136366	-0.0453365	0.1	
0.12107	-0.0431928	0	
0.0986719	-0.0360043	0.1	
0.0969794	0.021072	0.0441191	
-0.217835	-0.151685	0.1	
-0.160221	-0.122206	0.1	
-0.190622	-0.0884834	0	
-0.209136	-0.0909343	0.1	
0.240073	-0.0744514	0.1	
0.26859	-0.0619166	0	
0.225509	-0.136032	0.1	
0.190166	-0.0983881	0	
0.0691478	0.134694	0.1	
0.124146	0.156872	0.1	
0.144601	0.131477	0	
0.0750467	0.185499	0	
-0.0997698	0.0308567	0	
-0.088703	-0.0138649	0.0491848	
-0.140177	0.0445127	0.1	
-0.142279	-0.0393203	0.0487826	
0.0318198	0.0318198	0.1	
0.0202986	-0.00819178	0.1	
0.00677135	0.0163475	0.1	
0.0060848	-2.90377e-05	0.0422367	
0.45	0	0.05	
0.387235	0.0357483	0.1	
0.363227	0.0380543	0	
0.384421	-0.0378621	0	
-0.275518	-0.12132	0	
-0.265692	-0.195501	0	
-0.217835	-0.151685	0.1	
-0.269145	-0.181189	0.1	
0.110168	-0.152489	0.1	
0.0922363	-0.215793	0	
0.0725059	-0.197526	0.1	
0.062652	-0.118801	0.041886	
0.0401753	-0.0586342	0.1	
0.0488551	-0.0983509	0.1	
0.00728726	-0.0832273	0.1	
0.00260765	-0.105267	0.0427151	
0.130886	-0.100339	0.1	
0.183564	-0.0903245	0.1	
0.168154	-0.150165	0.1	
0.190166	-0.0983881	0	
0.153315	0.00689278	0.1	
0.201967	-0.00950962	0	
0.12107	-0.0431928	0	
0.0969794	0.021072	0.0441191	
-0.29431	0.0991694	0.1	
-0.355442	0.107822	0.1	
-0.296313	0.0995627	0	
-0.304909	0.0444641	0.1	
0.0236281	0.174203	0.1	
0.0691478	0.134694	0.1	
0.0139627	0.124614	0.1	
0.0186333	0.101613	0.0479424	
0.255462	0.038247	0.1	
0.204676	0.0233192	0.1	
0.213357	0.0766959	0	
0.201967	-0.00950962	0	
-0.0997698	0.0308567	0	
-0.140177	0.0445127	0.1	
-0.0944203	0.0353385	0.1	
-0.0733988	0.0716859	0.0422482	
-0.253293	0.00301969	0.1	
-0.256491	-0.0362829	0	
-0.203899	-0.0323666	0.1	
-0.258057	-0.0572365	0.1	
-0.389559	0.0336032	0	
-0.45	0	0.05	
-0.379429	-0.0366192	0	
-0.372975	0.0289182	0.1	
-0.16441	-0.183508	0.1	
-0.201609	-0.173762	0	
-0.170075	-0.251953	0.1	
-0.225546	-0.215121	0.1	
0.045	0	0.1	
0.0318198	-0.0318198	0.1	
0.0202986	-0.00819178	0.1	
0.0512771	-0.0404658	0.045086	
0.0142935	-0.12453	0.1	
0.0207402	-0.174187	0.1	
-0.0203113	-0.154489	0.1	
0.00260765	-0.105267	0.0427151	
0.216596	0.0778377	0.1	
0.160735	0.0621263	0.1	
0.168985	0.119579	0.1	
0.213357	0.0766959	0	
-0.12308	-0.143942	0	
-0.0607822	-0.132192	0.1	
-0.0415815	-0.110392	0	
-0.0647576	-0.0686517	0.0541732	
0.0741079	0.088115	0.1	
0.0691478	0.134694	0.1	
0.0632975	0.0980676	0	
0.0186333	0.101613	0.0479424	
0.082636	-0.254415	0.1	
0.0725059	-0.197526	0.1	
0.0922363	-0.215793	0	
0.0204871	-0.24099	0.1	
-0.169647	0.0846842	0	
-0.181323	-0.0027565	0	
-0.140177	0.0445127	0.1	
-0.19804	0.0242816	0.1	
0.204676	0.0233192	0.1	
0.160735	0.0621263	0.1	
0.216596	0.0778377	0.1	
0.213357	0.0766959	0	
-0.0135764	0.270208	0.1	
0.0447484	0.293988	0.1	
0.0312955	0.232251	0.1	
0.00604814	0.236488	0	
0.114043	0.0943971	0.1	
0.132963	0.044259	0	
0.160735	0.0621263	0.1	
0.0969794	0.021072	0.0441191	
-0.248332	0.050693	0	
-0.247343	0.061739	0.1	
-0.253293	0.00301969	0.1	
-0.19804	0.0242816	0.1	
-0.0529805	-0.19738	0	
-0.0203113	-0.154489	0.1	
0.0279075	-0.16395	0	
0.00260765	-0.105267	0.0427151	
0.144601	0.131477	0	
0.114043	0.0943971	0.1	
0.0691478	0.134694	0.1	
0.0632975	0.0980676	0	
-0.312956	-0.0762135	0.1	
-0.275518	-0.12132	0	
-0.318623	-0.0616012	0	
-0.258057	-0.0572365	0.1	
-0.131315	0.16418	0.1	
-0.121547	0.224354	0.1	
-0.155635	0.172227	0	
-0.175847	0.204716	0.1	
0.251733	-0.014256	0.1	
0.255462	0.038247	0.1	
0.281012	0.0229437	0	
0.201967	-0.00950962	0	
-0.191044	0.0809942	0.1	
-0.169647	0.0846842	0	
-0.248332	0.050693	0	
-0.242461	0.118505	0.1	
-0.203899	-0.0323666	0.1	
-0.157075	-0.0653284	0.1	
-0.209136	-0.0909343	0.1	
-0.142279	-0.0393203	0.0487826	
-0.0232097	0.208019	0.1	
-0.0758641	0.204419	0	
-0.075941	0.18593	0.1	
-0.0674604	0.249371	0.1	
0.153315	0.00689278	0.1	
0.160735	0.0621263	0.1	
0.132963	0.044259	0	
0.0969794	0.021072	0.0441191	
0.204676	0.0233192	0.1	
0.251733	-0.014256	0.1	
0.194544	-0.0323862	0.1	
0.201967	-0.00950962	0	
0.211584	-0.20097	0.1	
0.268615	-0.174062	0.1	
0.287124	-0.235637	0.1	
0.216652	-0.249073	0	
-0.0182151	0.0644617	0	
0.0396544	0.04868	0.0438187	
0	0.045	0.1	
-0.0436673	0.0180876	0.0496986	
0.183564	-0.0903245	0.1	
0.240073	-0.0744514	0.1	
0.225509	-0.136032	0.1	
0.190166	-0.0983881	0	
0.045	0	0.1	
0.0318198	0.0318198	0.1	
0.0714224	0.0228299	0.1	
0.0396544	0.04868	0.0438187	
0.00604814	0.236488	0	
0.0312955	0.232251	0.1	
0.0236281	0.174203	0.1	
0.0750467	0.185499	0	
-0.237687	0.180874	0.1	
-0.155635	0.172227	0	
-0.207714	0.236511	0	
-0.175847	0.204716	0.1	
-0.0339688	0.375665	0	
-0.0730421	0.296762	0	
-0.00311199	0.32667	0.1	
-0.0572929	0.316053	0.1	
-0.0254114	0.106009	0.1	
0.00442099	0.0829354	0.1	
-0.0269211	0.0671862	0.1	
0.0186333	0.101613	0.0479424	
-0.0529805	-0.19738	0	
-0.0415815	-0.110392	0	
-0.0203113	-0.154489	0.1	
0.00260765	-0.105267	0.0427151	
0.160735	0.0621263	0.1	
0.114043	0.0943971	0.1	
0.144601	0.131477	0	
0.132963	0.044259	0	
-0.0949426	0.0752698	0.1	
-0.13855	0.104902	0.1	
-0.0791922	0.124893	0.1	
-0.0733988	0.0716859	0.0422482	
-0.169647	0.0846842	0	
-0.191044	0.0809942	0.1	
-0.13855	0.104902	0.1	
-0.1869	0.140647	0.1	
-0.275518	-0.12132	0	
-0.279108	-0.122562	0.1	
-0.217835	-0.151685	0.1	
-0.209136	-0.0909343	0.1	
-0.312659	-0.0214623	0.1	
-0.312956	-0.0762135	0.1	
-0.318623	-0.0616012	0	
-0.258057	-0.0572365	0.1	
0.132963	0.044259	0	
0.201967	-0.00950962	0	
0.153315	0.00689278	0.1	
0.0969794	0.021072	0.0441191	
-0.275518	-0.12132	0	
-0.312956	-0.0762135	0.1	
-0.279108	-0.122562	0.1	
-0.258057	-0.0572365	0.1	
-0.253293	0.00301969	0.1	
-0.181323	-0.0027565	0	
-0.248332	0.050693	0	
-0.19804	0.0242816	0.1	
-0.00652201	0.151895	0	
0.0750467	0.185499	0	
0.0236281	0.174203	0.1	
0.0186333	0.101613	0.0479424	
0.304312	0.234791	0.1	
0.294509	0.157311	0.1	
0.238182	0.208514	0.1	
0.297412	0.240191	0	
0.0207402	-0.174187	0.1	
0.0279075	-0.16395	0	
-0.0203113	-0.154489	0.1	
0.00260765	-0.105267	0.0427151	
0.331486	-0.177371	0.1	
0.339399	-0.183579	0	
0.287124	-0.235637	0.1	
0.268615	-0.174062	0.1	
0.12107	-0.0431928	0	
0.0868431	-0.0680824	0.1	
0.0512771	-0.0404658	0.045086	
0.062652	-0.118801	0.041886	
-0.279108	-0.122562	0.1	
-0.275518	-0.12132	0	
-0.258057	-0.0572365	0.1	
-0.209136	-0.0909343	0.1	
-0.0572929	0.316053	0.1	
-0.0339688	0.375665	0	
-0.108028	0.370407	0	
-0.10824	0.362258	0.1	
0.0405437	0.0931998	0.1	
0.0741079	0.088115	0.1	
0.0550025	0.059172	0.1	
0.0396544	0.04868	0.0438187	
0.110168	-0.152489	0.1	
0.130886	-0.100339	0.1	
0.168154	-0.150165	0.1	
0.108307	-0.130924	0	
0.045	0	0.1	
0.0202986	-0.00819178	0.1	
0.0318198	0.0318198	0.1	
0.0060848	-2.90377e-05	0.0422367	
0.044217	-0.387842	0.1	
0	-0.45	0.05	
-0.0276628	-0.367444	0.1	
0.0404591	-0.377182	0	
-0.0135764	0.270208	0.1	
-0.0730421	0.296762	0	
-0.00311199	0.32667	0.1	
0.0210919	0.316201	0	
-0.175847	0.204716	0.1	
-0.121547	0.224354	0.1	
-0.138104	0.243902	0	
-0.161049	0.262379	0.1	
-0.00311199	0.32667	0.1	
-0.0358979	0.379949	0.1	
-0.0339688	0.375665	0	
-0.0572929	0.316053	0.1	
0.0236281	0.174203	0.1	
-0.00652201	0.151895	0	
-0.0232097	0.208019	0.1	
0.00604814	0.236488	0	
0.0318198	-0.0318198	0.1	
0.0401753	-0.0586342	0.1	
0	-0.045	0.1	
0.0512771	-0.0404658	0.045086	
-0.217835	-0.151685	0.1	
-0.190622	-0.0884834	0	
-0.275518	-0.12132	0	
-0.209136	-0.0909343	0.1	
0.268615	-0.174062	0.1	
0.339399	-0.183579	0	
0.287124	-0.235637	0.1	
0.29265	-0.244884	0	
-0.0619298	-0.0870419	0.1	
-0.0251864	-0.106886	0.1	
-0.0607822	-0.132192	0.1	
-0.0647576	-0.0686517	0.0541732	
0.0858783	0.0607949	0.1	
0.0714224	0.0228299	0.1	
0.0550025	0.059172	0.1	
0.0396544	0.04868	0.0438187	
0.174426	-0.185564	0	
0.138545	-0.218367	0.1	
0.110168	-0.152489	0.1	
0.0922363	-0.215793	0	
-0.0758641	0.204419	0	
-0.0880857	0.11829	0	
-0.00652201	0.151895	0	
-0.0278782	0.153479	0.1	
0.255462	0.038247	0.1	
0.204676	0.0233192	0.1	
0.216596	0.0778377	0.1	
0.213357	0.0766959	0	
-0.190622	-0.0884834	0	
-0.160221	-0.122206	0.1	
-0.12308	-0.143942	0	
-0.142279	-0.0393203	0.0487826	
-0.169647	0.0846842	0	
-0.244028	0.149971	0	
-0.242461	0.118505	0.1	
-0.1869	0.140647	0.1	
-0.0572929	0.316053	0.1	
-0.0358979	0.379949	0.1	
-0.0339688	0.375665	0	
-0.10824	0.362258	0.1	
0.0725059	-0.197526	0.1	
0.110168	-0.152489	0.1	
0.138545	-0.218367	0.1	
0.0922363	-0.215793	0	
-0.0318198	-0.0318198	0.1	
-0.045	0	0.1	
-0.0436673	0.0180876	0.0496986	
-0.088703	-0.0138649	0.0491848	
-0.298599	-0.245054	0	
-0.265692	-0.195501	0	
-0.29175	-0.237189	0.1	
-0.225546	-0.215121	0.1	
-0.0496677	-0.250381	0.1	
-0.0529805	-0.19738	0	
-0.110394	-0.216726	0.1	
-0.0566812	-0.183891	0.1	
-0.217835	-0.151685	0.1	
-0.201609	-0.173762	0	
-0.160221	-0.122206	0.1	
-0.16441	-0.183508	0.1	
0.230865	0.135658	0.1	
0.287454	0.0808414	0.1	
0.216596	0.0778377	0.1	
0.213357	0.0766959	0	
-0.256491	-0.0362829	0	
-0.190622	-0.0884834	0	
-0.203899	-0.0323666	0.1	
-0.209136	-0.0909343	0.1	
-0.13855	0.104902	0.1	
-0.155635	0.172227	0	
-0.169647	0.0846842	0	
-0.1869	0.140647	0.1	
-0.356724	-0.11546	0.1	
-0.312956	-0.0762135	0.1	
-0.279108	-0.122562	0.1	
-0.275518	-0.12132	0	
0.0741079	0.088115	0.1	
0.0405437	0.0931998	0.1	
0.0691478	0.134694	0.1	
0.0186333	0.101613	0.0479424	
-0.296313	0.0995627	0	
-0.248332	0.050693	0	
-0.242461	0.118505	0.1	
-0.247343	0.061739	0.1	
-0.0674604	0.249371	0.1	
-0.0232097	0.208019	0.1	
-0.0758641	0.204419	0	
0.00604814	0.236488	0	
0.110168	-0.152489	0.1	
0.168154	-0.150165	0.1	
0.138545	-0.218367	0.1	
0.174426	-0.185564	0	
-0.0496677	-0.250381	0.1	
-0.0529805	-0.19738	0	
-0.0142517	-0.205249	0.1	
0.0148093	-0.246449	0	
0.0906227	0.254757	0.1	
0.0312955	0.232251	0.1	
0.0872949	0.269115	0	
0.0750467	0.185499	0	
-0.13855	0.104902	0.1	
-0.191044	0.0809942	0.1	
-0.169647	0.0846842	0	
-0.140177	0.0445127	0.1	
-0.111446	-0.0565624	0	
-0.108753	-0.0943056	0.1	
-0.12308	-0.143942	0	
-0.0647576	-0.0686517	0.0541732	
0	0.045	0.1	
0.0060848	-2.90377e-05	0.0422367	
0.00677135	0.0163475	0.1	
-0.0436673	0.0180876	0.0496986	
0.216596	0.0778377	0.1	
0.287454	0.0808414	0.1	
0.255462	0.038247	0.1	
0.213357	0.0766959	0	
-0.12308	-0.143942	0	
-0.108753	-0.0943056	0.1	
-0.111446	-0.0565624	0	
-0.142279	-0.0393203	0.0487826	
-0.269145	-0.181189	0.1	
-0.279108	-0.122562	0.1	
-0.327578	-0.175094	0	
-0.331484	-0.17939	0.1	
-0.00652201	0.151895	0	
0.0236281	0.174203	0.1	
-0.0278782	0.153479	0.1	
0.0186333	0.101613	0.0479424	
-0.0674604	0.249371	0.1	
-0.0135764	0.270208	0.1	
-0.0730421	0.296762	0	
-0.0572929	0.316053	0.1	
0	0.045	0.1	
0.0396544	0.04868	0.0438187	
0.0060848	-2.90377e-05	0.0422367	
-0.0436673	0.0180876	0.0496986	
-0.121547	0.224354	0.1	
-0.155635	0.172227	0	
-0.0758641	0.204419	0	
-0.131315	0.16418	0.1	
-0.0880857	0.11829	0	
-0.0791922	0.124893	0.1	
-0.13855	0.104902	0.1	
-0.0733988	0.0716859	0.0422482	
-0.0997698	0.0308567	0	
-0.140177	0.0445127	0.1	
-0.181323	-0.0027565	0	
-0.142279	-0.0393203	0.0487826	
0.190166	-0.0983881	0	
0.168154	-0.150165	0.1	
0.130886	-0.100339	0.1	
0.108307	-0.130924	0	
-0.0529805	-0.19738	0	
-0.0496677	-0.250381	0.1	
-0.0142517	-0.205249	0.1	
-0.0566812	-0.183891	0.1	
-0.131315	0.16418	0.1	
-0.155635	0.172227	0	
-0.1869	0.140647	0.1	
-0.175847	0.204716	0.1	
-0.0619298	-0.0870419	0.1	
-0.0607822	-0.132192	0.1	
-0.108753	-0.0943056	0.1	
-0.0647576	-0.0686517	0.0541732	
0.285475	0.347856	0.0500185	
0.245754	0.289669	0.1	
0.180378	0.336857	0.1	
0.18581	0.349201	0	
0.045	0	0.1	
0.0396544	0.04868	0.0438187	
0.0714224	0.0228299	0.1	
0.0969794	0.021072	0.0441191	
0.0148093	-0.246449	0	
-0.0142517	-0.205249	0.1	
-0.0496677	-0.250381	0.1	
0.0204871	-0.24099	0.1	
-0.121547	0.224354	0.1	
-0.0758641	0.204419	0	
-0.138104	0.243902	0	
-0.0674604	0.249371	0.1	
0.045	0	0.1	
0.0060848	-2.90377e-05	0.0422367	
0.0396544	0.04868	0.0438187	
0.0512771	-0.0404658	0.045086	
0.0447484	0.293988	0.1	
0.0906227	0.254757	0.1	
0.0312955	0.232251	0.1	
0.0872949	0.269115	0	
0.114043	0.0943971	0.1	
0.0632975	0.0980676	0	
0.132963	0.044259	0	
0.0969794	0.021072	0.0441191	
-0.0758641	0.204419	0	
-0.121547	0.224354	0.1	
-0.075941	0.18593	0.1	
-0.0674604	0.249371	0.1	
0.0750467	0.185499	0	
0.0632975	0.0980676	0	
0.0691478	0.134694	0.1	
0.0186333	0.101613	0.0479424	
-0.121547	0.224354	0.1	
-0.116127	0.293072	0.1	
-0.138104	0.243902	0	
-0.161049	0.262379	0.1	
0.261818	-0.161797	0	
0.26859	-0.0619166	0	
0.225509	-0.136032	0.1	
0.287371	-0.120299	0.1	
-0.00500969	-0.0120945	0.1	
-0.0318198	-0.0318198	0.1	
-0.0436673	0.0180876	0.0496986	
-0.0200153	-0.0483211	0.048598	
0.0587245	-0.143156	0.1	
0.110168	-0.152489	0.1	
0.0725059	-0.197526	0.1	
0.062652	-0.118801	0.041886	
-0.0730421	0.296762	0	
-0.0135764	0.270208	0.1	
-0.0674604	0.249371	0.1	
0.00604814	0.236488	0	
0	0.045	0.1	
0.0396544	0.04868	0.0438187	
-0.0182151	0.0644617	0	
0.0186333	0.101613	0.0479424	
-0.237687	0.180874	0.1	
-0.244028	0.149971	0	
-0.155635	0.172227	0	
-0.1869	0.140647	0.1	
0.446786	-0.053688	0.0499938	
0.357114	-0.107098	0.1	
0.384421	-0.0378621	0	
0.430623	-0.130628	0.049953	
0.225509	-0.136032	0.1	
0.211584	-0.20097	0.1	
0.168154	-0.150165	0.1	
0.174426	-0.185564	0	
0.0447484	0.293988	0.1	
-0.0135764	0.270208	0.1	
-0.00311199	0.32667	0.1	
0.0210919	0.316201	0	
0.369533	0.112832	0	
0.446786	0.053688	0.0500062	
0.387235	0.0357483	0.1	
0.363227	0.0380543	0	
-0.108028	0.370407	0	
-0.130628	0.430623	0.050047	
-0.212129	0.396865	0.0500166	
-0.10824	0.362258	0.1	
-0.248332	0.050693	0	
-0.169647	0.0846842	0	
-0.191044	0.0809942	0.1	
-0.19804	0.0242816	0.1	
-0.275518	-0.12132	0	
-0.279108	-0.122562	0.1	
-0.327578	-0.175094	0	
-0.269145	-0.181189	0.1	
0.238182	0.208514	0.1	
0.179715	0.179275	0.1	
0.173936	0.254382	0.1	
0.154944	0.223937	0	
0.213357	0.0766959	0	
0.287454	0.0808414	0.1	
0.255462	0.038247	0.1	
0.281012	0.0229437	0	
0.0986719	-0.0360043	0.1	
0.12107	-0.0431928	0	
0.0512771	-0.0404658	0.045086	
0.0969794	0.021072	0.0441191	
0.261818	-0.161797	0	
0.268615	-0.174062	0.1	
0.211584	-0.20097	0.1	
0.216652	-0.249073	0	
0.225509	-0.136032	0.1	
0.168154	-0.150165	0.1	
0.183564	-0.0903245	0.1	
0.190166	-0.0983881	0	
0.225509	-0.136032	0.1	
0.168154	-0.150165	0.1	
0.190166	-0.0983881	0	
0.174426	-0.185564	0	
0.144601	0.131477	0	
0.168985	0.119579	0.1	
0.160735	0.0621263	0.1	
0.213357	0.0766959	0	
-0.0232097	0.208019	0.1	
-0.0135764	0.270208	0.1	
0.0312955	0.232251	0.1	
0.00604814	0.236488	0	
0.168985	0.119579	0.1	
0.230865	0.135658	0.1	
0.216596	0.0778377	0.1	
0.213357	0.0766959	0	
0.0381609	0.387454	0	
-0.00311199	0.32667	0.1	
-0.0339688	0.375665	0	
0.0210919	0.316201	0	
-0.45	0	0.05	
-0.373197	-0.0467972	0.1	
-0.379429	-0.0366192	0	
-0.372975	0.0289182	0.1	
-0.190622	-0.0884834	0	
-0.181323	-0.0027565	0	
-0.203899	-0.0323666	0.1	
-0.142279	-0.0393203	0.0487826	
0.0872949	0.269115	0	
0.0312955	0.232251	0.1	
0.0447484	0.293988	0.1	
0.00604814	0.236488	0	
-0.253293	0.00301969	0.1	
-0.312659	-0.0214623	0.1	
-0.256491	-0.0362829	0	
-0.258057	-0.0572365	0.1	
-0.160221	-0.122206	0.1	
-0.190622	-0.0884834	0	
-0.201609	-0.173762	0	
-0.217835	-0.151685	0.1	
0.240073	-0.0744514	0.1	
0.251733	-0.014256	0.1	
0.26859	-0.0619166	0	
0.201967	-0.00950962	0	
0.12107	-0.0431928	0	
0.108307	-0.130924	0	
0.130886	-0.100339	0.1	
0.062652	-0.118801	0.041886	
-0.300257	0.152847	0.1	
-0.355442	0.107822	0.1	
-0.296313	0.0995627	0	
-0.29431	0.0991694	0.1	
0.155004	0.296903	0	
0.173936	0.254382	0.1	
0.0906227	0.254757	0.1	
0.154944	0.223937	0	
-0.181323	-0.0027565	0	
-0.19804	0.0242816	0.1	
-0.203899	-0.0323666	0.1	
-0.142279	-0.0393203	0.0487826	
-0.312659	-0.0214623	0.1	
-0.256491	-0.0362829	0	
-0.320541	0.0201981	0	
-0.253293	0.00301969	0.1	
0.130628	-0.430623	0.050047	
0.111895	-0.372646	0	
0.109857	-0.362973	0.1	
0.212129	-0.396865	0.0500047	
0.144601	0.131477	0	
0.179715	0.179275	0.1	
0.168985	0.119579	0.1	
0.237285	0.176133	0	
-0.0415815	-0.110392	0	
-0.12308	-0.143942	0	
-0.0529805	-0.19738	0	
-0.0607822	-0.132192	0.1	
0	-0.45	0.05	
-0.0383965	-0.372403	0	
-0.0276628	-0.367444	0.1	
0.0404591	-0.377182	0	
-0.0659287	-0.28985	0	
-0.133674	-0.228308	0	
-0.111587	-0.287654	0.1	
-0.110394	-0.216726	0.1	
-0.318623	-0.0616012	0	
-0.275518	-0.12132	0	
-0.312956	-0.0762135	0.1	
-0.365881	-0.111705	0	
-0.12308	-0.143942	0	
-0.133674	-0.228308	0	
-0.110394	-0.216726	0.1	
-0.16441	-0.183508	0.1	
-0.237687	0.180874	0.1	
-0.287124	0.235637	0	
-0.300257	0.152847	0.1	
-0.292926	0.235471	0.1	
-0.0182151	0.0644617	0	
-0.0436673	0.0180876	0.0496986	
-0.0269211	0.0671862	0.1	
-0.0733988	0.0716859	0.0422482	
0.0922363	-0.215793	0	
0.138545	-0.218367	0.1	
0.082636	-0.254415	0.1	
0.147007	-0.259035	0	
0	0.045	0.1	
0.00677135	0.0163475	0.1	
0.0060848	-2.90377e-05	0.0422367	
0.0396544	0.04868	0.0438187	
-0.0269211	0.0671862	0.1	
-0.0611924	0.0535755	0.1	
-0.0583523	0.0875158	0.1	
-0.0733988	0.0716859	0.0422482	
0.0148093	-0.246449	0	
0.082636	-0.254415	0.1	
0.0204871	-0.24099	0.1	
0.0511003	-0.317442	0.1	
0.0986719	-0.0360043	0.1	
0.0512771	-0.0404658	0.045086	
0.0662467	-0.0253248	0.1	
0.0969794	0.021072	0.0441191	
0.384421	-0.0378621	0	
0.374822	-0.0324999	0.1	
0.357114	-0.107098	0.1	
0.446786	-0.053688	0.0499938	
-0.212129	0.396865	0.0500166	
-0.285477	0.347855	0.049986	
-0.248262	0.29482	0	
-0.251772	0.306785	0.1	
0.168985	0.119579	0.1	
0.114043	0.0943971	0.1	
0.124146	0.156872	0.1	
0.144601	0.131477	0	
-0.160221	-0.122206	0.1	
-0.201609	-0.173762	0	
-0.12308	-0.143942	0	
-0.16441	-0.183508	0.1	
-0.248262	0.29482	0	
-0.217513	0.254621	0.1	
-0.251772	0.306785	0.1	
-0.292926	0.235471	0.1	
0.396865	-0.212129	0.0499751	
0.430623	-0.130628	0.049953	
0.339399	-0.183579	0	
0.331486	-0.177371	0.1	
0.053688	-0.446786	0.0500062	
0.111895	-0.372646	0	
0.044217	-0.387842	0.1	
0.130628	-0.430623	0.050047	
-0.0611924	0.0535755	0.1	
-0.0436673	0.0180876	0.0496986	
-0.0606984	0.0243229	0.1	
-0.0733988	0.0716859	0.0422482	
0.045	0	0.1	
0.0512771	-0.0404658	0.045086	
0.0396544	0.04868	0.0438187	
0.0969794	0.021072	0.0441191	
0.173936	0.254382	0.1	
0.129359	0.208003	0.1	
0.0906227	0.254757	0.1	
0.154944	0.223937	0	
-0.0269211	0.0671862	0.1	
-0.0436673	0.0180876	0.0496986	
-0.0611924	0.0535755	0.1	
-0.0733988	0.0716859	0.0422482	
0.111895	-0.372646	0	
0.175084	-0.3275	0	
0.109857	-0.362973	0.1	
0.212129	-0.396865	0.0500047	
-0.212128	-0.396865	0.0499723	
-0.173995	-0.331361	0.1	
-0.182092	-0.340669	0	
-0.237792	-0.287474	0.1	
-0.217513	0.254621	0.1	
-0.287124	0.235637	0	
-0.237687	0.180874	0.1	
-0.292926	0.235471	0.1	
0.446786	0.053688	0.0500062	
0.387235	0.0357483	0.1	
0.355442	0.107822	0.1	
0.369533	0.112832	0	
0.396862	0.212133	0.0500072	
0.430623	0.130628	0.050047	
0.349981	0.18562	0.1	
0.369533	0.112832	0	
0.287371	-0.120299	0.1	
0.339399	-0.183579	0	
0.348465	-0.103096	0	
0.331486	-0.177371	0.1	
-0.29175	-0.237189	0.1	
-0.298599	-0.245054	0	
-0.347846	-0.285488	0.0499977	
-0.331484	-0.17939	0.1	
-0.389559	0.0336032	0	
-0.362114	0.10176	0	
-0.446786	0.053688	0.0499938	
-0.372975	0.0289182	0.1	
0.0662467	-0.0253248	0.1	
0.0512771	-0.0404658	0.045086	
0.045	0	0.1	
0.0969794	0.021072	0.0441191	
-0.182092	-0.340669	0	
-0.285476	-0.347855	0.0499731	
-0.212128	-0.396865	0.0499723	
-0.237792	-0.287474	0.1	
-0.121547	0.224354	0.1	
-0.138104	0.243902	0	
-0.155635	0.172227	0	
-0.175847	0.204716	0.1	
0.0207402	-0.174187	0.1	
0.0725059	-0.197526	0.1	
0.0279075	-0.16395	0	
0.062652	-0.118801	0.041886	
-0.298599	-0.245054	0	
-0.347846	-0.285488	0.0499977	
-0.237792	-0.287474	0.1	
-0.29175	-0.237189	0.1	
0.044217	-0.387842	0.1	
0.0404591	-0.377182	0	
0.111895	-0.372646	0	
0.053688	-0.446786	0.0500062	
0.108307	-0.130924	0	
0.174426	-0.185564	0	
0.110168	-0.152489	0.1	
0.0922363	-0.215793	0	
0.130628	0.430623	0.049953	
0.120589	0.374273	0.1	
0.053688	0.446786	0.0499938	
0.107822	0.355442	0	
0.147007	-0.259035	0	
0.138545	-0.218367	0.1	
0.082636	-0.254415	0.1	
0.134408	-0.294741	0.1	
0.261818	-0.161797	0	
0.339399	-0.183579	0	
0.268615	-0.174062	0.1	
0.29265	-0.244884	0	
-0.138104	0.243902	0	
-0.0730421	0.296762	0	
-0.116127	0.293072	0.1	
-0.0674604	0.249371	0.1	
-0.248332	0.050693	0	
-0.247343	0.061739	0.1	
-0.304909	0.0444641	0.1	
-0.253293	0.00301969	0.1	
-0.108753	-0.0943056	0.1	
-0.0647576	-0.0686517	0.0541732	
-0.111446	-0.0565624	0	
-0.142279	-0.0393203	0.0487826	
-0.304909	0.0444641	0.1	
-0.312659	-0.0214623	0.1	
-0.320541	0.0201981	0	
-0.253293	0.00301969	0.1	
-0.275518	-0.12132	0	
-0.356724	-0.11546	0.1	
-0.312956	-0.0762135	0.1	
-0.365881	-0.111705	0	
-0.251772	0.306785	0.1	
-0.347855	0.285477	0.0500334	
-0.248262	0.29482	0	
-0.292926	0.235471	0.1	
0.045	0	0.1	
0.0060848	-2.90377e-05	0.0422367	
0.0318198	0.0318198	0.1	
0.0396544	0.04868	0.0438187	
-0.182284	0.324323	0.1	
-0.212129	0.396865	0.0500166	
-0.248262	0.29482	0	
-0.251772	0.306785	0.1	
0.110168	-0.152489	0.1	
0.168154	-0.150165	0.1	
0.174426	-0.185564	0	
0.108307	-0.130924	0	
0.0906227	0.254757	0.1	
0.117493	0.309521	0.1	
0.173936	0.254382	0.1	
0.155004	0.296903	0	
-0.0659287	-0.28985	0	
-0.0496677	-0.250381	0.1	
-0.0137107	-0.295895	0.1	
0.0148093	-0.246449	0	
0.00378559	-0.316996	0	
0.044217	-0.387842	0.1	
0.0404591	-0.377182	0	
0.0511003	-0.317442	0.1	
-0.138104	0.243902	0	
-0.207714	0.236511	0	
-0.175847	0.204716	0.1	
-0.161049	0.262379	0.1	
-0.116127	0.293072	0.1	
-0.173131	0.322508	0	
-0.138104	0.243902	0	
-0.161049	0.262379	0.1	
0.324791	-0.0252069	0	
0.26859	-0.0619166	0	
0.303447	-0.0554764	0.1	
0.251733	-0.014256	0.1	
-0.112928	-0.360216	0	
-0.130611	-0.430628	0.05	
-0.173995	-0.331361	0.1	
-0.182092	-0.340669	0	
0.245754	0.289669	0.1	
0.304312	0.234791	0.1	
0.238182	0.208514	0.1	
0.297412	0.240191	0	
-0.116127	0.293072	0.1	
-0.108028	0.370407	0	
-0.173131	0.322508	0	
-0.10824	0.362258	0.1	
0.0142935	-0.12453	0.1	
0.0587245	-0.143156	0.1	
0.0207402	-0.174187	0.1	
0.062652	-0.118801	0.041886	
-0.0201457	0.00856081	0.1	
0.00677135	0.0163475	0.1	
0.0060848	-2.90377e-05	0.0422367	
-0.0436673	0.0180876	0.0496986	
-0.190622	-0.0884834	0	
-0.203899	-0.0323666	0.1	
-0.209136	-0.0909343	0.1	
-0.142279	-0.0393203	0.0487826	
0.0142935	-0.12453	0.1	
0.062652	-0.118801	0.041886	
0.0207402	-0.174187	0.1	
0.00260765	-0.105267	0.0427151	
0.110168	-0.152489	0.1	
0.108307	-0.130924	0	
0.0922363	-0.215793	0	
0.062652	-0.118801	0.041886	
-0.285476	-0.347855	0.0499731	
-0.298599	-0.245054	0	
-0.347846	-0.285488	0.0499977	
-0.237792	-0.287474	0.1	
0.00378559	-0.316996	0	
0.044217	-0.387842	0.1	
-0.0276628	-0.367444	0.1	
0.0404591	-0.377182	0	
-0.396863	-0.212131	0.0499815	
-0.347846	-0.285488	0.0499977	
-0.298599	-0.245054	0	
-0.331484	-0.17939	0.1	
0.117493	0.309521	0.1	
0.0447484	0.293988	0.1	
0.107822	0.355442	0	
0.0872949	0.269115	0	
0.124146	0.156872	0.1	
0.179715	0.179275	0.1	
0.168985	0.119579	0.1	
0.144601	0.131477	0	
0.180378	0.336857	0.1	
0.212116	0.396871	0.049999	
0.285475	0.347856	0.0500185	
0.18581	0.349201	0	
0.339399	-0.183579	0	
0.396865	-0.212129	0.0499751	
0.331486	-0.177371	0.1	
0.347855	-0.285477	0.0499717	
-0.161049	0.262379	0.1	
-0.173131	0.322508	0	
-0.207714	0.236511	0	
-0.217513	0.254621	0.1	
-0.0880857	0.11829	0	
-0.0758641	0.204419	0	
-0.155635	0.172227	0	
-0.131315	0.16418	0.1	
0.053688	0.446786	0.0499938	
0.0450774	0.367889	0.1	
0	0.45	0.05	
0.0381609	0.387454	0	
0.111895	-0.372646	0	
0.109857	-0.362973	0.1	
0.044217	-0.387842	0.1	
0.130628	-0.430623	0.050047	
0.0906227	0.254757	0.1	
0.0872949	0.269115	0	
0.155004	0.296903	0	
0.154944	0.223937	0	
-0.161049	0.262379	0.1	
-0.207714	0.236511	0	
-0.175847	0.204716	0.1	
-0.217513	0.254621	0.1	
0.0488551	-0.0983509	0.1	
0.0401753	-0.0586342	0.1	
0.0868431	-0.0680824	0.1	
0.0512771	-0.0404658	0.045086	
0.303447	-0.0554764	0.1	
0.314556	0.0156287	0.1	
0.324791	-0.0252069	0	
0.251733	-0.014256	0.1	
0.144601	0.131477	0	
0.124146	0.156872	0.1	
0.179715	0.179275	0.1	
0.154944	0.223937	0	
-0.0383965	-0.372403	0	
-0.112928	-0.360216	0	
-0.0536856	-0.446786	0.05	
-0.104718	-0.361527	0.1	
-0.217513	0.254621	0.1	
-0.182284	0.324323	0.1	
-0.248262	0.29482	0	
-0.251772	0.306785	0.1	
0.0401753	-0.0586342	0.1	
0.0512771	-0.0404658	0.045086	
0.0488551	-0.0983509	0.1	
0.00260765	-0.105267	0.0427151	
0.0750467	0.185499	0	
0.144601	0.131477	0	
0.0691478	0.134694	0.1	
0.0632975	0.0980676	0	
0.187286	-0.334755	0.1	
0.109857	-0.362973	0.1	
0.175084	-0.3275	0	
0.212129	-0.396865	0.0500047	
-0.080591	-0.0588792	0.1	
-0.108753	-0.0943056	0.1	
-0.112529	-0.0425202	0.1	
-0.0647576	-0.0686517	0.0541732	
-0.207714	0.236511	0	
-0.237687	0.180874	0.1	
-0.175847	0.204716	0.1	
-0.217513	0.254621	0.1	
-0.0730421	0.296762	0	
-0.116127	0.293072	0.1	
-0.0572929	0.316053	0.1	
-0.10824	0.362258	0.1	
-0.256491	-0.0362829	0	
-0.312659	-0.0214623	0.1	
-0.318623	-0.0616012	0	
-0.258057	-0.0572365	0.1	
-0.237687	0.180874	0.1	
-0.287124	0.235637	0	
-0.244028	0.149971	0	
-0.300257	0.152847	0.1	
-0.161049	0.262379	0.1	
-0.182284	0.324323	0.1	
-0.173131	0.322508	0	
-0.217513	0.254621	0.1	
-0.0269211	0.0671862	0.1	
-0.0182151	0.0644617	0	
-0.0733988	0.0716859	0.0422482	
0.0186333	0.101613	0.0479424	
0.111895	-0.372646	0	
0.109857	-0.362973	0.1	
0.175084	-0.3275	0	
0.134408	-0.294741	0.1	
-0.181323	-0.0027565	0	
-0.190622	-0.0884834	0	
-0.203899	-0.0323666	0.1	
-0.256491	-0.0362829	0	
-0.327578	-0.175094	0	
-0.356724	-0.11546	0.1	
-0.279108	-0.122562	0.1	
-0.275518	-0.12132	0	
0.329177	0.174808	0	
0.396862	0.212133	0.0500072	
0.349981	0.18562	0.1	
0.369533	0.112832	0	
0.0148093	-0.246449	0	
0.082636	-0.254415	0.1	
0.0922363	-0.215793	0	
0.0204871	-0.24099	0.1	
-0.327578	-0.175094	0	
-0.396863	-0.212131	0.0499815	
-0.298599	-0.245054	0	
-0.331484	-0.17939	0.1	
-0.279108	-0.122562	0.1	
-0.356724	-0.11546	0.1	
-0.327578	-0.175094	0	
-0.331484	-0.17939	0.1	
-0.237687	0.180874	0.1	
-0.207714	0.236511	0	
-0.287124	0.235637	0	
-0.217513	0.254621	0.1	
0.0210919	0.316201	0	
0.107822	0.355442	0	
0.0447484	0.293988	0.1	
0.0872949	0.269115	0	
0.297412	0.240191	0	
0.304312	0.234791	0.1	
0.294509	0.157311	0.1	
0.329177	0.174808	0	
0.204676	0.0233192	0.1	
0.132963	0.044259	0	
0.213357	0.0766959	0	
0.201967	-0.00950962	0	
-0.256491	-0.0362829	0	
-0.318623	-0.0616012	0	
-0.275518	-0.12132	0	
-0.258057	-0.0572365	0.1	
-0.130611	-0.430628	0.05	
-0.212128	-0.396865	0.0499723	
-0.173995	-0.331361	0.1	
-0.182092	-0.340669	0	
0.0839363	-0.30145	0	
0.109857	-0.362973	0.1	
0.111895	-0.372646	0	
0.134408	-0.294741	0.1	
-0.0997698	0.0308567	0	
-0.169647	0.0846842	0	
-0.140177	0.0445127	0.1	
-0.0733988	0.0716859	0.0422482	
0.0725059	-0.197526	0.1	
0.0922363	-0.215793	0	
0.0279075	-0.16395	0	
0.062652	-0.118801	0.041886	
0.230865	0.135658	0.1	
0.294509	0.157311	0.1	
0.287454	0.0808414	0.1	
0.296534	0.101262	0	
0.107822	0.355442	0	
0.18581	0.349201	0	
0.180378	0.336857	0.1	
0.155004	0.296903	0	
0.294509	0.157311	0.1	
0.238182	0.208514	0.1	
0.297412	0.240191	0	
0.237285	0.176133	0	
0.0404591	-0.377182	0	
0.044217	-0.387842	0.1	
0	-0.45	0.05	
0.053688	-0.446786	0.0500062	
0.147007	-0.259035	0	
0.174426	-0.185564	0	
0.138545	-0.218367	0.1	
0.216652	-0.249073	0	
-0.0712343	-0.0265969	0.1	
-0.0318198	-0.0318198	0.1	
-0.0200153	-0.0483211	0.048598	
-0.088703	-0.0138649	0.0491848	
0.120589	0.374273	0.1	
0.0450774	0.367889	0.1	
0.053688	0.446786	0.0499938	
0.107822	0.355442	0	
0.0148093	-0.246449	0	
-0.0137107	-0.295895	0.1	
0.00378559	-0.316996	0	
0.0511003	-0.317442	0.1	
-0.269145	-0.181189	0.1	
-0.29175	-0.237189	0.1	
-0.265692	-0.195501	0	
-0.225546	-0.215121	0.1	
0.190166	-0.0983881	0	
0.130886	-0.100339	0.1	
0.12107	-0.0431928	0	
0.108307	-0.130924	0	
-0.173131	0.322508	0	
-0.108028	0.370407	0	
-0.212129	0.396865	0.0500166	
-0.10824	0.362258	0.1	
-0.320541	0.0201981	0	
-0.379429	-0.0366192	0	
-0.312659	-0.0214623	0.1	
-0.372975	0.0289182	0.1	
-0.446786	-0.053688	0.0499938	
-0.45	0	0.05	
-0.373197	-0.0467972	0.1	
-0.379429	-0.0366192	0	
0.0148093	-0.246449	0	
-0.0496677	-0.250381	0.1	
-0.0137107	-0.295895	0.1	
0.0204871	-0.24099	0.1	
0.240073	-0.0744514	0.1	
0.26859	-0.0619166	0	
0.303447	-0.0554764	0.1	
0.287371	-0.120299	0.1	
0.331486	-0.177371	0.1	
0.287124	-0.235637	0.1	
0.339399	-0.183579	0	
0.347855	-0.285477	0.0499717	
0.268615	-0.174062	0.1	
0.225509	-0.136032	0.1	
0.261818	-0.161797	0	
0.211584	-0.20097	0.1	
-0.00500969	-0.0120945	0.1	
-0.0201457	0.00856081	0.1	
0.0060848	-2.90377e-05	0.0422367	
-0.0436673	0.0180876	0.0496986	
-0.201609	-0.173762	0	
-0.223685	-0.271786	0	
-0.170075	-0.251953	0.1	
-0.225546	-0.215121	0.1	
0.446786	0.053688	0.0500062	
0.45	0	0.05	
0.387235	0.0357483	0.1	
0.363227	0.0380543	0	
-0.201609	-0.173762	0	
-0.170075	-0.251953	0.1	
-0.133674	-0.228308	0	
-0.16441	-0.183508	0.1	
-0.0137107	-0.295895	0.1	
0.0148093	-0.246449	0	
0.0204871	-0.24099	0.1	
0.0511003	-0.317442	0.1	
-0.351668	0.187175	0.1	
-0.287124	0.235637	0	
-0.347855	0.285477	0.0500334	
-0.292926	0.235471	0.1	
-0.0278782	0.153479	0.1	
0.0139627	0.124614	0.1	
-0.0254114	0.106009	0.1	
0.0186333	0.101613	0.0479424	
-0.0142517	-0.205249	0.1	
-0.0529805	-0.19738	0	
0.0279075	-0.16395	0	
0.0148093	-0.246449	0	
-0.244028	0.149971	0	
-0.237687	0.180874	0.1	
-0.242461	0.118505	0.1	
-0.1869	0.140647	0.1	
-0.379429	-0.0366192	0	
-0.373197	-0.0467972	0.1	
-0.312659	-0.0214623	0.1	
-0.372975	0.0289182	0.1	
-0.29175	-0.237189	0.1	
-0.223685	-0.271786	0	
-0.298599	-0.245054	0	
-0.225546	-0.215121	0.1	
-0.0615368	-0.322264	0.1	
-0.0137107	-0.295895	0.1	
-0.0276628	-0.367444	0.1	
0.00378559	-0.316996	0	
-0.112928	-0.360216	0	
-0.130611	-0.430628	0.05	
-0.0536856	-0.446786	0.05	
-0.104718	-0.361527	0.1	
-0.0659287	-0.28985	0	
-0.0137107	-0.295895	0.1	
-0.0615368	-0.322264	0.1	
0.00378559	-0.316996	0	
0.053688	0.446786	0.0499938	
0.0450774	0.367889	0.1	
0.0381609	0.387454	0	
0.107822	0.355442	0	
0.0381609	0.387454	0	
0.0450774	0.367889	0.1	
-0.00311199	0.32667	0.1	
0.0210919	0.316201	0	
0.281012	0.0229437	0	
0.296534	0.101262	0	
0.287454	0.0808414	0.1	
0.363227	0.0380543	0	
-0.13855	0.104902	0.1	
-0.169647	0.0846842	0	
-0.0880857	0.11829	0	
-0.0733988	0.0716859	0.0422482	
0.00604814	0.236488	0	
0.0872949	0.269115	0	
0.0312955	0.232251	0.1	
0.0750467	0.185499	0	
0.212116	0.396871	0.049999	
0.180378	0.336857	0.1	
0.120589	0.374273	0.1	
0.18581	0.349201	0	
-0.0276628	-0.367444	0.1	
0.044217	-0.387842	0.1	
0.00378559	-0.316996	0	
0.0511003	-0.317442	0.1	
0.281012	0.0229437	0	
0.255462	0.038247	0.1	
0.213357	0.0766959	0	
0.201967	-0.00950962	0	
0.0725059	-0.197526	0.1	
0.138545	-0.218367	0.1	
0.082636	-0.254415	0.1	
0.0922363	-0.215793	0	
-0.351668	0.187175	0.1	
-0.430623	0.130628	0.049953	
-0.32913	0.168426	0	
-0.355442	0.107822	0.1	
0.107822	0.355442	0	
0.0447484	0.293988	0.1	
0.0450774	0.367889	0.1	
0.0210919	0.316201	0	
-0.287124	0.235637	0	
-0.347855	0.285477	0.0500334	
-0.396865	0.212129	0.0500047	
-0.351668	0.187175	0.1	
-0.0201457	0.00856081	0.1	
0.00677135	0.0163475	0.1	
-0.00500969	-0.0120945	0.1	
0.0060848	-2.90377e-05	0.0422367	
-0.372975	0.0289182	0.1	
-0.362114	0.10176	0	
-0.355442	0.107822	0.1	
-0.304909	0.0444641	0.1	
-0.320541	0.0201981	0	
-0.362114	0.10176	0	
-0.372975	0.0289182	0.1	
-0.304909	0.0444641	0.1	
0.00604814	0.236488	0	
0.0236281	0.174203	0.1	
-0.00652201	0.151895	0	
0.0750467	0.185499	0	
0.082636	-0.254415	0.1	
0.0148093	-0.246449	0	
0.0839363	-0.30145	0	
0.0511003	-0.317442	0.1	
0.0450774	0.367889	0.1	
0.117493	0.309521	0.1	
0.0447484	0.293988	0.1	
0.107822	0.355442	0	
-0.0606984	0.0243229	0.1	
-0.0436673	0.0180876	0.0496986	
-0.0944203	0.0353385	0.1	
-0.0733988	0.0716859	0.0422482	
0.138545	-0.218367	0.1	
0.147007	-0.259035	0	
0.216652	-0.249073	0	
0.199452	-0.267103	0.1	
0.228237	0.281807	0	
0.238182	0.208514	0.1	
0.173936	0.254382	0.1	
0.154944	0.223937	0	
0.18581	0.349201	0	
0.180378	0.336857	0.1	
0.120589	0.374273	0.1	
0.107822	0.355442	0	
-0.320541	0.0201981	0	
-0.362114	0.10176	0	
-0.389559	0.0336032	0	
-0.372975	0.0289182	0.1	
-0.0730421	0.296762	0	
-0.0339688	0.375665	0	
-0.108028	0.370407	0	
-0.0572929	0.316053	0.1	
-0.169647	0.0846842	0	
-0.0880857	0.11829	0	
-0.155635	0.172227	0	
-0.13855	0.104902	0.1	
0.199452	-0.267103	0.1	
0.257787	-0.293807	0.1	
0.187286	-0.334755	0.1	
0.25204	-0.306462	0	
0.225509	-0.136032	0.1	
0.261818	-0.161797	0	
0.287371	-0.120299	0.1	
0.268615	-0.174062	0.1	
-0.355442	0.107822	0.1	
-0.362114	0.10176	0	
-0.296313	0.0995627	0	
-0.304909	0.0444641	0.1	
-0.265692	-0.195501	0	
-0.298599	-0.245054	0	
-0.223685	-0.271786	0	
-0.225546	-0.215121	0.1	
-0.0997698	0.0308567	0	
-0.169647	0.0846842	0	
-0.181323	-0.0027565	0	
-0.140177	0.0445127	0.1	
0.0401753	-0.0586342	0.1	
-0.0200153	-0.0483211	0.048598	
0	-0.045	0.1	
0.0512771	-0.0404658	0.045086	
0.0632975	0.0980676	0	
0.0396544	0.04868	0.0438187	
0.0741079	0.088115	0.1	
0.0186333	0.101613	0.0479424	
-0.116127	0.293072	0.1	
-0.0730421	0.296762	0	
-0.108028	0.370407	0	
-0.10824	0.362258	0.1	
-0.0944203	0.0353385	0.1	
-0.0436673	0.0180876	0.0496986	
-0.0606984	0.0243229	0.1	
-0.088703	-0.0138649	0.0491848	
0.174426	-0.185564	0	
0.211584	-0.20097	0.1	
0.138545	-0.218367	0.1	
0.216652	-0.249073	0	
-0.247343	0.061739	0.1	
-0.296313	0.0995627	0	
-0.248332	0.050693	0	
-0.304909	0.0444641	0.1	
0.212116	0.396871	0.049999	
0.120589	0.374273	0.1	
0.130628	0.430623	0.049953	
0.18581	0.349201	0	
-0.320541	0.0201981	0	
-0.296313	0.0995627	0	
-0.362114	0.10176	0	
-0.304909	0.0444641	0.1	
-0.0383965	-0.372403	0	
-0.0615368	-0.322264	0.1	
-0.112928	-0.360216	0	
-0.104718	-0.361527	0.1	
0	0.045	0.1	
0.0250698	0.0602098	0.1	
0.0318198	0.0318198	0.1	
0.0396544	0.04868	0.0438187	
0.147007	-0.259035	0	
0.082636	-0.254415	0.1	
0.0839363	-0.30145	0	
0.134408	-0.294741	0.1	
-0.327578	-0.175094	0	
-0.265692	-0.195501	0	
-0.275518	-0.12132	0	
-0.269145	-0.181189	0.1	
-0.248332	0.050693	0	
-0.256491	-0.0362829	0	
-0.181323	-0.0027565	0	
-0.253293	0.00301969	0.1	
0.285477	-0.347855	0.0499669	
0.187286	-0.334755	0.1	
0.257787	-0.293807	0.1	
0.25204	-0.306462	0	
0.0550025	0.059172	0.1	
0.0250698	0.0602098	0.1	
0.0405437	0.0931998	0.1	
0.0396544	0.04868	0.0438187	
-0.217513	0.254621	0.1	
-0.248262	0.29482	0	
-0.287124	0.235637	0	
-0.292926	0.235471	0.1	
-0.053688	0.446786	0.0500062	
-0.130628	0.430623	0.050047	
-0.108028	0.370407	0	
-0.10824	0.362258	0.1	
-0.173995	-0.331361	0.1	
-0.130611	-0.430628	0.05	
-0.112928	-0.360216	0	
-0.104718	-0.361527	0.1	
-0.248262	0.29482	0	
-0.285477	0.347855	0.049986	
-0.347855	0.285477	0.0500334	
-0.251772	0.306785	0.1	
0.109857	-0.362973	0.1	
0.0839363	-0.30145	0	
0.111895	-0.372646	0	
0.0511003	-0.317442	0.1	
0.285475	0.347856	0.0500185	
0.347853	0.285478	0.0500065	
0.245754	0.289669	0.1	
0.297412	0.240191	0	
0.0447484	0.293988	0.1	
-0.0135764	0.270208	0.1	
0.0210919	0.316201	0	
0.00604814	0.236488	0	
0.228237	0.281807	0	
0.180378	0.336857	0.1	
0.245754	0.289669	0.1	
0.18581	0.349201	0	
-0.0572929	0.316053	0.1	
-0.108028	0.370407	0	
-0.0730421	0.296762	0	
-0.10824	0.362258	0.1	
0.228237	0.281807	0	
0.173936	0.254382	0.1	
0.180378	0.336857	0.1	
0.155004	0.296903	0	
-0.355442	0.107822	0.1	
-0.446786	0.053688	0.0499938	
-0.362114	0.10176	0	
-0.372975	0.0289182	0.1	
0.0405437	0.0931998	0.1	
0.0741079	0.088115	0.1	
0.0396544	0.04868	0.0438187	
0.0186333	0.101613	0.0479424	
-0.0611924	0.0535755	0.1	
-0.0318198	0.0318198	0.1	
-0.0606984	0.0243229	0.1	
-0.0436673	0.0180876	0.0496986	
-0.0730421	0.296762	0	
-0.0339688	0.375665	0	
-0.00311199	0.32667	0.1	
0.0210919	0.316201	0	
-0.0737761	0.00176994	0.1	
-0.045	0	0.1	
-0.0712343	-0.0265969	0.1	
-0.088703	-0.0138649	0.0491848	
0.384421	-0.0378621	0	
0.45	0	0.05	
0.374822	-0.0324999	0.1	
0.446786	-0.053688	0.0499938	
0.446786	0.053688	0.0500062	
0.355442	0.107822	0.1	
0.430623	0.130628	0.050047	
0.369533	0.112832	0	
0.211584	-0.20097	0.1	
0.225509	-0.136032	0.1	
0.261818	-0.161797	0	
0.174426	-0.185564	0	
0.285477	-0.347855	0.0499669	
0.212129	-0.396865	0.0500047	
0.187286	-0.334755	0.1	
0.25204	-0.306462	0	
0.0318198	0.0318198	0.1	
0.0060848	-2.90377e-05	0.0422367	
0.00677135	0.0163475	0.1	
0.0396544	0.04868	0.0438187	
0.117493	0.309521	0.1	
0.0906227	0.254757	0.1	
0.0872949	0.269115	0	
0.155004	0.296903	0	
0.154944	0.223937	0	
0.144601	0.131477	0	
0.124146	0.156872	0.1	
0.0750467	0.185499	0	
0.347855	-0.285477	0.0499717	
0.287124	-0.235637	0.1	
0.339399	-0.183579	0	
0.29265	-0.244884	0	
-0.379429	-0.0366192	0	
-0.312659	-0.0214623	0.1	
-0.318623	-0.0616012	0	
-0.320541	0.0201981	0	
-0.217835	-0.151685	0.1	
-0.190622	-0.0884834	0	
-0.201609	-0.173762	0	
-0.275518	-0.12132	0	
-0.0944203	0.0353385	0.1	
-0.0997698	0.0308567	0	
-0.0733988	0.0716859	0.0422482	
-0.088703	-0.0138649	0.0491848	
0.26859	-0.0619166	0	
0.324791	-0.0252069	0	
0.281012	0.0229437	0	
0.251733	-0.014256	0.1	
0.0839363	-0.30145	0	
0.0922363	-0.215793	0	
0.082636	-0.254415	0.1	
0.147007	-0.259035	0	
0.216652	-0.249073	0	
0.211584	-0.20097	0.1	
0.138545	-0.218367	0.1	
0.199452	-0.267103	0.1	
0.287454	0.0808414	0.1	
0.314556	0.0156287	0.1	
0.281012	0.0229437	0	
0.363227	0.0380543	0	
-0.356724	-0.11546	0.1	
-0.396863	-0.212131	0.0499815	
-0.327578	-0.175094	0	
-0.331484	-0.17939	0.1	
0.213357	0.0766959	0	
0.230865	0.135658	0.1	
0.287454	0.0808414	0.1	
0.296534	0.101262	0	
-0.217835	-0.151685	0.1	
-0.201609	-0.173762	0	
-0.16441	-0.183508	0.1	
-0.225546	-0.215121	0.1	
-0.396865	0.212129	0.0500047	
-0.430623	0.130628	0.049953	
-0.32913	0.168426	0	
-0.351668	0.187175	0.1	
0.26859	-0.0619166	0	
0.303447	-0.0554764	0.1	
0.251733	-0.014256	0.1	
0.240073	-0.0744514	0.1	
-0.0496677	-0.250381	0.1	
-0.0137107	-0.295895	0.1	
-0.0615368	-0.322264	0.1	
-0.0659287	-0.28985	0	
-0.0276546	-0.0671169	0.1	
0.00260765	-0.105267	0.0427151	
-0.0251864	-0.106886	0.1	
-0.0647576	-0.0686517	0.0541732	
-0.0276546	-0.0671169	0.1	
0.00728726	-0.0832273	0.1	
-0.0251864	-0.106886	0.1	
0.00260765	-0.105267	0.0427151	
0.154944	0.223937	0	
0.238182	0.208514	0.1	
0.179715	0.179275	0.1	
0.237285	0.176133	0	
0.355442	0.107822	0.1	
0.349981	0.18562	0.1	
0.430623	0.130628	0.050047	
0.369533	0.112832	0	
-0.320541	0.0201981	0	
-0.248332	0.050693	0	
-0.304909	0.0444641	0.1	
-0.253293	0.00301969	0.1	
0.314556	0.0156287	0.1	
0.281012	0.0229437	0	
0.324791	-0.0252069	0	
0.251733	-0.014256	0.1	
0.201967	-0.00950962	0	
0.26859	-0.0619166	0	
0.240073	-0.0744514	0.1	
0.190166	-0.0983881	0	
-0.111587	-0.287654	0.1	
-0.173995	-0.331361	0.1	
-0.13795	-0.29702	0	
-0.104718	-0.361527	0.1	
0.287371	-0.120299	0.1	
0.348465	-0.103096	0	
0.357114	-0.107098	0.1	
0.331486	-0.177371	0.1	
-0.0496677	-0.250381	0.1	
-0.0615368	-0.322264	0.1	
-0.111587	-0.287654	0.1	
-0.0659287	-0.28985	0	
-0.0674604	0.249371	0.1	
-0.0730421	0.296762	0	
-0.116127	0.293072	0.1	
-0.0572929	0.316053	0.1	
-0.296313	0.0995627	0	
-0.244028	0.149971	0	
-0.300257	0.152847	0.1	
-0.242461	0.118505	0.1	
-0.320541	0.0201981	0	
-0.389559	0.0336032	0	
-0.379429	-0.0366192	0	
-0.372975	0.0289182	0.1	
0.111895	-0.372646	0	
0.0839363	-0.30145	0	
0.0404591	-0.377182	0	
0.0511003	-0.317442	0.1	
-0.0615368	-0.322264	0.1	
-0.0383965	-0.372403	0	
-0.0659287	-0.28985	0	
0.00378559	-0.316996	0	
-0.0383965	-0.372403	0	
-0.112928	-0.360216	0	
-0.0615368	-0.322264	0.1	
-0.0659287	-0.28985	0	
0.111895	-0.372646	0	
0.175084	-0.3275	0	
0.0839363	-0.30145	0	
0.134408	-0.294741	0.1	
0.245754	0.289669	0.1	
0.285475	0.347856	0.0500185	
0.228237	0.281807	0	
0.18581	0.349201	0	
-0.312659	-0.0214623	0.1	
-0.312956	-0.0762135	0.1	
-0.373197	-0.0467972	0.1	
-0.318623	-0.0616012	0	
0.225509	-0.136032	0.1	
0.26859	-0.0619166	0	
0.261818	-0.161797	0	
0.190166	-0.0983881	0	
-0.446786	0.053688	0.0499938	
-0.45	0	0.05	
-0.389559	0.0336032	0	
-0.372975	0.0289182	0.1	
-0.133674	-0.228308	0	
-0.0529805	-0.19738	0	
-0.12308	-0.143942	0	
-0.110394	-0.216726	0.1	
-0.32913	0.168426	0	
-0.287124	0.235637	0	
-0.396865	0.212129	0.0500047	
-0.351668	0.187175	0.1	
0.304312	0.234791	0.1	
0.396862	0.212133	0.0500072	
0.349981	0.18562	0.1	
0.329177	0.174808	0	
0.363227	0.0380543	0	
0.387235	0.0357483	0.1	
0.374822	-0.0324999	0.1	
0.384421	-0.0378621	0	
0.304312	0.234791	0.1	
0.245754	0.289669	0.1	
0.347853	0.285478	0.0500065	
0.297412	0.240191	0	
-0.053688	0.446786	0.0500062	
-0.0339688	0.375665	0	
0	0.45	0.05	
-0.0358979	0.379949	0.1	
-0.201609	-0.173762	0	
-0.217835	-0.151685	0.1	
-0.265692	-0.195501	0	
-0.225546	-0.215121	0.1	
-0.182284	0.324323	0.1	
-0.248262	0.29482	0	
-0.173131	0.322508	0	
-0.217513	0.254621	0.1	
-0.287124	0.235637	0	
-0.248262	0.29482	0	
-0.347855	0.285477	0.0500334	
-0.292926	0.235471	0.1	
-0.244028	0.149971	0	
-0.248332	0.050693	0	
-0.169647	0.0846842	0	
-0.242461	0.118505	0.1	
-0.0383965	-0.372403	0	
-0.0536856	-0.446786	0.05	
0	-0.45	0.05	
-0.0276628	-0.367444	0.1	
-0.133674	-0.228308	0	
-0.170075	-0.251953	0.1	
-0.111587	-0.287654	0.1	
-0.110394	-0.216726	0.1	
0.0922363	-0.215793	0	
0.082636	-0.254415	0.1	
0.0148093	-0.246449	0	
0.0839363	-0.30145	0	
-0.110394	-0.216726	0.1	
-0.133674	-0.228308	0	
-0.170075	-0.251953	0.1	
-0.16441	-0.183508	0.1	
-0.446786	-0.053688	0.0499938	
-0.373197	-0.0467972	0.1	
-0.365881	-0.111705	0	
-0.379429	-0.0366192	0	
0.348465	-0.103096	0	
0.261818	-0.161797	0	
0.339399	-0.183579	0	
0.287371	-0.120299	0.1	
-0.0619298	-0.0870419	0.1	
-0.0276546	-0.0671169	0.1	
-0.0251864	-0.106886	0.1	
-0.0647576	-0.0686517	0.0541732	
-0.244028	0.149971	0	
-0.155635	0.172227	0	
-0.207714	0.236511	0	
-0.237687	0.180874	0.1	
0.0632975	0.0980676	0	
0.144601	0.131477	0	
0.114043	0.0943971	0.1	
0.132963	0.044259	0	
0.00378559	-0.316996	0	
-0.0659287	-0.28985	0	
-0.0137107	-0.295895	0.1	
0.0148093	-0.246449	0	
0.120589	0.374273	0.1	
0.130628	0.430623	0.049953	
0.18581	0.349201	0	
0.107822	0.355442	0	
0.26859	-0.0619166	0	
0.348465	-0.103096	0	
0.303447	-0.0554764	0.1	
0.287371	-0.120299	0.1	
-0.173995	-0.331361	0.1	
-0.212128	-0.396865	0.0499723	
-0.250007	-0.374161	0.1	
-0.237792	-0.287474	0.1	
0.199452	-0.267103	0.1	
0.187286	-0.334755	0.1	
0.175084	-0.3275	0	
0.25204	-0.306462	0	
-0.0232097	0.208019	0.1	
-0.00652201	0.151895	0	
-0.0758641	0.204419	0	
0.00604814	0.236488	0	
-0.318623	-0.0616012	0	
-0.373197	-0.0467972	0.1	
-0.312659	-0.0214623	0.1	
-0.379429	-0.0366192	0	
0.173936	0.254382	0.1	
0.179715	0.179275	0.1	
0.129359	0.208003	0.1	
0.154944	0.223937	0	
-0.182284	0.324323	0.1	
-0.173131	0.322508	0	
-0.212129	0.396865	0.0500166	
-0.10824	0.362258	0.1	
-0.190622	-0.0884834	0	
-0.201609	-0.173762	0	
-0.12308	-0.143942	0	
-0.160221	-0.122206	0.1	
-0.248332	0.050693	0	
-0.320541	0.0201981	0	
-0.256491	-0.0362829	0	
-0.253293	0.00301969	0.1	
-0.207714	0.236511	0	
-0.173131	0.322508	0	
-0.248262	0.29482	0	
-0.217513	0.254621	0.1	
-0.430623	0.130628	0.049953	
-0.446786	0.053688	0.0499938	
-0.362114	0.10176	0	
-0.355442	0.107822	0.1	
-0.138104	0.243902	0	
-0.155635	0.172227	0	
-0.0758641	0.204419	0	
-0.121547	0.224354	0.1	
0.110168	-0.152489	0.1	
0.130886	-0.100339	0.1	
0.108307	-0.130924	0	
0.062652	-0.118801	0.041886	
0.238182	0.208514	0.1	
0.245754	0.289669	0.1	
0.297412	0.240191	0	
0.228237	0.281807	0	
0.304312	0.234791	0.1	
0.349981	0.18562	0.1	
0.294509	0.157311	0.1	
0.329177	0.174808	0	
-0.212128	-0.396865	0.0499723	
-0.285476	-0.347855	0.0499731	
-0.250007	-0.374161	0.1	
-0.237792	-0.287474	0.1	
-0.0276628	-0.367444	0.1	
-0.0383965	-0.372403	0	
-0.0615368	-0.322264	0.1	
0.00378559	-0.316996	0	
0.180378	0.336857	0.1	
0.117493	0.309521	0.1	
0.107822	0.355442	0	
0.155004	0.296903	0	
0.374822	-0.0324999	0.1	
0.363227	0.0380543	0	
0.384421	-0.0378621	0	
0.324791	-0.0252069	0	
-0.327578	-0.175094	0	
-0.396863	-0.212131	0.0499815	
-0.356724	-0.11546	0.1	
-0.365881	-0.111705	0	
-0.223685	-0.271786	0	
-0.170075	-0.251953	0.1	
-0.173995	-0.331361	0.1	
-0.13795	-0.29702	0	
-0.275518	-0.12132	0	
-0.327578	-0.175094	0	
-0.356724	-0.11546	0.1	
-0.365881	-0.111705	0	
-0.0415815	-0.110392	0	
-0.0607822	-0.132192	0.1	
0.00260765	-0.105267	0.0427151	
-0.0647576	-0.0686517	0.0541732	
0.329177	0.174808	0	
0.294509	0.157311	0.1	
0.297412	0.240191	0	
0.237285	0.176133	0	
-0.169647	0.0846842	0	
-0.248332	0.050693	0	
-0.181323	-0.0027565	0	
-0.19804	0.0242816	0.1	
0.303447	-0.0554764	0.1	
0.348465	-0.103096	0	
0.357114	-0.107098	0.1	
0.287371	-0.120299	0.1	
0.132963	0.044259	0	
0.144601	0.131477	0	
0.160735	0.0621263	0.1	
0.213357	0.0766959	0	
-0.0712343	-0.0265969	0.1	
-0.0200153	-0.0483211	0.048598	
-0.0318198	-0.0318198	0.1	
-0.0647576	-0.0686517	0.0541732	
0.00677135	0.0163475	0.1	
0.0202986	-0.00819178	0.1	
-0.00500969	-0.0120945	0.1	
0.0060848	-2.90377e-05	0.0422367	
-0.244028	0.149971	0	
-0.169647	0.0846842	0	
-0.155635	0.172227	0	
-0.1869	0.140647	0.1	
-0.173131	0.322508	0	
-0.0730421	0.296762	0	
-0.108028	0.370407	0	
-0.116127	0.293072	0.1	
0.175084	-0.3275	0	
0.187286	-0.334755	0.1	
0.212129	-0.396865	0.0500047	
0.25204	-0.306462	0	
0.296534	0.101262	0	
0.355442	0.107822	0.1	
0.287454	0.0808414	0.1	
0.363227	0.0380543	0	
0.296534	0.101262	0	
0.230865	0.135658	0.1	
0.294509	0.157311	0.1	
0.237285	0.176133	0	
0.18581	0.349201	0	
0.228237	0.281807	0	
0.180378	0.336857	0.1	
0.155004	0.296903	0	
0.187286	-0.334755	0.1	
0.175084	-0.3275	0	
0.109857	-0.362973	0.1	
0.134408	-0.294741	0.1	
0.00378559	-0.316996	0	
-0.0137107	-0.295895	0.1	
-0.0276628	-0.367444	0.1	
0.0511003	-0.317442	0.1	
-0.0496677	-0.250381	0.1	
-0.0659287	-0.28985	0	
-0.0529805	-0.19738	0	
0.0148093	-0.246449	0	
-0.0944203	0.0353385	0.1	
-0.0733988	0.0716859	0.0422482	
-0.0436673	0.0180876	0.0496986	
-0.088703	-0.0138649	0.0491848	
-0.104718	-0.361527	0.1	
-0.0536856	-0.446786	0.05	
-0.0383965	-0.372403	0	
-0.0276628	-0.367444	0.1	
0.257787	-0.293807	0.1	
0.347855	-0.285477	0.0499717	
0.25204	-0.306462	0	
0.29265	-0.244884	0	
-0.182284	0.324323	0.1	
-0.116127	0.293072	0.1	
-0.173131	0.322508	0	
-0.10824	0.362258	0.1	
-0.373197	-0.0467972	0.1	
-0.430623	-0.130628	0.049953	
-0.446786	-0.053688	0.0499938	
-0.365881	-0.111705	0	
0.045	0	0.1	
0.0662467	-0.0253248	0.1	
0.0318198	-0.0318198	0.1	
0.0512771	-0.0404658	0.045086	
0.387235	0.0357483	0.1	
0.355442	0.107822	0.1	
0.369533	0.112832	0	
0.363227	0.0380543	0	
-0.111587	-0.287654	0.1	
-0.173995	-0.331361	0.1	
-0.170075	-0.251953	0.1	
-0.13795	-0.29702	0	
0.190166	-0.0983881	0	
0.261818	-0.161797	0	
0.225509	-0.136032	0.1	
0.174426	-0.185564	0	
0.187286	-0.334755	0.1	
0.172208	-0.415746	0.1	
0.109857	-0.362973	0.1	
0.212129	-0.396865	0.0500047	
0.174426	-0.185564	0	
0.168154	-0.150165	0.1	
0.190166	-0.0983881	0	
0.108307	-0.130924	0	
0.045	0	0.1	
0.0202986	-0.00819178	0.1	
0.0060848	-2.90377e-05	0.0422367	
0.0512771	-0.0404658	0.045086	
-0.0730421	0.296762	0	
-0.138104	0.243902	0	
-0.0758641	0.204419	0	
-0.0674604	0.249371	0.1	
-0.244028	0.149971	0	
-0.296313	0.0995627	0	
-0.248332	0.050693	0	
-0.242461	0.118505	0.1	
-0.173131	0.322508	0	
-0.116127	0.293072	0.1	
-0.182284	0.324323	0.1	
-0.161049	0.262379	0.1	
-0.112529	-0.0425202	0.1	
-0.0647576	-0.0686517	0.0541732	
-0.108753	-0.0943056	0.1	
-0.142279	-0.0393203	0.0487826	
-0.217835	-0.151685	0.1	
-0.201609	-0.173762	0	
-0.265692	-0.195501	0	
-0.275518	-0.12132	0	
-0.0674604	0.249371	0.1	
-0.0758641	0.204419	0	
-0.0730421	0.296762	0	
0.00604814	0.236488	0	
-0.00500969	-0.0120945	0.1	
0.0060848	-2.90377e-05	0.0422367	
0	-0.045	0.1	
-0.0200153	-0.0483211	0.048598	
-0.285477	0.347855	0.049986	
-0.248262	0.29482	0	
-0.250007	0.374161	0	
-0.212129	0.396865	0.0500166	
-0.296313	0.0995627	0	
-0.32913	0.168426	0	
-0.355442	0.107822	0.1	
-0.300257	0.152847	0.1	
-0.223685	-0.271786	0	
-0.285476	-0.347855	0.0499731	
-0.182092	-0.340669	0	
-0.237792	-0.287474	0.1	
0.348465	-0.103096	0	
0.384421	-0.0378621	0	
0.357114	-0.107098	0.1	
0.430623	-0.130628	0.049953	
0.349981	0.18562	0.1	
0.355442	0.107822	0.1	
0.329177	0.174808	0	
0.369533	0.112832	0	
-0.396863	-0.212131	0.0499815	
-0.430623	-0.130628	0.049953	
-0.356724	-0.11546	0.1	
-0.365881	-0.111705	0	
0.430623	-0.130628	0.049953	
0.396865	-0.212129	0.0499751	
0.415746	-0.172208	0.1	
0.331486	-0.177371	0.1	
-0.32913	0.168426	0	
-0.244028	0.149971	0	
-0.287124	0.235637	0	
-0.300257	0.152847	0.1	
0.347855	-0.285477	0.0499717	
0.285477	-0.347855	0.0499669	
0.257787	-0.293807	0.1	
0.25204	-0.306462	0	
0.0922363	-0.215793	0	
0.174426	-0.185564	0	
0.138545	-0.218367	0.1	
0.147007	-0.259035	0	
-0.347846	-0.285488	0.0499977	
-0.318198	-0.318198	0.1	
-0.237792	-0.287474	0.1	
-0.29175	-0.237189	0.1	
0.374161	-0.250007	0.1	
0.331486	-0.177371	0.1	
0.396865	-0.212129	0.0499751	
0.347855	-0.285477	0.0499717	
0.180378	0.336857	0.1	
0.117493	0.309521	0.1	
0.120589	0.374273	0.1	
0.107822	0.355442	0	
0.0868431	-0.0680824	0.1	
0.0864603	-0.112342	0.1	
0.0488551	-0.0983509	0.1	
0.062652	-0.118801	0.041886	
-0.362114	0.10176	0	
-0.32913	0.168426	0	
-0.430623	0.130628	0.049953	
-0.355442	0.107822	0.1	
-0.212129	0.396865	0.0500166	
-0.248262	0.29482	0	
-0.173131	0.322508	0	
-0.182284	0.324323	0.1	
-0.13795	-0.29702	0	
-0.173995	-0.331361	0.1	
-0.112928	-0.360216	0	
-0.104718	-0.361527	0.1	
-0.223685	-0.271786	0	
-0.298599	-0.245054	0	
-0.285476	-0.347855	0.0499731	
-0.237792	-0.287474	0.1	
-0.29175	-0.237189	0.1	
-0.237792	-0.287474	0.1	
-0.223685	-0.271786	0	
-0.225546	-0.215121	0.1	
-0.207714	0.236511	0	
-0.138104	0.243902	0	
-0.173131	0.322508	0	
-0.161049	0.262379	0.1	
-0.0182151	0.0644617	0	
-0.00652201	0.151895	0	
-0.0733988	0.0716859	0.0422482	
0.0186333	0.101613	0.0479424	
0.415746	-0.172208	0.1	
0.357114	-0.107098	0.1	
0.430623	-0.130628	0.049953	
0.331486	-0.177371	0.1	
0.168154	-0.150165	0.1	
0.211584	-0.20097	0.1	
0.138545	-0.218367	0.1	
0.174426	-0.185564	0	
-0.173995	-0.331361	0.1	
-0.182092	-0.340669	0	
-0.223685	-0.271786	0	
-0.13795	-0.29702	0	
0.0868431	-0.0680824	0.1	
0.0488551	-0.0983509	0.1	
0.0512771	-0.0404658	0.045086	
0.062652	-0.118801	0.041886	
0.130628	-0.430623	0.050047	
0.109857	-0.362973	0.1	
0.172208	-0.415746	0.1	
0.212129	-0.396865	0.0500047	
0.245754	0.289669	0.1	
0.238182	0.208514	0.1	
0.173936	0.254382	0.1	
0.228237	0.281807	0	
0.173936	0.254382	0.1	
0.180378	0.336857	0.1	
0.245754	0.289669	0.1	
0.228237	0.281807	0	
-0.212129	0.396865	0.0500166	
-0.130628	0.430623	0.050047	
-0.172208	0.415746	0.1	
-0.10824	0.362258	0.1	
-0.318198	-0.318198	0.1	
-0.285476	-0.347855	0.0499731	
-0.347846	-0.285488	0.0499977	
-0.237792	-0.287474	0.1	
-0.256491	-0.0362829	0	
-0.318623	-0.0616012	0	
-0.312659	-0.0214623	0.1	
-0.320541	0.0201981	0	
0.396862	0.212133	0.0500072	
0.304312	0.234791	0.1	
0.297412	0.240191	0	
0.329177	0.174808	0	
0.281012	0.0229437	0	
0.26859	-0.0619166	0	
0.251733	-0.014256	0.1	
0.201967	-0.00950962	0	
0.173936	0.254382	0.1	
0.117493	0.309521	0.1	
0.180378	0.336857	0.1	
0.155004	0.296903	0	
0.0450774	0.367889	0.1	
0.0447484	0.293988	0.1	
-0.00311199	0.32667	0.1	
0.0210919	0.316201	0	
-0.29175	-0.237189	0.1	
-0.347846	-0.285488	0.0499977	
-0.374161	-0.250007	0.1	
-0.331484	-0.17939	0.1	
0.0210919	0.316201	0	
-0.0135764	0.270208	0.1	
-0.0730421	0.296762	0	
0.00604814	0.236488	0	
-0.223685	-0.271786	0	
-0.173995	-0.331361	0.1	
-0.170075	-0.251953	0.1	
-0.237792	-0.287474	0.1	
0.132963	0.044259	0	
0.12107	-0.0431928	0	
0.201967	-0.00950962	0	
0.0969794	0.021072	0.0441191	
-0.248262	0.29482	0	
-0.287124	0.235637	0	
-0.207714	0.236511	0	
-0.217513	0.254621	0.1	
-0.130628	0.430623	0.050047	
-0.172208	0.415746	0	
-0.108028	0.370407	0	
-0.212129	0.396865	0.0500166	
0.396862	0.212133	0.0500072	
0.304312	0.234791	0.1	
0.347853	0.285478	0.0500065	
0.297412	0.240191	0	
-0.0251864	-0.106886	0.1	
0.0142935	-0.12453	0.1	
-0.0203113	-0.154489	0.1	
0.00260765	-0.105267	0.0427151	
-0.182092	-0.340669	0	
-0.173995	-0.331361	0.1	
-0.112928	-0.360216	0	
-0.13795	-0.29702	0	
0.287454	0.0808414	0.1	
0.314556	0.0156287	0.1	
0.255462	0.038247	0.1	
0.281012	0.0229437	0	
0.0714224	0.0228299	0.1	
0.104819	-0.00331638	0.1	
0.0662467	-0.0253248	0.1	
0.0969794	0.021072	0.0441191	
0.355442	0.107822	0.1	
0.314556	0.0156287	0.1	
0.287454	0.0808414	0.1	
0.363227	0.0380543	0	
0.0839363	-0.30145	0	
0.0148093	-0.246449	0	
0.00378559	-0.316996	0	
0.0511003	-0.317442	0.1	
-0.244028	0.149971	0	
-0.237687	0.180874	0.1	
-0.300257	0.152847	0.1	
-0.242461	0.118505	0.1	
0.281012	0.0229437	0	
0.314556	0.0156287	0.1	
0.255462	0.038247	0.1	
0.251733	-0.014256	0.1	
-0.396863	-0.212131	0.0499815	
-0.374161	-0.250007	0.1	
-0.347846	-0.285488	0.0499977	
-0.331484	-0.17939	0.1	
0.349981	0.18562	0.1	
0.355442	0.107822	0.1	
0.294509	0.157311	0.1	
0.329177	0.174808	0	
0.0714224	0.0228299	0.1	
0.0318198	0.0318198	0.1	
0.0550025	0.059172	0.1	
0.0396544	0.04868	0.0438187	
0.396862	0.212133	0.0500072	
0.415746	0.172208	0	
0.430623	0.130628	0.050047	
0.369533	0.112832	0	
-0.365881	-0.111705	0	
-0.373197	-0.0467972	0.1	
-0.318623	-0.0616012	0	
-0.379429	-0.0366192	0	
0.130628	-0.430623	0.050047	
0.172208	-0.415746	0	
0.111895	-0.372646	0	
0.212129	-0.396865	0.0500047	
-0.104718	-0.361527	0.1	
-0.0383965	-0.372403	0	
-0.0615368	-0.322264	0.1	
-0.0276628	-0.367444	0.1	
-0.173995	-0.331361	0.1	
-0.212128	-0.396865	0.0499723	
-0.130611	-0.430628	0.05	
-0.172208	-0.415746	0.1	
-0.112928	-0.360216	0	
-0.172208	-0.415746	0	
-0.130611	-0.430628	0.05	
-0.182092	-0.340669	0	
0.287454	0.0808414	0.1	
0.213357	0.0766959	0	
0.296534	0.101262	0	
0.281012	0.0229437	0	
-0.138104	0.243902	0	
-0.207714	0.236511	0	
-0.155635	0.172227	0	
-0.175847	0.204716	0.1	
0.147007	-0.259035	0	
0.138545	-0.218367	0.1	
0.134408	-0.294741	0.1	
0.199452	-0.267103	0.1	
-0.0436673	0.0180876	0.0496986	
-0.0200153	-0.0483211	0.048598	
-0.0318198	-0.0318198	0.1	
-0.088703	-0.0138649	0.0491848	
-0.244028	0.149971	0	
-0.207714	0.236511	0	
-0.287124	0.235637	0	
-0.237687	0.180874	0.1	
0.446786	-0.053688	0.0499938	
0.384421	-0.0378621	0	
0.441353	-0.0877906	0	
0.430623	-0.130628	0.049953	
0.250007	0.374161	0.1	
0.180378	0.336857	0.1	
0.212116	0.396871	0.049999	
0.285475	0.347856	0.0500185	
0.0450774	0.367889	0.1	
0.0381609	0.387454	0	
0.107822	0.355442	0	
0.0210919	0.316201	0	
0.25204	-0.306462	0	
0.216652	-0.249073	0	
0.257787	-0.293807	0.1	
0.29265	-0.244884	0	
0.180378	0.336857	0.1	
0.250007	0.374161	0.1	
0.245754	0.289669	0.1	
0.285475	0.347856	0.0500185	
0.355442	0.107822	0.1	
0.296534	0.101262	0	
0.369533	0.112832	0	
0.363227	0.0380543	0	
0.154944	0.223937	0	
0.228237	0.281807	0	
0.238182	0.208514	0.1	
0.237285	0.176133	0	
-0.0276628	-0.367444	0.1	
-0.0383965	-0.372403	0	
0.00378559	-0.316996	0	
0.0404591	-0.377182	0	
0.287124	-0.235637	0.1	
0.331486	-0.177371	0.1	
0.374161	-0.250007	0.1	
0.347855	-0.285477	0.0499717	
-0.347846	-0.285488	0.0499977	
-0.298599	-0.245054	0	
-0.374161	-0.250007	0	
-0.396863	-0.212131	0.0499815	
0.00728726	-0.0832273	0.1	
-0.0276546	-0.0671169	0.1	
0	-0.045	0.1	
-0.0200153	-0.0483211	0.048598	
-0.112928	-0.360216	0	
-0.0536856	-0.446786	0.05	
-0.0877906	-0.441353	0	
-0.0383965	-0.372403	0	
-0.0536856	-0.446786	0.05	
-0.0877906	-0.441353	0	
-0.130611	-0.430628	0.05	
-0.112928	-0.360216	0	
0.175084	-0.3275	0	
0.147007	-0.259035	0	
0.134408	-0.294741	0.1	
0.199452	-0.267103	0.1	
-0.00500969	-0.0120945	0.1	
0	-0.045	0.1	
-0.0318198	-0.0318198	0.1	
-0.0200153	-0.0483211	0.048598	
0.245754	0.289669	0.1	
0.285475	0.347856	0.0500185	
0.297412	0.240191	0	
0.228237	0.281807	0	
-0.32913	0.168426	0	
-0.351668	0.187175	0.1	
-0.355442	0.107822	0.1	
-0.300257	0.152847	0.1	
0.053688	0.446786	0.0499938	
0.0877906	0.441353	0.1	
0.120589	0.374273	0.1	
0.130628	0.430623	0.049953	
-0.212128	-0.396865	0.0499723	
-0.130611	-0.430628	0.05	
-0.172208	-0.415746	0	
-0.182092	-0.340669	0	
-0.130611	-0.430628	0.05	
-0.173995	-0.331361	0.1	
-0.172208	-0.415746	0.1	
-0.104718	-0.361527	0.1	
-0.0730421	0.296762	0	
-0.173131	0.322508	0	
-0.138104	0.243902	0	
-0.116127	0.293072	0.1	
-0.133674	-0.228308	0	
-0.111587	-0.287654	0.1	
-0.170075	-0.251953	0.1	
-0.13795	-0.29702	0	
-0.223685	-0.271786	0	
-0.182092	-0.340669	0	
-0.173995	-0.331361	0.1	
-0.237792	-0.287474	0.1	
0.120589	0.374273	0.1	
0.117493	0.309521	0.1	
0.0450774	0.367889	0.1	
0.107822	0.355442	0	
-0.133674	-0.228308	0	
-0.223685	-0.271786	0	
-0.170075	-0.251953	0.1	
-0.201609	-0.173762	0	
0.0447484	0.293988	0.1	
0.0210919	0.316201	0	
0.0872949	0.269115	0	
0.00604814	0.236488	0	
-0.00500969	-0.0120945	0.1	
-0.0436673	0.0180876	0.0496986	
0.0060848	-2.90377e-05	0.0422367	
-0.0200153	-0.0483211	0.048598	
-0.237792	-0.287474	0.1	
-0.223685	-0.271786	0	
-0.298599	-0.245054	0	
-0.29175	-0.237189	0.1	
-0.182284	0.324323	0.1	
-0.212129	0.396865	0.0500166	
-0.172208	0.415746	0.1	
-0.10824	0.362258	0.1	
0.0662467	-0.0253248	0.1	
0.0986719	-0.0360043	0.1	
0.0868431	-0.0680824	0.1	
0.0512771	-0.0404658	0.045086	
-0.296313	0.0995627	0	
-0.32913	0.168426	0	
-0.362114	0.10176	0	
-0.355442	0.107822	0.1	
-0.347855	0.285477	0.0500334	
-0.374161	0.250007	0	
-0.287124	0.235637	0	
-0.396865	0.212129	0.0500047	
0.296534	0.101262	0	
0.294509	0.157311	0.1	
0.355442	0.107822	0.1	
0.329177	0.174808	0	
-0.111446	-0.0565624	0	
-0.190622	-0.0884834	0	
-0.12308	-0.143942	0	
-0.142279	-0.0393203	0.0487826	
-0.441353	0.0877906	0.1	
-0.446786	0.053688	0.0499938	
-0.430623	0.130628	0.049953	
-0.355442	0.107822	0.1	
0.329177	0.174808	0	
0.355442	0.107822	0.1	
0.296534	0.101262	0	
0.369533	0.112832	0	
-0.396863	-0.212131	0.0499815	
-0.298599	-0.245054	0	
-0.374161	-0.250007	0	
-0.327578	-0.175094	0	
0.0207402	-0.174187	0.1	
0.062652	-0.118801	0.041886	
0.0279075	-0.16395	0	
0.00260765	-0.105267	0.0427151	
0.0447484	0.293988	0.1	
0.117493	0.309521	0.1	
0.0906227	0.254757	0.1	
0.0872949	0.269115	0	
0.363227	0.0380543	0	
0.374822	-0.0324999	0.1	
0.314556	0.0156287	0.1	
0.324791	-0.0252069	0	
0.175084	-0.3275	0	
0.147007	-0.259035	0	
0.0839363	-0.30145	0	
0.134408	-0.294741	0.1	
-0.430623	0.130628	0.049953	
-0.32913	0.168426	0	
-0.415746	0.172208	0	
-0.396865	0.212129	0.0500047	
0.355442	0.107822	0.1	
0.387235	0.0357483	0.1	
0.314556	0.0156287	0.1	
0.363227	0.0380543	0	
0.430623	-0.130628	0.049953	
0.339399	-0.183579	0	
0.415746	-0.172208	0	
0.396865	-0.212129	0.0499751	
-0.133674	-0.228308	0	
-0.12308	-0.143942	0	
-0.201609	-0.173762	0	
-0.16441	-0.183508	0.1	
-0.373197	-0.0467972	0.1	
-0.356724	-0.11546	0.1	
-0.430623	-0.130628	0.049953	
-0.365881	-0.111705	0	
0.396865	-0.212129	0.0499751	
0.339399	-0.183579	0	
0.374161	-0.250007	0	
0.347855	-0.285477	0.0499717	
0.446786	-0.053688	0.0499938	
0.441353	-0.0877906	0.1	
0.357114	-0.107098	0.1	
0.430623	-0.130628	0.049953	
0.318198	0.318198	0	
0.347853	0.285478	0.0500065	
0.285475	0.347856	0.0500185	
0.297412	0.240191	0	
-0.13795	-0.29702	0	
-0.133674	-0.228308	0	
-0.111587	-0.287654	0.1	
-0.0659287	-0.28985	0	
0.387235	0.0357483	0.1	
0.355442	0.107822	0.1	
0.441353	0.0877906	0.1	
0.446786	0.053688	0.0500062	
0.287124	-0.235637	0.1	
0.257787	-0.293807	0.1	
0.216652	-0.249073	0	
0.29265	-0.244884	0	
0.0450774	0.367889	0.1	
0.0877906	0.441353	0.1	
0.120589	0.374273	0.1	
0.053688	0.446786	0.0499938	
0.0714224	0.0228299	0.1	
0.0396544	0.04868	0.0438187	
0.0858783	0.0607949	0.1	
0.0969794	0.021072	0.0441191	
0.314556	0.0156287	0.1	
0.387235	0.0357483	0.1	
0.374822	-0.0324999	0.1	
0.363227	0.0380543	0	
0.415746	0.172208	0	
0.396862	0.212133	0.0500072	
0.329177	0.174808	0	
0.369533	0.112832	0	
-0.237792	-0.287474	0.1	
-0.170075	-0.251953	0.1	
-0.223685	-0.271786	0	
-0.225546	-0.215121	0.1	
-0.372975	0.0289182	0.1	
-0.312659	-0.0214623	0.1	
-0.320541	0.0201981	0	
-0.304909	0.0444641	0.1	
0.348465	-0.103096	0	
0.26859	-0.0619166	0	
0.261818	-0.161797	0	
0.287371	-0.120299	0.1	
0.238182	0.208514	0.1	
0.294509	0.157311	0.1	
0.230865	0.135658	0.1	
0.237285	0.176133	0	
-0.0358979	0.379949	0.1	
-0.0877906	0.441353	0.1	
-0.053688	0.446786	0.0500062	
-0.10824	0.362258	0.1	
0.441353	-0.0877906	0.1	
0.357114	-0.107098	0.1	
0.374822	-0.0324999	0.1	
0.446786	-0.053688	0.0499938	
0.294509	0.157311	0.1	
0.355442	0.107822	0.1	
0.287454	0.0808414	0.1	
0.296534	0.101262	0	
0.0511003	-0.317442	0.1	
0.0839363	-0.30145	0	
0.082636	-0.254415	0.1	
0.134408	-0.294741	0.1	
0.179715	0.179275	0.1	
0.144601	0.131477	0	
0.154944	0.223937	0	
0.237285	0.176133	0	
0.109857	-0.362973	0.1	
0.0839363	-0.30145	0	
0.0511003	-0.317442	0.1	
0.134408	-0.294741	0.1	
0.172208	-0.415746	0	
0.175084	-0.3275	0	
0.111895	-0.372646	0	
0.212129	-0.396865	0.0500047	
-0.248262	0.29482	0	
-0.173131	0.322508	0	
-0.250007	0.374161	0	
-0.212129	0.396865	0.0500166	
-0.351668	0.187175	0.1	
-0.347855	0.285477	0.0500334	
-0.374161	0.250007	0.1	
-0.292926	0.235471	0.1	
0.296534	0.101262	0	
0.213357	0.0766959	0	
0.230865	0.135658	0.1	
0.237285	0.176133	0	
0.228237	0.281807	0	
0.297412	0.240191	0	
0.238182	0.208514	0.1	
0.237285	0.176133	0	
0.324791	-0.0252069	0	
0.374822	-0.0324999	0.1	
0.314556	0.0156287	0.1	
0.303447	-0.0554764	0.1	
0.199452	-0.267103	0.1	
0.175084	-0.3275	0	
0.216652	-0.249073	0	
0.25204	-0.306462	0	
-0.396865	0.212129	0.0500047	
-0.347855	0.285477	0.0500334	
-0.374161	0.250007	0.1	
-0.351668	0.187175	0.1	
0.238182	0.208514	0.1	
0.230865	0.135658	0.1	
0.179715	0.179275	0.1	
0.237285	0.176133	0	
-0.355442	0.107822	0.1	
-0.441353	0.0877906	0.1	
-0.446786	0.053688	0.0499938	
-0.372975	0.0289182	0.1	
-0.430623	-0.130628	0.049953	
-0.356724	-0.11546	0.1	
-0.415746	-0.172208	0.1	
-0.396863	-0.212131	0.0499815	
-0.396863	-0.212131	0.0499815	
-0.415746	-0.172208	0	
-0.430623	-0.130628	0.049953	
-0.365881	-0.111705	0	
0.250007	-0.374161	0	
0.212129	-0.396865	0.0500047	
0.285477	-0.347855	0.0499669	
0.25204	-0.306462	0	
-0.0276546	-0.0671169	0.1	
-0.0200153	-0.0483211	0.048598	
0.00728726	-0.0832273	0.1	
0.00260765	-0.105267	0.0427151	
0.0872949	0.269115	0	
0.107822	0.355442	0	
0.117493	0.309521	0.1	
0.155004	0.296903	0	
0.0488551	-0.0983509	0.1	
0.0512771	-0.0404658	0.045086	
0.062652	-0.118801	0.041886	
0.00260765	-0.105267	0.0427151	
0.287124	-0.235637	0.1	
0.211584	-0.20097	0.1	
0.216652	-0.249073	0	
0.199452	-0.267103	0.1	
0.00728726	-0.0832273	0.1	
0.0488551	-0.0983509	0.1	
0.0142935	-0.12453	0.1	
0.00260765	-0.105267	0.0427151	
-0.0529805	-0.19738	0	
0.0279075	-0.16395	0	
-0.0415815	-0.110392	0	
0.00260765	-0.105267	0.0427151	
0.216652	-0.249073	0	
0.257787	-0.293807	0.1	
0.287124	-0.235637	0.1	
0.199452	-0.267103	0.1	
0.347853	0.285478	0.0500065	
0.245754	0.289669	0.1	
0.318198	0.318198	0.1	
0.285475	0.347856	0.0500185	
-0.223685	-0.271786	0	
-0.201609	-0.173762	0	
-0.265692	-0.195501	0	
-0.225546	-0.215121	0.1	
0.347855	-0.285477	0.0499717	
0.339399	-0.183579	0	
0.374161	-0.250007	0	
0.29265	-0.244884	0	
0.0404591	-0.377182	0	
0.0839363	-0.30145	0	
0.00378559	-0.316996	0	
0.0511003	-0.317442	0.1	
0.347853	0.285478	0.0500065	
0.374161	0.250007	0	
0.396862	0.212133	0.0500072	
0.297412	0.240191	0	
-0.318198	0.318198	0	
-0.248262	0.29482	0	
-0.285477	0.347855	0.049986	
-0.347855	0.285477	0.0500334	
-0.0877906	0.441353	0.1	
-0.130628	0.430623	0.050047	
-0.053688	0.446786	0.0500062	
-0.10824	0.362258	0.1	
0.155004	0.296903	0	
0.228237	0.281807	0	
0.173936	0.254382	0.1	
0.154944	0.223937	0	
0.348465	-0.103096	0	
0.324791	-0.0252069	0	
0.26859	-0.0619166	0	
0.303447	-0.0554764	0.1	
-0.0276546	-0.0671169	0.1	
-0.0200153	-0.0483211	0.048598	
0.00260765	-0.105267	0.0427151	
-0.0647576	-0.0686517	0.0541732	
0.329177	0.174808	0	
0.296534	0.101262	0	
0.294509	0.157311	0.1	
0.237285	0.176133	0	
0.212116	0.396871	0.049999	
0.130628	0.430623	0.049953	
0.172208	0.415746	0	
0.18581	0.349201	0	
0.318198	-0.318198	0	
0.285477	-0.347855	0.0499669	
0.347855	-0.285477	0.0499717	
0.25204	-0.306462	0	
0.430623	0.130628	0.050047	
0.349981	0.18562	0.1	
0.415746	0.172208	0.1	
0.396862	0.212133	0.0500072	
0.044217	-0.387842	0.1	
0.0877906	-0.441353	0.1	
0.053688	-0.446786	0.0500062	
0.130628	-0.430623	0.050047	
0.134408	-0.294741	0.1	
0.187286	-0.334755	0.1	
0.175084	-0.3275	0	
0.199452	-0.267103	0.1	
-0.396863	-0.212131	0.0499815	
-0.356724	-0.11546	0.1	
-0.415746	-0.172208	0.1	
-0.331484	-0.17939	0.1	
-0.374161	0.250007	0	
-0.32913	0.168426	0	
-0.287124	0.235637	0	
-0.396865	0.212129	0.0500047	
-0.0358979	0.379949	0.1	
0	0.45	0.05	
0	0.45	0.1	
0.0450774	0.367889	0.1	
-0.296313	0.0995627	0	
-0.320541	0.0201981	0	
-0.248332	0.050693	0	
-0.304909	0.0444641	0.1	
-0.251772	0.306785	0.1	
-0.318198	0.318198	0.1	
-0.347855	0.285477	0.0500334	
-0.292926	0.235471	0.1	
-0.212129	0.396865	0.0500166	
-0.250007	0.374161	0.1	
-0.285477	0.347855	0.049986	
-0.251772	0.306785	0.1	
-0.347855	0.285477	0.0500334	
-0.285477	0.347855	0.049986	
-0.318198	0.318198	0.1	
-0.251772	0.306785	0.1	
-0.415746	0.172208	0.1	
-0.430623	0.130628	0.049953	
-0.396865	0.212129	0.0500047	
-0.351668	0.187175	0.1	
0.347855	-0.285477	0.0499717	
0.257787	-0.293807	0.1	
0.287124	-0.235637	0.1	
0.29265	-0.244884	0	
-0.0383965	-0.372403	0	
0	-0.45	0.05	
0	-0.45	0	
0.0404591	-0.377182	0	
-0.415746	-0.172208	0	
-0.396863	-0.212131	0.0499815	
-0.327578	-0.175094	0	
-0.365881	-0.111705	0	
-0.172208	0.415746	0	
-0.173131	0.322508	0	
-0.108028	0.370407	0	
-0.212129	0.396865	0.0500166	
-0.0583523	0.0875158	0.1	
-0.0949426	0.0752698	0.1	
-0.0791922	0.124893	0.1	
-0.0733988	0.0716859	0.0422482	
0.25204	-0.306462	0	
0.347855	-0.285477	0.0499717	
0.318198	-0.318198	0	
0.29265	-0.244884	0	
0.153315	0.00689278	0.1	
0.104819	-0.00331638	0.1	
0.114815	0.0394603	0.1	
0.0969794	0.021072	0.0441191	
0.285475	0.347856	0.0500185	
0.212116	0.396871	0.049999	
0.250007	0.374161	0	
0.18581	0.349201	0	
0.45	0	0	
0.45	0	0.05	
0.363227	0.0380543	0	
0.384421	-0.0378621	0	
-0.296313	0.0995627	0	
-0.244028	0.149971	0	
-0.32913	0.168426	0	
-0.300257	0.152847	0.1	
-0.351668	0.187175	0.1	
-0.415746	0.172208	0.1	
-0.430623	0.130628	0.049953	
-0.355442	0.107822	0.1	
0.199452	-0.267103	0.1	
0.216652	-0.249073	0	
0.257787	-0.293807	0.1	
0.25204	-0.306462	0	
-0.104461	0.000932435	0.1	
-0.0944203	0.0353385	0.1	
-0.0737761	0.00176994	0.1	
-0.088703	-0.0138649	0.0491848	
0.430623	0.130628	0.050047	
0.441353	0.0877906	0.1	
0.355442	0.107822	0.1	
0.446786	0.053688	0.0500062	
0.446786	0.053688	0.0500062	
0.430623	0.130628	0.050047	
0.441353	0.0877906	0	
0.369533	0.112832	0	
0.0550025	0.059172	0.1	
0.0318198	0.0318198	0.1	
0.0250698	0.0602098	0.1	
0.0396544	0.04868	0.0438187	
0.187286	-0.334755	0.1	
0.212129	-0.396865	0.0500047	
0.285477	-0.347855	0.0499669	
0.250007	-0.374161	0.1	
0.175084	-0.3275	0	
0.216652	-0.249073	0	
0.147007	-0.259035	0	
0.199452	-0.267103	0.1	
0.261818	-0.161797	0	
0.211584	-0.20097	0.1	
0.174426	-0.185564	0	
0.216652	-0.249073	0	
-0.441353	-0.0877906	0.1	
-0.373197	-0.0467972	0.1	
-0.430623	-0.130628	0.049953	
-0.446786	-0.053688	0.0499938	
-0.365881	-0.111705	0	
-0.441353	-0.0877906	0	
-0.446786	-0.053688	0.0499938	
-0.379429	-0.0366192	0	
-0.32913	0.168426	0	
-0.415746	0.172208	0	
-0.362114	0.10176	0	
-0.430623	0.130628	0.049953	
0.0691478	0.134694	0.1	
0.0405437	0.0931998	0.1	
0.0139627	0.124614	0.1	
0.0186333	0.101613	0.0479424	
0.245754	0.289669	0.1	
0.318198	0.318198	0.1	
0.304312	0.234791	0.1	
0.347853	0.285478	0.0500065	
-0.133674	-0.228308	0	
-0.170075	-0.251953	0.1	
-0.223685	-0.271786	0	
-0.13795	-0.29702	0	
0.0877906	-0.441353	0.1	
0.044217	-0.387842	0.1	
0.109857	-0.362973	0.1	
0.130628	-0.430623	0.050047	
0.212129	-0.396865	0.0500047	
0.250007	-0.374161	0	
0.175084	-0.3275	0	
0.25204	-0.306462	0	
-0.157075	-0.0653284	0.1	
-0.112529	-0.0425202	0.1	
-0.108753	-0.0943056	0.1	
-0.142279	-0.0393203	0.0487826	
-0.318198	-0.318198	0	
-0.298599	-0.245054	0	
-0.347846	-0.285488	0.0499977	
-0.285476	-0.347855	0.0499731	
-0.0944203	0.0353385	0.1	
-0.0949426	0.0752698	0.1	
-0.0611924	0.0535755	0.1	
-0.0733988	0.0716859	0.0422482	
0.0405437	0.0931998	0.1	
0.0250698	0.0602098	0.1	
0.00442099	0.0829354	0.1	
0.0186333	0.101613	0.0479424	
-0.0182151	0.0644617	0	
-0.00652201	0.151895	0	
-0.0880857	0.11829	0	
-0.0733988	0.0716859	0.0422482	
-0.250007	0.374161	0.1	
-0.212129	0.396865	0.0500166	
-0.182284	0.324323	0.1	
-0.251772	0.306785	0.1	
-0.250007	-0.374161	0	
-0.285476	-0.347855	0.0499731	
-0.212128	-0.396865	0.0499723	
-0.182092	-0.340669	0	
-0.0712343	-0.0265969	0.1	
-0.088703	-0.0138649	0.0491848	
-0.0200153	-0.0483211	0.048598	
-0.0647576	-0.0686517	0.0541732	
0.285477	-0.347855	0.0499669	
0.257787	-0.293807	0.1	
0.187286	-0.334755	0.1	
0.250007	-0.374161	0.1	
0.441353	0.0877906	0	
0.446786	0.053688	0.0500062	
0.369533	0.112832	0	
0.363227	0.0380543	0	
0.130628	0.430623	0.049953	
0.172208	0.415746	0.1	
0.120589	0.374273	0.1	
0.212116	0.396871	0.049999	
0.053688	-0.446786	0.0500062	
0.0877906	-0.441353	0	
0.111895	-0.372646	0	
0.130628	-0.430623	0.050047	
0.0750467	0.185499	0	
-0.00652201	0.151895	0	
0.0632975	0.0980676	0	
0.0186333	0.101613	0.0479424	
-0.0276628	-0.367444	0.1	
0	-0.45	0.1	
0	-0.45	0.05	
0.044217	-0.387842	0.1	
0.374161	0.250007	0	
0.396862	0.212133	0.0500072	
0.297412	0.240191	0	
0.329177	0.174808	0	
-0.446786	-0.053688	0.0499938	
-0.430623	-0.130628	0.049953	
-0.441353	-0.0877906	0	
-0.365881	-0.111705	0	
0.45	0	0	
0.45	0	0.05	
0.446786	0.053688	0.0500062	
0.363227	0.0380543	0	
0.0060848	-2.90377e-05	0.0422367	
-0.0200153	-0.0483211	0.048598	
0.0398215	-0.0765894	0	
0.0512771	-0.0404658	0.045086	
-0.362114	0.10176	0	
-0.441353	0.0877906	0	
-0.389559	0.0336032	0	
-0.446786	0.053688	0.0499938	
0.18581	0.349201	0	
0.130628	0.430623	0.049953	
0.172208	0.415746	0	
0.107822	0.355442	0	
-0.0415815	-0.110392	0	
-0.111446	-0.0565624	0	
-0.12308	-0.143942	0	
-0.0647576	-0.0686517	0.0541732	
-0.373197	-0.0467972	0.1	
-0.45	0	0.05	
-0.45	0	0.1	
-0.372975	0.0289182	0.1	
0.111895	-0.372646	0	
0.0404591	-0.377182	0	
0.0877906	-0.441353	0	
0.053688	-0.446786	0.0500062	
-0.0538392	-0.0535857	0.1	
-0.080591	-0.0588792	0.1	
-0.0712343	-0.0265969	0.1	
-0.0647576	-0.0686517	0.0541732	
-0.112529	-0.0425202	0.1	
-0.088703	-0.0138649	0.0491848	
-0.080591	-0.0588792	0.1	
-0.0647576	-0.0686517	0.0541732	
0.180378	0.336857	0.1	
0.120589	0.374273	0.1	
0.172208	0.415746	0.1	
0.212116	0.396871	0.049999	
-0.045	0	0.1	
-0.0606984	0.0243229	0.1	
-0.0318198	0.0318198	0.1	
-0.0436673	0.0180876	0.0496986	
-0.0182151	0.0644617	0	
0.0060848	-2.90377e-05	0.0422367	
0.0396544	0.04868	0.0438187	
-0.0436673	0.0180876	0.0496986	
0.0450774	0.367889	0.1	
0	0.45	0.05	
0	0.45	0.1	
0.053688	0.446786	0.0499938	
0.415746	-0.172208	0	
0.348465	-0.103096	0	
0.339399	-0.183579	0	
0.430623	-0.130628	0.049953	
0.396862	0.212133	0.0500072	
0.349981	0.18562	0.1	
0.374161	0.250007	0.1	
0.304312	0.234791	0.1	
0.0587245	-0.143156	0.1	
0.0864603	-0.112342	0.1	
0.110168	-0.152489	0.1	
0.062652	-0.118801	0.041886	
0.0587245	-0.143156	0.1	
0.0142935	-0.12453	0.1	
0.0488551	-0.0983509	0.1	
0.062652	-0.118801	0.041886	
0.0405437	0.0931998	0.1	
0.0396544	0.04868	0.0438187	
0.0250698	0.0602098	0.1	
0.0186333	0.101613	0.0479424	
-0.0536856	-0.446786	0.05	
-0.130611	-0.430628	0.05	
-0.0877906	-0.441353	0.1	
-0.104718	-0.361527	0.1	
0	0.45	0	
0	0.45	0.05	
-0.0339688	0.375665	0	
0.0381609	0.387454	0	
-0.379429	-0.0366192	0	
-0.45	0	0	
-0.45	0	0.05	
-0.389559	0.0336032	0	
0.297412	0.240191	0	
0.285475	0.347856	0.0500185	
0.318198	0.318198	0	
0.228237	0.281807	0	
0.348465	-0.103096	0	
0.441353	-0.0877906	0	
0.384421	-0.0378621	0	
0.430623	-0.130628	0.049953	
-0.0712343	-0.0265969	0.1	
-0.080591	-0.0588792	0.1	
-0.112529	-0.0425202	0.1	
-0.088703	-0.0138649	0.0491848	
-0.373197	-0.0467972	0.1	
-0.45	0	0.1	
-0.45	0	0.05	
-0.446786	-0.053688	0.0499938	
0.374161	0.250007	0.1	
0.396862	0.212133	0.0500072	
0.304312	0.234791	0.1	
0.347853	0.285478	0.0500065	
0.12107	-0.0431928	0	
0.0512771	-0.0404658	0.045086	
0.0398215	-0.0765894	0	
0.062652	-0.118801	0.041886	
-0.248262	0.29482	0	
-0.318198	0.318198	0	
-0.287124	0.235637	0	
-0.347855	0.285477	0.0500334	
0.314556	0.0156287	0.1	
0.281012	0.0229437	0	
0.363227	0.0380543	0	
0.324791	-0.0252069	0	
-0.130628	0.430623	0.050047	
-0.108028	0.370407	0	
-0.0877906	0.441353	0	
-0.053688	0.446786	0.0500062	
0.415746	0.172208	0.1	
0.355442	0.107822	0.1	
0.349981	0.18562	0.1	
0.430623	0.130628	0.050047	
-0.446786	0.053688	0.0499938	
-0.362114	0.10176	0	
-0.441353	0.0877906	0	
-0.430623	0.130628	0.049953	
-0.0536856	-0.446786	0.05	
0	-0.45	0.05	
0	-0.45	0	
-0.0383965	-0.372403	0	
-0.108028	0.370407	0	
-0.0339688	0.375665	0	
-0.0877906	0.441353	0	
-0.053688	0.446786	0.0500062	
-0.112529	-0.0425202	0.1	
-0.088703	-0.0138649	0.0491848	
-0.0647576	-0.0686517	0.0541732	
-0.142279	-0.0393203	0.0487826	
0.374822	-0.0324999	0.1	
0.45	0	0.1	
0.45	0	0.05	
0.387235	0.0357483	0.1	
-0.0536856	-0.446786	0.05	
0	-0.45	0.1	
0	-0.45	0.05	
-0.0276628	-0.367444	0.1	
0.0868431	-0.0680824	0.1	
0.0401753	-0.0586342	0.1	
0.0662467	-0.0253248	0.1	
0.0512771	-0.0404658	0.045086	
0.228237	0.281807	0	
0.285475	0.347856	0.0500185	
0.250007	0.374161	0	
0.18581	0.349201	0	
-0.441353	-0.0877906	0.1	
-0.373197	-0.0467972	0.1	
-0.356724	-0.11546	0.1	
-0.430623	-0.130628	0.049953	
0.108307	-0.130924	0	
0.0279075	-0.16395	0	
0.0922363	-0.215793	0	
0.062652	-0.118801	0.041886	
-0.318198	-0.318198	0	
-0.298599	-0.245054	0	
-0.285476	-0.347855	0.0499731	
-0.223685	-0.271786	0	
-0.045	0	0.1	
-0.0318198	0.0318198	0.1	
-0.0201457	0.00856081	0.1	
-0.0436673	0.0180876	0.0496986	
-0.104718	-0.361527	0.1	
-0.0877906	-0.441353	0.1	
-0.0536856	-0.446786	0.05	
-0.0276628	-0.367444	0.1	
-0.153293	-0.011499	0.1	
-0.157075	-0.0653284	0.1	
-0.203899	-0.0323666	0.1	
-0.142279	-0.0393203	0.0487826	
0.0516213	0.0106253	0	
0.0060848	-2.90377e-05	0.0422367	
0.0398215	-0.0765894	0	
0.0512771	-0.0404658	0.045086	
-0.250007	-0.374161	0	
-0.285476	-0.347855	0.0499731	
-0.182092	-0.340669	0	
-0.223685	-0.271786	0	
0.0488551	-0.0983509	0.1	
0.062652	-0.118801	0.041886	
0.0142935	-0.12453	0.1	
0.00260765	-0.105267	0.0427151	
0.257787	-0.293807	0.1	
0.318198	-0.318198	0.1	
0.285477	-0.347855	0.0499669	
0.347855	-0.285477	0.0499717	
-0.0538392	-0.0535857	0.1	
-0.0276546	-0.0671169	0.1	
-0.0619298	-0.0870419	0.1	
-0.0647576	-0.0686517	0.0541732	
0.114815	0.0394603	0.1	
0.0714224	0.0228299	0.1	
0.0858783	0.0607949	0.1	
0.0969794	0.021072	0.0441191	
0.374822	-0.0324999	0.1	
0.45	0	0.05	
0.45	0	0.1	
0.446786	-0.053688	0.0499938	
0.0398215	-0.0765894	0	
-0.0200153	-0.0483211	0.048598	
-0.0415815	-0.110392	0	
0.00260765	-0.105267	0.0427151	
0.0404591	-0.377182	0	
0	-0.45	0.05	
0	-0.45	0	
0.053688	-0.446786	0.0500062	
-0.0611924	0.0535755	0.1	
-0.0949426	0.0752698	0.1	
-0.0583523	0.0875158	0.1	
-0.0733988	0.0716859	0.0422482	
-0.446786	0.053688	0.0499938	
-0.45	0	0.1	
-0.45	0	0.05	
-0.372975	0.0289182	0.1	
0.0142935	-0.12453	0.1	
-0.0251864	-0.106886	0.1	
0.00728726	-0.0832273	0.1	
0.00260765	-0.105267	0.0427151	
-0.153293	-0.011499	0.1	
-0.104461	0.000932435	0.1	
-0.112529	-0.0425202	0.1	
-0.142279	-0.0393203	0.0487826	
0.0398215	-0.0765894	0	
0.0060848	-2.90377e-05	0.0422367	
-0.0299174	-0.0229457	0	
-0.0200153	-0.0483211	0.048598	
-0.0339688	0.375665	0	
0	0.45	0.05	
0	0.45	0	
-0.053688	0.446786	0.0500062	
0.0516213	0.0106253	0	
0.0632975	0.0980676	0	
0.0396544	0.04868	0.0438187	
0.0969794	0.021072	0.0441191	
-0.45	0	0	
-0.45	0	0.05	
-0.446786	-0.053688	0.0499938	
-0.379429	-0.0366192	0	
0.0318198	-0.0318198	0.1	
0.0662467	-0.0253248	0.1	
0.0401753	-0.0586342	0.1	
0.0512771	-0.0404658	0.045086	
0.0516213	0.0106253	0	
0.0396544	0.04868	0.0438187	
0.0060848	-2.90377e-05	0.0422367	
0.0512771	-0.0404658	0.045086	
0	-0.045	0.1	
-0.0276546	-0.0671169	0.1	
-0.0318198	-0.0318198	0.1	
-0.0200153	-0.0483211	0.048598	
-0.080591	-0.0588792	0.1	
-0.088703	-0.0138649	0.0491848	
-0.0712343	-0.0265969	0.1	
-0.0647576	-0.0686517	0.0541732	
-0.080591	-0.0588792	0.1	
-0.0619298	-0.0870419	0.1	
-0.108753	-0.0943056	0.1	
-0.0647576	-0.0686517	0.0541732	
-0.0997698	0.0308567	0	
-0.0299174	-0.0229457	0	
-0.0182151	0.0644617	0	
-0.0436673	0.0180876	0.0496986	
-0.0299174	-0.0229457	0	
0.0516213	0.0106253	0	
-0.0182151	0.0644617	0	
0.0060848	-2.90377e-05	0.0422367	
-0.0182151	0.0644617	0	
0.0516213	0.0106253	0	
0.0632975	0.0980676	0	
0.0396544	0.04868	0.0438187	
0.0396544	0.04868	0.0438187	
0.0512771	-0.0404658	0.045086	
0.0516213	0.0106253	0	
0.0969794	0.021072	0.0441191	
0.12107	-0.0431928	0	
0.0398215	-0.0765894	0	
0.108307	-0.130924	0	
0.062652	-0.118801	0.041886	
-0.0415815	-0.110392	0	
-0.0299174	-0.0229457	0	
-0.111446	-0.0565624	0	
-0.0647576	-0.0686517	0.0541732	
-0.0415815	-0.110392	0	
0.0398215	-0.0765894	0	
-0.0299174	-0.0229457	0	
-0.0200153	-0.0483211	0.048598	
-0.0299174	-0.0229457	0	
0.0398215	-0.0765894	0	
0.0516213	0.0106253	0	
0.0060848	-2.90377e-05	0.0422367	
-0.111446	-0.0565624	0	
-0.088703	-0.0138649	0.0491848	
-0.0997698	0.0308567	0	
-0.142279	-0.0393203	0.0487826	
-0.0880857	0.11829	0	
-0.0997698	0.0308567	0	
-0.0182151	0.0644617	0	
-0.0733988	0.0716859	0.0422482	
0.044217	-0.387842	0.1	
0	-0.45	0.1	
0	-0.45	0.05	
0.053688	-0.446786	0.0500062	
-0.169647	0.0846842	0	
-0.0997698	0.0308567	0	
-0.0880857	0.11829	0	
-0.0733988	0.0716859	0.0422482	
-0.053688	0.446786	0.0500062	
0	0.45	0.05	
0	0.45	0.1	
-0.0358979	0.379949	0.1	
-0.111446	-0.0565624	0	
-0.0997698	0.0308567	0	
-0.181323	-0.0027565	0	
-0.142279	-0.0393203	0.0487826	
-0.0182151	0.0644617	0	
0.0632975	0.0980676	0	
-0.00652201	0.151895	0	
0.0186333	0.101613	0.0479424	
-0.111446	-0.0565624	0	
-0.0299174	-0.0229457	0	
-0.0997698	0.0308567	0	
-0.088703	-0.0138649	0.0491848	
0.0139627	0.124614	0.1	
0.00442099	0.0829354	0.1	
-0.0254114	0.106009	0.1	
0.0186333	0.101613	0.0479424	
0.0398215	-0.0765894	0	
-0.0415815	-0.110392	0	
0.0279075	-0.16395	0	
0.00260765	-0.105267	0.0427151	
-0.0415815	-0.110392	0	
-0.0200153	-0.0483211	0.048598	
-0.0299174	-0.0229457	0	
-0.0647576	-0.0686517	0.0541732	
-0.0436673	0.0180876	0.0496986	
-0.0733988	0.0716859	0.0422482	
-0.0997698	0.0308567	0	
-0.088703	-0.0138649	0.0491848	
0.0516213	0.0106253	0	
0.132963	0.044259	0	
0.0632975	0.0980676	0	
0.0969794	0.021072	0.0441191	
0.318198	-0.318198	0.1	
0.257787	-0.293807	0.1	
0.287124	-0.235637	0.1	
0.347855	-0.285477	0.0499717	
0.0488551	-0.0983509	0.1	
0.0864603	-0.112342	0.1	
0.0587245	-0.143156	0.1	
0.062652	-0.118801	0.041886	
0.0398215	-0.0765894	0	
0.12107	-0.0431928	0	
0.0516213	0.0106253	0	
0.0512771	-0.0404658	0.045086	
-0.104461	0.000932435	0.1	
-0.088703	-0.0138649	0.0491848	
-0.112529	-0.0425202	0.1	
-0.142279	-0.0393203	0.0487826	
0.0516213	0.0106253	0	
0.12107	-0.0431928	0	
0.132963	0.044259	0	
0.0969794	0.021072	0.0441191	
0	0.45	0.05	
0	0.45	0	
0.053688	0.446786	0.0499938	
0.0381609	0.387454	0	
-0.111446	-0.0565624	0	
-0.0299174	-0.0229457	0	
-0.088703	-0.0138649	0.0491848	
-0.0647576	-0.0686517	0.0541732	
0.108307	-0.130924	0	
0.0398215	-0.0765894	0	
0.0279075	-0.16395	0	
0.062652	-0.118801	0.041886	
0.0516213	0.0106253	0	
0.0512771	-0.0404658	0.045086	
0.12107	-0.0431928	0	
0.0969794	0.021072	0.0441191	
-0.0299174	-0.0229457	0	
0.0060848	-2.90377e-05	0.0422367	
-0.0182151	0.0644617	0	
-0.0436673	0.0180876	0.0496986	
0.45	0	0	
0.45	0	0.05	
0.384421	-0.0378621	0	
0.446786	-0.053688	0.0499938	
-0.0997698	0.0308567	0	
-0.0436673	0.0180876	0.0496986	
-0.0182151	0.0644617	0	
-0.0733988	0.0716859	0.0422482	
0.387235	0.0357483	0.1	
0.45	0	0.1	
0.45	0	0.05	
0.446786	0.053688	0.0500062	
-0.0299174	-0.0229457	0	
-0.0436673	0.0180876	0.0496986	
-0.0997698	0.0308567	0	
-0.088703	-0.0138649	0.0491848	
-0.0182151	0.0644617	0	
0.0060848	-2.90377e-05	0.0422367	
0.0516213	0.0106253	0	
0.0396544	0.04868	0.0438187	
0.446786	0.053688	0.0500062	
0.441353	0.0877906	0	
0.45	0	0	
0.363227	0.0380543	0	
0.114815	0.0394603	0.1	
0.104819	-0.00331638	0.1	
0.0714224	0.0228299	0.1	
0.0969794	0.021072	0.0441191	
-0.389559	0.0336032	0	
-0.45	0	0	
-0.45	0	0.05	
-0.446786	0.053688	0.0499938	
-0.0536856	-0.446786	0.05	
0	-0.45	0	
-0.0877906	-0.441353	0	
-0.0383965	-0.372403	0	
-0.0877906	-0.441353	0.1	
0	-0.45	0.1	
-0.0536856	-0.446786	0.05	
-0.0276628	-0.367444	0.1	
-0.0200153	-0.0483211	0.048598	
-0.088703	-0.0138649	0.0491848	
-0.0299174	-0.0229457	0	
-0.0647576	-0.0686517	0.0541732	
-0.0299174	-0.0229457	0	
-0.0200153	-0.0483211	0.048598	
-0.0436673	0.0180876	0.0496986	
-0.088703	-0.0138649	0.0491848	
-0.181323	-0.0027565	0	
-0.190622	-0.0884834	0	
-0.111446	-0.0565624	0	
-0.142279	-0.0393203	0.0487826	
0	0.45	0.1	
0.0877906	0.441353	0.1	
0.0450774	0.367889	0.1	
0.053688	0.446786	0.0499938	
-0.104461	0.000932435	0.1	
-0.0712343	-0.0265969	0.1	
-0.112529	-0.0425202	0.1	
-0.088703	-0.0138649	0.0491848	
-0.0182151	0.0644617	0	
0.0396544	0.04868	0.0438187	
0.0632975	0.0980676	0	
0.0186333	0.101613	0.0479424	
0.0398215	-0.0765894	0	
0.0512771	-0.0404658	0.045086	
-0.0200153	-0.0483211	0.048598	
0.00260765	-0.105267	0.0427151	
0.441353	-0.0877906	0.1	
0.374822	-0.0324999	0.1	
0.45	0	0.1	
0.446786	-0.053688	0.0499938	
-0.441353	0.0877906	0.1	
-0.45	0	0.1	
-0.446786	0.053688	0.0499938	
-0.372975	0.0289182	0.1	
-0.396863	-0.212131	0.0499815	
-0.374161	-0.250007	0	
-0.415746	-0.172208	0	
-0.327578	-0.175094	0	
-0.0415815	-0.110392	0	
0.00260765	-0.105267	0.0427151	
-0.0200153	-0.0483211	0.048598	
-0.0647576	-0.0686517	0.0541732	
-0.373197	-0.0467972	0.1	
-0.441353	-0.0877906	0.1	
-0.45	0	0.1	
-0.446786	-0.053688	0.0499938	
-0.0339688	0.375665	0	
0	0.45	0	
-0.0877906	0.441353	0	
-0.053688	0.446786	0.0500062	
-0.415746	0.172208	0.1	
-0.441353	0.0877906	0.1	
-0.430623	0.130628	0.049953	
-0.355442	0.107822	0.1	
0.430623	-0.130628	0.049953	
0.441353	-0.0877906	0.1	
0.357114	-0.107098	0.1	
0.415746	-0.172208	0.1	
-0.285476	-0.347855	0.0499731	
-0.250007	-0.374161	0	
-0.318198	-0.318198	0	
-0.223685	-0.271786	0	
-0.318198	-0.318198	0.1	
-0.250007	-0.374161	0.1	
-0.285476	-0.347855	0.0499731	
-0.237792	-0.287474	0.1	
-0.111446	-0.0565624	0	
-0.0647576	-0.0686517	0.0541732	
-0.088703	-0.0138649	0.0491848	
-0.142279	-0.0393203	0.0487826	
-0.446786	-0.053688	0.0499938	
-0.441353	-0.0877906	0	
-0.45	0	0	
-0.379429	-0.0366192	0	
0.374161	-0.250007	0.1	
0.318198	-0.318198	0.1	
0.287124	-0.235637	0.1	
0.347855	-0.285477	0.0499717	
-0.374161	0.250007	0	
-0.415746	0.172208	0	
-0.32913	0.168426	0	
-0.396865	0.212129	0.0500047	
-0.173995	-0.331361	0.1	
-0.250007	-0.374161	0.1	
-0.212128	-0.396865	0.0499723	
-0.172208	-0.415746	0.1	
-0.0737761	0.00176994	0.1	
-0.0712343	-0.0265969	0.1	
-0.104461	0.000932435	0.1	
-0.088703	-0.0138649	0.0491848	
0.0405437	0.0931998	0.1	
0.00442099	0.0829354	0.1	
0.0139627	0.124614	0.1	
0.0186333	0.101613	0.0479424	
0	-0.45	0	
0.0877906	-0.441353	0	
0.0404591	-0.377182	0	
0.053688	-0.446786	0.0500062	
0.396865	-0.212129	0.0499751	
0.415746	-0.172208	0.1	
0.331486	-0.177371	0.1	
0.374161	-0.250007	0.1	
0.172208	-0.415746	0	
0.250007	-0.374161	0	
0.175084	-0.3275	0	
0.212129	-0.396865	0.0500047	
0.396862	0.212133	0.0500072	
0.374161	0.250007	0	
0.415746	0.172208	0	
0.329177	0.174808	0	
0.0877906	0.441353	0	
0.172208	0.415746	0	
0.130628	0.430623	0.049953	
0.107822	0.355442	0	
-0.112529	-0.0425202	0.1	
-0.157075	-0.0653284	0.1	
-0.153293	-0.011499	0.1	
-0.142279	-0.0393203	0.0487826	
-0.318198	-0.318198	0.1	
-0.347846	-0.285488	0.0499977	
-0.374161	-0.250007	0.1	
-0.29175	-0.237189	0.1	
-0.172208	0.415746	0.1	
-0.250007	0.374161	0.1	
-0.212129	0.396865	0.0500166	
-0.182284	0.324323	0.1	
0.0398215	-0.0765894	0	
0.062652	-0.118801	0.041886	
0.0512771	-0.0404658	0.045086	
0.00260765	-0.105267	0.0427151	
-0.318198	0.318198	0.1	
-0.374161	0.250007	0.1	
-0.347855	0.285477	0.0500334	
-0.292926	0.235471	0.1	
-0.356724	-0.11546	0.1	
-0.415746	-0.172208	0.1	
-0.441353	-0.0877906	0.1	
-0.430623	-0.130628	0.049953	
-0.396863	-0.212131	0.0499815	
-0.415746	-0.172208	0.1	
-0.374161	-0.250007	0.1	
-0.331484	-0.17939	0.1	
-0.0877906	-0.441353	0	
-0.172208	-0.415746	0	
-0.130611	-0.430628	0.05	
-0.112928	-0.360216	0	
0.348465	-0.103096	0	
0.415746	-0.172208	0	
0.441353	-0.0877906	0	
0.430623	-0.130628	0.049953	
-0.053688	0.446786	0.0500062	
0	0.45	0.1	
-0.0877906	0.441353	0.1	
-0.0358979	0.379949	0.1	
0.250007	0.374161	0	
0.318198	0.318198	0	
0.285475	0.347856	0.0500185	
0.228237	0.281807	0	
-0.173131	0.322508	0	
-0.172208	0.415746	0	
-0.250007	0.374161	0	
-0.212129	0.396865	0.0500166	
0.0877906	-0.441353	0.1	
0.109857	-0.362973	0.1	
0.172208	-0.415746	0.1	
0.130628	-0.430623	0.050047	
-0.318198	0.318198	0	
-0.374161	0.250007	0	
-0.287124	0.235637	0	
-0.347855	0.285477	0.0500334	
0.415746	0.172208	0.1	
0.441353	0.0877906	0.1	
0.355442	0.107822	0.1	
0.430623	0.130628	0.050047	
-0.362114	0.10176	0	
-0.415746	0.172208	0	
-0.441353	0.0877906	0	
-0.430623	0.130628	0.049953	
0.0398215	-0.0765894	0	
0.0279075	-0.16395	0	
0.062652	-0.118801	0.041886	
0.00260765	-0.105267	0.0427151	
-0.0877906	0.441353	0.1	
-0.172208	0.415746	0.1	
-0.130628	0.430623	0.050047	
-0.10824	0.362258	0.1	
0.053688	0.446786	0.0499938	
0	0.45	0	
0.0877906	0.441353	0	
0.0381609	0.387454	0	
0.245754	0.289669	0.1	
0.250007	0.374161	0.1	
0.318198	0.318198	0.1	
0.285475	0.347856	0.0500185	
-0.389559	0.0336032	0	
-0.441353	0.0877906	0	
-0.45	0	0	
-0.446786	0.053688	0.0499938	
0	-0.45	0.1	
0.044217	-0.387842	0.1	
0.0877906	-0.441353	0.1	
0.053688	-0.446786	0.0500062	
0.387235	0.0357483	0.1	
0.441353	0.0877906	0.1	
0.45	0	0.1	
0.446786	0.053688	0.0500062	
-0.0877906	-0.441353	0.1	
-0.130611	-0.430628	0.05	
-0.172208	-0.415746	0.1	
-0.104718	-0.361527	0.1	
-0.0619298	-0.0870419	0.1	
-0.080591	-0.0588792	0.1	
-0.0538392	-0.0535857	0.1	
-0.0647576	-0.0686517	0.0541732	
0.180378	0.336857	0.1	
0.172208	0.415746	0.1	
0.250007	0.374161	0.1	
0.212116	0.396871	0.049999	
0.212129	-0.396865	0.0500047	
0.187286	-0.334755	0.1	
0.172208	-0.415746	0.1	
0.250007	-0.374161	0.1	
0.304312	0.234791	0.1	
0.318198	0.318198	0.1	
0.374161	0.250007	0.1	
0.347853	0.285478	0.0500065	
0.347855	-0.285477	0.0499717	
0.374161	-0.250007	0	
0.318198	-0.318198	0	
0.29265	-0.244884	0	
0.415746	0.172208	0	
0.441353	0.0877906	0	
0.430623	0.130628	0.050047	
0.369533	0.112832	0	
0.384421	-0.0378621	0	
0.441353	-0.0877906	0	
0.45	0	0	
0.446786	-0.053688	0.0499938	
-0.248262	0.29482	0	
-0.250007	0.374161	0	
-0.318198	0.318198	0	
-0.285477	0.347855	0.049986	
0.0877906	-0.441353	0	
0.172208	-0.415746	0	
0.111895	-0.372646	0	
0.130628	-0.430623	0.050047	
-0.415746	-0.172208	0	
-0.441353	-0.0877906	0	
-0.430623	-0.130628	0.049953	
-0.365881	-0.111705	0	
0.0060848	-2.90377e-05	0.0422367	
-0.0436673	0.0180876	0.0496986	
-0.0299174	-0.0229457	0	
-0.0200153	-0.0483211	0.048598	
-0.0877906	0.441353	0	
-0.172208	0.415746	0	
-0.108028	0.370407	0	
-0.130628	0.430623	0.050047	
0.318198	-0.318198	0.1	
0.257787	-0.293807	0.1	
0.285477	-0.347855	0.0499669	
0.250007	-0.374161	0.1	
0.120589	0.374273	0.1	
0.0877906	0.441353	0.1	
0.172208	0.415746	0.1	
0.130628	0.430623	0.049953	
0.339399	-0.183579	0	
0.374161	-0.250007	0	
0.415746	-0.172208	0	
0.396865	-0.212129	0.0499751	
0.347853	0.285478	0.0500065	
0.318198	0.318198	0	
0.374161	0.250007	0	
0.297412	0.240191	0	
0.374161	0.250007	0.1	
0.415746	0.172208	0.1	
0.349981	0.18562	0.1	
0.396862	0.212133	0.0500072	
0.285477	-0.347855	0.0499669	
0.318198	-0.318198	0	
0.250007	-0.374161	0	
0.25204	-0.306462	0	
-0.396865	0.212129	0.0500047	
-0.374161	0.250007	0.1	
-0.415746	0.172208	0.1	
-0.351668	0.187175	0.1	
-0.298599	-0.245054	0	
-0.374161	-0.250007	0	
-0.318198	-0.318198	0	
-0.347846	-0.285488	0.0499977	
-0.212128	-0.396865	0.0499723	
-0.172208	-0.415746	0	
-0.250007	-0.374161	0	
-0.182092	-0.340669	0	
-0.285477	0.347855	0.049986	
-0.250007	0.374161	0.1	
-0.318198	0.318198	0.1	
-0.251772	0.306785	0.1	
0.172208	0.415746	0	
0.250007	0.374161	0	
0.212116	0.396871	0.049999	
0.18581	0.349201	0	
0.201967	-0.00950962	0	
0.136366	-0.0453365	0.1	
0.190166	-0.0983881	0	
0.194544	-0.0323862	0.1	
0.201967	-0.00950962	0	
0.190166	-0.0983881	0	
0.136366	-0.0453365	0.1	
0.12107	-0.0431928	0	
-0.256491	-0.0362829	0	
-0.209136	-0.0909343	0.1	
-0.275518	-0.12132	0	
-0.190622	-0.0884834	0	
-0.275518	-0.12132	0	
-0.209136	-0.0909343	0.1	
-0.256491	-0.0362829	0	
-0.258057	-0.0572365	0.1	
-0.110394	-0.216726	0.1	
-0.0659287	-0.28985	0	
-0.0529805	-0.19738	0	
-0.0496677	-0.250381	0.1	
-0.110394	-0.216726	0.1	
-0.0529805	-0.19738	0	
-0.0659287	-0.28985	0	
-0.133674	-0.228308	0	
0.0279075	-0.16395	0	
0.0204871	-0.24099	0.1	
-0.0142517	-0.205249	0.1	
0.0148093	-0.246449	0	
-0.0142517	-0.205249	0.1	
0.0204871	-0.24099	0.1	
0.0279075	-0.16395	0	
0.0207402	-0.174187	0.1	
-0.142279	-0.0393203	0.0487826	
-0.104461	0.000932435	0.1	
-0.140177	0.0445127	0.1	
-0.153293	-0.011499	0.1	
-0.142279	-0.0393203	0.0487826	
-0.140177	0.0445127	0.1	
-0.104461	0.000932435	0.1	
-0.088703	-0.0138649	0.0491848	
-0.142279	-0.0393203	0.0487826	
-0.19804	0.0242816	0.1	
-0.140177	0.0445127	0.1	
-0.181323	-0.0027565	0	
-0.142279	-0.0393203	0.0487826	
-0.140177	0.0445127	0.1	
-0.19804	0.0242816	0.1	
-0.153293	-0.011499	0.1	
0.29265	-0.244884	0	
0.268615	-0.174062	0.1	
0.216652	-0.249073	0	
0.287124	-0.235637	0.1	
0.29265	-0.244884	0	
0.216652	-0.249073	0	
0.268615	-0.174062	0.1	
0.261818	-0.161797	0	
0.237285	0.176133	0	
0.168985	0.119579	0.1	
0.213357	0.0766959	0	
0.230865	0.135658	0.1	
0.237285	0.176133	0	
0.213357	0.0766959	0	
0.168985	0.119579	0.1	
0.144601	0.131477	0	
0.0922363	-0.215793	0	
0.0204871	-0.24099	0.1	
0.0279075	-0.16395	0	
0.0148093	-0.246449	0	
0.0279075	-0.16395	0	
0.0204871	-0.24099	0.1	
0.0922363	-0.215793	0	
0.0725059	-0.197526	0.1	
0.0186333	0.101613	0.0479424	
0.0250698	0.0602098	0.1	
0	0.045	0.1	
0.0396544	0.04868	0.0438187	
0.0186333	0.101613	0.0479424	
0	0.045	0.1	
0.0250698	0.0602098	0.1	
0.00442099	0.0829354	0.1	
-0.0318198	-0.0318198	0.1	
-0.0647576	-0.0686517	0.0541732	
-0.0276546	-0.0671169	0.1	
-0.0538392	-0.0535857	0.1	
-0.0276546	-0.0671169	0.1	
-0.0647576	-0.0686517	0.0541732	
-0.0318198	-0.0318198	0.1	
-0.0200153	-0.0483211	0.048598	
0.044217	-0.387842	0.1	
0.111895	-0.372646	0	
0.0511003	-0.317442	0.1	
0.109857	-0.362973	0.1	
0.0511003	-0.317442	0.1	
0.111895	-0.372646	0	
0.044217	-0.387842	0.1	
0.0404591	-0.377182	0	
0.0906227	0.254757	0.1	
0.154944	0.223937	0	
0.0750467	0.185499	0	
0.0872949	0.269115	0	
0.0750467	0.185499	0	
0.154944	0.223937	0	
0.0906227	0.254757	0.1	
0.129359	0.208003	0.1	
0.0060848	-2.90377e-05	0.0422367	
0.0512771	-0.0404658	0.045086	
0	-0.045	0.1	
-0.0200153	-0.0483211	0.048598	
-0.0606984	0.0243229	0.1	
-0.088703	-0.0138649	0.0491848	
-0.045	0	0.1	
-0.0737761	0.00176994	0.1	
-0.045	0	0.1	
-0.088703	-0.0138649	0.0491848	
-0.0606984	0.0243229	0.1	
-0.0436673	0.0180876	0.0496986	
0.00260765	-0.105267	0.0427151	
0.0401753	-0.0586342	0.1	
-0.0200153	-0.0483211	0.048598	
0.00728726	-0.0832273	0.1	
0.00260765	-0.105267	0.0427151	
-0.0200153	-0.0483211	0.048598	
0.0401753	-0.0586342	0.1	
0.0512771	-0.0404658	0.045086	
-0.0358979	0.379949	0.1	
0.0381609	0.387454	0	
-0.00311199	0.32667	0.1	
-0.0339688	0.375665	0	
-0.00311199	0.32667	0.1	
0.0381609	0.387454	0	
-0.0358979	0.379949	0.1	
0.0450774	0.367889	0.1	
-0.10824	0.362258	0.1	
-0.0339688	0.375665	0	
-0.053688	0.446786	0.0500062	
-0.0358979	0.379949	0.1	
-0.10824	0.362258	0.1	
-0.053688	0.446786	0.0500062	
-0.0339688	0.375665	0	
-0.108028	0.370407	0	
-0.312956	-0.0762135	0.1	
-0.365881	-0.111705	0	
-0.373197	-0.0467972	0.1	
-0.318623	-0.0616012	0	
-0.373197	-0.0467972	0.1	
-0.365881	-0.111705	0	
-0.312956	-0.0762135	0.1	
-0.356724	-0.11546	0.1	
-0.209136	-0.0909343	0.1	
-0.142279	-0.0393203	0.0487826	
-0.160221	-0.122206	0.1	
-0.190622	-0.0884834	0	
-0.160221	-0.122206	0.1	
-0.142279	-0.0393203	0.0487826	
-0.209136	-0.0909343	0.1	
-0.157075	-0.0653284	0.1	
0.339399	-0.183579	0	
0.268615	-0.174062	0.1	
0.287371	-0.120299	0.1	
0.261818	-0.161797	0	
0.287371	-0.120299	0.1	
0.268615	-0.174062	0.1	
0.339399	-0.183579	0	
0.331486	-0.177371	0.1	
0.107822	0.355442	0	
0.053688	0.446786	0.0499938	
0.0877906	0.441353	0	
0.0381609	0.387454	0	
0.107822	0.355442	0	
0.0877906	0.441353	0	
0.053688	0.446786	0.0499938	
0.130628	0.430623	0.049953	
-0.104718	-0.361527	0.1	
-0.13795	-0.29702	0	
-0.0615368	-0.322264	0.1	
-0.112928	-0.360216	0	
-0.104718	-0.361527	0.1	
-0.0615368	-0.322264	0.1	
-0.13795	-0.29702	0	
-0.111587	-0.287654	0.1	
-0.0659287	-0.28985	0	
-0.0615368	-0.322264	0.1	
-0.13795	-0.29702	0	
-0.112928	-0.360216	0	
-0.0659287	-0.28985	0	
-0.13795	-0.29702	0	
-0.0615368	-0.322264	0.1	
-0.111587	-0.287654	0.1	
-0.269145	-0.181189	0.1	
-0.331484	-0.17939	0.1	
-0.265692	-0.195501	0	
-0.29175	-0.237189	0.1	
-0.269145	-0.181189	0.1	
-0.265692	-0.195501	0	
-0.331484	-0.17939	0.1	
-0.327578	-0.175094	0	
-0.298599	-0.245054	0	
-0.265692	-0.195501	0	
-0.331484	-0.17939	0.1	
-0.29175	-0.237189	0.1	
-0.298599	-0.245054	0	
-0.331484	-0.17939	0.1	
-0.265692	-0.195501	0	
-0.327578	-0.175094	0	
-0.351668	0.187175	0.1	
-0.287124	0.235637	0	
-0.300257	0.152847	0.1	
-0.32913	0.168426	0	
-0.300257	0.152847	0.1	
-0.287124	0.235637	0	
-0.351668	0.187175	0.1	
-0.292926	0.235471	0.1	
0.331486	-0.177371	0.1	
0.348465	-0.103096	0	
0.430623	-0.130628	0.049953	
0.339399	-0.183579	0	
0.331486	-0.177371	0.1	
0.430623	-0.130628	0.049953	
0.348465	-0.103096	0	
0.357114	-0.107098	0.1	
0.0512771	-0.0404658	0.045086	
0.0202986	-0.00819178	0.1	
0	-0.045	0.1	
0.0318198	-0.0318198	0.1	
0.0512771	-0.0404658	0.045086	
0	-0.045	0.1	
0.0202986	-0.00819178	0.1	
0.0060848	-2.90377e-05	0.0422367	
0.357114	-0.107098	0.1	
0.384421	-0.0378621	0	
0.324791	-0.0252069	0	
0.374822	-0.0324999	0.1	
0.324791	-0.0252069	0	
0.384421	-0.0378621	0	
0.357114	-0.107098	0.1	
0.348465	-0.103096	0	
0.324791	-0.0252069	0	
0.303447	-0.0554764	0.1	
0.357114	-0.107098	0.1	
0.374822	-0.0324999	0.1	
0.357114	-0.107098	0.1	
0.303447	-0.0554764	0.1	
0.324791	-0.0252069	0	
0.348465	-0.103096	0	
0.0632975	0.0980676	0.2	
0.114043	0.0943971	0.1	
0.0858783	0.0607949	0.1	
0.0741079	0.088115	0.1	
0.132963	0.044259	0.2	
0.204676	0.0233192	0.1	
0.153315	0.00689278	0.1	
0.160735	0.0621263	0.1	
0	0.045	0.1	
0.00442099	0.0829354	0.1	
-0.0269211	0.0671862	0.1	
0.0186333	0.101613	0.152058	
-0.0791922	0.124893	0.1	
-0.0278782	0.153479	0.1	
-0.075941	0.18593	0.1	
-0.0880857	0.11829	0.2	
-0.0254114	0.106009	0.1	
-0.0278782	0.153479	0.1	
-0.0791922	0.124893	0.1	
-0.0880857	0.11829	0.2	
0.0858783	0.0607949	0.1	
0.0632975	0.0980676	0.2	
0.0741079	0.088115	0.1	
0.0396544	0.04868	0.156181	
0.160735	0.0621263	0.1	
0.114043	0.0943971	0.1	
0.114815	0.0394603	0.1	
0.0969794	0.021072	0.155881	
0	0.045	0.1	
-0.0269211	0.0671862	0.1	
-0.0318198	0.0318198	0.1	
-0.0436673	0.0180876	0.150301	
0.0986719	-0.0360043	0.1	
0.136366	-0.0453365	0.1	
0.104819	-0.00331638	0.1	
0.0969794	0.021072	0.155881	
0.0279075	-0.16395	0.2	
-0.0142517	-0.205249	0.1	
-0.0203113	-0.154489	0.1	
0.0207402	-0.174187	0.1	
0.0741079	0.088115	0.1	
0.0632975	0.0980676	0.2	
0.114043	0.0943971	0.1	
0.0691478	0.134694	0.1	
-0.0566812	-0.183891	0.1	
-0.0607822	-0.132192	0.1	
-0.109965	-0.155382	0.1	
-0.0529805	-0.19738	0.2	
0	0.045	0.1	
-0.0182151	0.0644617	0.2	
-0.0269211	0.0671862	0.1	
-0.0436673	0.0180876	0.150301	
0.183564	-0.0903245	0.1	
0.136366	-0.0453365	0.1	
0.190166	-0.0983881	0.2	
0.194544	-0.0323862	0.1	
-0.0203113	-0.154489	0.1	
-0.0607822	-0.132192	0.1	
-0.0566812	-0.183891	0.1	
-0.0529805	-0.19738	0.2	
0.136366	-0.0453365	0.1	
0.0868431	-0.0680824	0.1	
0.12107	-0.0431928	0.2	
0.0986719	-0.0360043	0.1	
-0.108753	-0.0943056	0.1	
-0.109965	-0.155382	0.1	
-0.0607822	-0.132192	0.1	
-0.12308	-0.143942	0.2	
-0.19804	0.0242816	0.1	
-0.253293	0.00301969	0.1	
-0.203899	-0.0323666	0.1	
-0.181323	-0.0027565	0.2	
-0.075941	0.18593	0.1	
-0.0278782	0.153479	0.1	
-0.0232097	0.208019	0.1	
-0.0758641	0.204419	0.2	
-0.13855	0.104902	0.1	
-0.140177	0.0445127	0.1	
-0.0949426	0.0752698	0.1	
-0.0733988	0.0716859	0.157752	
-0.12308	-0.143942	0.2	
-0.0607822	-0.132192	0.1	
-0.108753	-0.0943056	0.1	
-0.0647576	-0.0686517	0.145827	
-0.0254114	0.106009	0.1	
-0.0880857	0.11829	0.2	
-0.0791922	0.124893	0.1	
-0.0733988	0.0716859	0.157752	
0.0632975	0.0980676	0.2	
0.0858783	0.0607949	0.1	
0.114043	0.0943971	0.1	
0.0969794	0.021072	0.155881	
-0.29431	0.0991694	0.1	
-0.247343	0.061739	0.1	
-0.242461	0.118505	0.1	
-0.296313	0.0995627	0.2	
-0.1869	0.140647	0.1	
-0.242461	0.118505	0.1	
-0.191044	0.0809942	0.1	
-0.169647	0.0846842	0.2	
0.0236281	0.174203	0.1	
0.0750467	0.185499	0.2	
0.0783782	0.19473	0.1	
0.0312955	0.232251	0.1	
-0.131315	0.16418	0.1	
-0.0791922	0.124893	0.1	
-0.075941	0.18593	0.1	
-0.0880857	0.11829	0.2	
0.0139627	0.124614	0.1	
0.0236281	0.174203	0.1	
-0.0278782	0.153479	0.1	
0.0186333	0.101613	0.152058	
0.183564	-0.0903245	0.1	
0.190166	-0.0983881	0.2	
0.136366	-0.0453365	0.1	
0.130886	-0.100339	0.1	
0.0236281	0.174203	0.1	
0.0691478	0.134694	0.1	
0.0750467	0.185499	0.2	
0.0186333	0.101613	0.152058	
0.240073	-0.0744514	0.1	
0.26859	-0.0619166	0.2	
0.225509	-0.136032	0.1	
0.287371	-0.120299	0.1	
0.0864603	-0.112342	0.1	
0.130886	-0.100339	0.1	
0.0868431	-0.0680824	0.1	
0.062652	-0.118801	0.158114	
-0.109965	-0.155382	0.1	
-0.16441	-0.183508	0.1	
-0.110394	-0.216726	0.1	
-0.12308	-0.143942	0.2	
0.240073	-0.0744514	0.1	
0.201967	-0.00950962	0.2	
0.251733	-0.014256	0.1	
0.194544	-0.0323862	0.1	
-0.12308	-0.143942	0.2	
-0.108753	-0.0943056	0.1	
-0.160221	-0.122206	0.1	
-0.142279	-0.0393203	0.151217	
-0.191044	0.0809942	0.1	
-0.242461	0.118505	0.1	
-0.247343	0.061739	0.1	
-0.248332	0.050693	0.2	
0.204676	0.0233192	0.1	
0.255462	0.038247	0.1	
0.201967	-0.00950962	0.2	
0.251733	-0.014256	0.1	
-0.0201457	0.00856081	0.1	
0.00677135	0.0163475	0.1	
0	0.045	0.1	
-0.0436673	0.0180876	0.150301	
-0.0182151	0.0644617	0.2	
0	0.045	0.1	
-0.0269211	0.0671862	0.1	
0.0186333	0.101613	0.152058	
-0.203899	-0.0323666	0.1	
-0.153293	-0.011499	0.1	
-0.19804	0.0242816	0.1	
-0.142279	-0.0393203	0.151217	
-0.0572929	0.316053	0.1	
-0.0135764	0.270208	0.1	
-0.00311199	0.32667	0.1	
-0.0730421	0.296762	0.2	
0.144601	0.131477	0.2	
0.114043	0.0943971	0.1	
0.0691478	0.134694	0.1	
0.124146	0.156872	0.1	
-0.0318198	-0.0318198	0.1	
-0.00500969	-0.0120945	0.1	
-0.0201457	0.00856081	0.1	
-0.0436673	0.0180876	0.150301	
0.0868431	-0.0680824	0.1	
0.130886	-0.100339	0.1	
0.12107	-0.0431928	0.2	
0.062652	-0.118801	0.158114	
-0.108753	-0.0943056	0.1	
-0.157075	-0.0653284	0.1	
-0.160221	-0.122206	0.1	
-0.142279	-0.0393203	0.151217	
-0.175847	0.204716	0.1	
-0.237687	0.180874	0.1	
-0.1869	0.140647	0.1	
-0.155635	0.172227	0.2	
-0.0583523	0.0875158	0.1	
-0.0254114	0.106009	0.1	
-0.0791922	0.124893	0.1	
-0.0733988	0.0716859	0.157752	
-0.0712343	-0.0265969	0.1	
-0.0318198	-0.0318198	0.1	
-0.045	0	0.1	
-0.088703	-0.0138649	0.150815	
0.0236281	0.174203	0.1	
0.0783782	0.19473	0.1	
0.0750467	0.185499	0.2	
0.0691478	0.134694	0.1	
-0.0278782	0.153479	0.1	
-0.0232097	0.208019	0.1	
-0.00652201	0.151895	0.2	
0.0236281	0.174203	0.1	
0.0906227	0.254757	0.1	
0.0783782	0.19473	0.1	
0.0750467	0.185499	0.2	
0.0312955	0.232251	0.1	
-0.0254114	0.106009	0.1	
-0.0278782	0.153479	0.1	
-0.0880857	0.11829	0.2	
-0.00652201	0.151895	0.2	
0.0691478	0.134694	0.1	
0.0783782	0.19473	0.1	
0.0750467	0.185499	0.2	
0.124146	0.156872	0.1	
0.12107	-0.0431928	0.2	
0.0868431	-0.0680824	0.1	
0.136366	-0.0453365	0.1	
0.130886	-0.100339	0.1	
0.0986719	-0.0360043	0.1	
0.0868431	-0.0680824	0.1	
0.12107	-0.0431928	0.2	
0.0512771	-0.0404658	0.154914	
0.114043	0.0943971	0.1	
0.0858783	0.0607949	0.1	
0.114815	0.0394603	0.1	
0.0969794	0.021072	0.155881	
-0.0566812	-0.183891	0.1	
-0.109965	-0.155382	0.1	
-0.110394	-0.216726	0.1	
-0.0529805	-0.19738	0.2	
-0.131315	0.16418	0.1	
-0.1869	0.140647	0.1	
-0.13855	0.104902	0.1	
-0.155635	0.172227	0.2	
-0.0758641	0.204419	0.2	
-0.075941	0.18593	0.1	
-0.0278782	0.153479	0.1	
-0.0880857	0.11829	0.2	
0.114815	0.0394603	0.1	
0.153315	0.00689278	0.1	
0.160735	0.0621263	0.1	
0.0969794	0.021072	0.155881	
0.0783782	0.19473	0.1	
0.129359	0.208003	0.1	
0.0750467	0.185499	0.2	
0.124146	0.156872	0.1	
0.201967	-0.00950962	0.2	
0.132963	0.044259	0.2	
0.204676	0.0233192	0.1	
0.153315	0.00689278	0.1	
-0.140177	0.0445127	0.1	
-0.104461	0.000932435	0.1	
-0.0944203	0.0353385	0.1	
-0.088703	-0.0138649	0.150815	
-0.00652201	0.151895	0.2	
-0.0733988	0.0716859	0.157752	
-0.0254114	0.106009	0.1	
0.0186333	0.101613	0.152058	
-0.0318198	0.0318198	0.1	
-0.0269211	0.0671862	0.1	
-0.0611924	0.0535755	0.1	
-0.0436673	0.0180876	0.150301	
-0.0566812	-0.183891	0.1	
-0.0142517	-0.205249	0.1	
-0.0203113	-0.154489	0.1	
-0.0529805	-0.19738	0.2	
0.160735	0.0621263	0.1	
0.144601	0.131477	0.2	
0.168985	0.119579	0.1	
0.114043	0.0943971	0.1	
-0.0529805	-0.19738	0.2	
-0.0142517	-0.205249	0.1	
-0.0203113	-0.154489	0.1	
0.0279075	-0.16395	0.2	
0.183564	-0.0903245	0.1	
0.190166	-0.0983881	0.2	
0.240073	-0.0744514	0.1	
0.194544	-0.0323862	0.1	
-0.13855	0.104902	0.1	
-0.0791922	0.124893	0.1	
-0.131315	0.16418	0.1	
-0.0880857	0.11829	0.2	
-0.0254114	0.106009	0.1	
-0.0278782	0.153479	0.1	
-0.00652201	0.151895	0.2	
0.0186333	0.101613	0.152058	
0.0207402	-0.174187	0.1	
0.0725059	-0.197526	0.1	
0.0587245	-0.143156	0.1	
0.062652	-0.118801	0.158114	
0.153315	0.00689278	0.1	
0.104819	-0.00331638	0.1	
0.136366	-0.0453365	0.1	
0.0969794	0.021072	0.155881	
-0.0232097	0.208019	0.1	
-0.0135764	0.270208	0.1	
-0.0674604	0.249371	0.1	
0.00604814	0.236488	0.2	
0.0750467	0.185499	0.2	
0.129359	0.208003	0.1	
0.0783782	0.19473	0.1	
0.0906227	0.254757	0.1	
0.129359	0.208003	0.1	
0.179715	0.179275	0.1	
0.154944	0.223937	0.2	
0.124146	0.156872	0.1	
0.0401753	-0.0586342	0.1	
0	-0.045	0.1	
0.00728726	-0.0832273	0.1	
-0.0200153	-0.0483211	0.151402	
-0.0254114	0.106009	0.1	
-0.0583523	0.0875158	0.1	
-0.0269211	0.0671862	0.1	
-0.0733988	0.0716859	0.157752	
-0.19804	0.0242816	0.1	
-0.140177	0.0445127	0.1	
-0.191044	0.0809942	0.1	
-0.169647	0.0846842	0.2	
0.0858783	0.0607949	0.1	
0.0741079	0.088115	0.1	
0.0550025	0.059172	0.1	
0.0396544	0.04868	0.156181	
-0.191044	0.0809942	0.1	
-0.247343	0.061739	0.1	
-0.19804	0.0242816	0.1	
-0.248332	0.050693	0.2	
-0.0712343	-0.0265969	0.1	
-0.0538392	-0.0535857	0.1	
-0.0318198	-0.0318198	0.1	
-0.0647576	-0.0686517	0.145827	
-0.0203113	-0.154489	0.1	
-0.0607822	-0.132192	0.1	
-0.0415815	-0.110392	0.2	
0.00260765	-0.105267	0.157285	
-0.131315	0.16418	0.1	
-0.075941	0.18593	0.1	
-0.121547	0.224354	0.1	
-0.0758641	0.204419	0.2	
-0.0529805	-0.19738	0.2	
-0.0607822	-0.132192	0.1	
-0.109965	-0.155382	0.1	
-0.12308	-0.143942	0.2	
0.0279075	-0.16395	0.2	
0.0207402	-0.174187	0.1	
0.0725059	-0.197526	0.1	
0.0204871	-0.24099	0.1	
-0.247343	0.061739	0.1	
-0.29431	0.0991694	0.1	
-0.304909	0.0444641	0.1	
-0.296313	0.0995627	0.2	
0.0318198	0.0318198	0.1	
0	0.045	0.1	
0.00677135	0.0163475	0.1	
0.0396544	0.04868	0.156181	
0.153315	0.00689278	0.1	
0.204676	0.0233192	0.1	
0.201967	-0.00950962	0.2	
0.194544	-0.0323862	0.1	
-0.0529805	-0.19738	0.2	
-0.0203113	-0.154489	0.1	
-0.0607822	-0.132192	0.1	
-0.0415815	-0.110392	0.2	
0.12107	-0.0431928	0.2	
0.190166	-0.0983881	0.2	
0.136366	-0.0453365	0.1	
0.194544	-0.0323862	0.1	
-0.116127	0.293072	0.1	
-0.121547	0.224354	0.1	
-0.0674604	0.249371	0.1	
-0.138104	0.243902	0.2	
-0.0318198	0.0318198	0.1	
-0.0201457	0.00856081	0.1	
0	0.045	0.1	
-0.0436673	0.0180876	0.150301	
-0.111587	-0.287654	0.1	
-0.0496677	-0.250381	0.1	
-0.110394	-0.216726	0.1	
-0.0659287	-0.28985	0.2	
0.0632975	0.0980676	0.2	
0.0396544	0.04868	0.156181	
0.0858783	0.0607949	0.1	
0.0969794	0.021072	0.155881	
-0.0254114	0.106009	0.1	
-0.0733988	0.0716859	0.157752	
-0.0269211	0.0671862	0.1	
0.0186333	0.101613	0.152058	
-0.0201457	0.00856081	0.1	
-0.045	0	0.1	
-0.0318198	-0.0318198	0.1	
-0.0436673	0.0180876	0.150301	
-0.109965	-0.155382	0.1	
-0.108753	-0.0943056	0.1	
-0.160221	-0.122206	0.1	
-0.12308	-0.143942	0.2	
-0.0203113	-0.154489	0.1	
-0.0251864	-0.106886	0.1	
-0.0607822	-0.132192	0.1	
0.00260765	-0.105267	0.157285	
0.0236281	0.174203	0.1	
-0.0232097	0.208019	0.1	
0.00604814	0.236488	0.2	
0.0312955	0.232251	0.1	
0.384421	-0.0378621	0.2	
0.45	0	0.15	
0.374822	-0.0324999	0.1	
0.387235	0.0357483	0.1	
-0.0606984	0.0243229	0.1	
-0.0611924	0.0535755	0.1	
-0.0944203	0.0353385	0.1	
-0.0733988	0.0716859	0.157752	
-0.217835	-0.151685	0.1	
-0.265692	-0.195501	0.2	
-0.269145	-0.181189	0.1	
-0.225546	-0.215121	0.1	
0.129359	0.208003	0.1	
0.154944	0.223937	0.2	
0.0750467	0.185499	0.2	
0.124146	0.156872	0.1	
0.204676	0.0233192	0.1	
0.132963	0.044259	0.2	
0.213357	0.0766959	0.2	
0.160735	0.0621263	0.1	
-0.0758641	0.204419	0.2	
-0.131315	0.16418	0.1	
-0.075941	0.18593	0.1	
-0.0880857	0.11829	0.2	
-0.0278782	0.153479	0.1	
-0.0232097	0.208019	0.1	
-0.0758641	0.204419	0.2	
-0.00652201	0.151895	0.2	
-0.256491	-0.0362829	0.2	
-0.203899	-0.0323666	0.1	
-0.253293	0.00301969	0.1	
-0.181323	-0.0027565	0.2	
-0.0529805	-0.19738	0.2	
-0.109965	-0.155382	0.1	
-0.110394	-0.216726	0.1	
-0.12308	-0.143942	0.2	
0.190166	-0.0983881	0.2	
0.201967	-0.00950962	0.2	
0.240073	-0.0744514	0.1	
0.194544	-0.0323862	0.1	
-0.29431	0.0991694	0.1	
-0.242461	0.118505	0.1	
-0.300257	0.152847	0.1	
-0.296313	0.0995627	0.2	
-0.160221	-0.122206	0.1	
-0.16441	-0.183508	0.1	
-0.109965	-0.155382	0.1	
-0.12308	-0.143942	0.2	
-0.00652201	0.151895	0.2	
-0.0880857	0.11829	0.2	
-0.0254114	0.106009	0.1	
-0.0733988	0.0716859	0.157752	
0.0864603	-0.112342	0.1	
0.110168	-0.152489	0.1	
0.130886	-0.100339	0.1	
0.062652	-0.118801	0.158114	
0	-0.045	0.1	
0.0202986	-0.00819178	0.1	
-0.00500969	-0.0120945	0.1	
0.0060848	-2.90377e-05	0.157763	
-0.0251864	-0.106886	0.1	
-0.0607822	-0.132192	0.1	
0.00260765	-0.105267	0.157285	
-0.0647576	-0.0686517	0.145827	
-0.155635	0.172227	0.2	
-0.13855	0.104902	0.1	
-0.131315	0.16418	0.1	
-0.0880857	0.11829	0.2	
-0.0944203	0.0353385	0.1	
-0.0737761	0.00176994	0.1	
-0.0606984	0.0243229	0.1	
-0.088703	-0.0138649	0.150815	
0.153315	0.00689278	0.1	
0.136366	-0.0453365	0.1	
0.12107	-0.0431928	0.2	
0.0969794	0.021072	0.155881	
-0.13855	0.104902	0.1	
-0.169647	0.0846842	0.2	
-0.140177	0.0445127	0.1	
-0.0733988	0.0716859	0.157752	
0.0714224	0.0228299	0.1	
0.045	0	0.1	
0.0662467	-0.0253248	0.1	
0.0969794	0.021072	0.155881	
0.0986719	-0.0360043	0.1	
0.104819	-0.00331638	0.1	
0.0662467	-0.0253248	0.1	
0.0969794	0.021072	0.155881	
-0.140177	0.0445127	0.1	
-0.0944203	0.0353385	0.1	
-0.0997698	0.0308567	0.2	
-0.088703	-0.0138649	0.150815	
-0.275518	-0.12132	0.2	
-0.279108	-0.122562	0.1	
-0.217835	-0.151685	0.1	
-0.269145	-0.181189	0.1	
-0.140177	0.0445127	0.1	
-0.0944203	0.0353385	0.1	
-0.0949426	0.0752698	0.1	
-0.0733988	0.0716859	0.157752	
0.190166	-0.0983881	0.2	
0.12107	-0.0431928	0.2	
0.136366	-0.0453365	0.1	
0.130886	-0.100339	0.1	
0.0986719	-0.0360043	0.1	
0.12107	-0.0431928	0.2	
0.136366	-0.0453365	0.1	
0.0969794	0.021072	0.155881	
-0.217835	-0.151685	0.1	
-0.160221	-0.122206	0.1	
-0.209136	-0.0909343	0.1	
-0.190622	-0.0884834	0.2	
0.26859	-0.0619166	0.2	
0.225509	-0.136032	0.1	
0.190166	-0.0983881	0.2	
0.240073	-0.0744514	0.1	
0.0691478	0.134694	0.1	
0.0750467	0.185499	0.2	
0.144601	0.131477	0.2	
0.124146	0.156872	0.1	
-0.0997698	0.0308567	0.2	
-0.140177	0.0445127	0.1	
-0.088703	-0.0138649	0.150815	
-0.142279	-0.0393203	0.151217	
0.00677135	0.0163475	0.1	
0.0202986	-0.00819178	0.1	
0.0318198	0.0318198	0.1	
0.0060848	-2.90377e-05	0.157763	
0.45	0	0.15	
0.384421	-0.0378621	0.2	
0.363227	0.0380543	0.2	
0.387235	0.0357483	0.1	
-0.265692	-0.195501	0.2	
-0.275518	-0.12132	0.2	
-0.217835	-0.151685	0.1	
-0.269145	-0.181189	0.1	
0.0922363	-0.215793	0.2	
0.110168	-0.152489	0.1	
0.0725059	-0.197526	0.1	
0.062652	-0.118801	0.158114	
0.0401753	-0.0586342	0.1	
0.00728726	-0.0832273	0.1	
0.0488551	-0.0983509	0.1	
0.00260765	-0.105267	0.157285	
0.183564	-0.0903245	0.1	
0.168154	-0.150165	0.1	
0.190166	-0.0983881	0.2	
0.130886	-0.100339	0.1	
0.201967	-0.00950962	0.2	
0.153315	0.00689278	0.1	
0.12107	-0.0431928	0.2	
0.0969794	0.021072	0.155881	
-0.304909	0.0444641	0.1	
-0.29431	0.0991694	0.1	
-0.355442	0.107822	0.1	
-0.296313	0.0995627	0.2	
0.0139627	0.124614	0.1	
0.0691478	0.134694	0.1	
0.0236281	0.174203	0.1	
0.0186333	0.101613	0.152058	
0.255462	0.038247	0.1	
0.201967	-0.00950962	0.2	
0.213357	0.0766959	0.2	
0.204676	0.0233192	0.1	
-0.140177	0.0445127	0.1	
-0.0997698	0.0308567	0.2	
-0.0944203	0.0353385	0.1	
-0.0733988	0.0716859	0.157752	
-0.256491	-0.0362829	0.2	
-0.253293	0.00301969	0.1	
-0.203899	-0.0323666	0.1	
-0.258057	-0.0572365	0.1	
-0.379429	-0.0366192	0.2	
-0.389559	0.0336032	0.2	
-0.372975	0.0289182	0.1	
-0.45	0	0.15	
-0.170075	-0.251953	0.1	
-0.16441	-0.183508	0.1	
-0.225546	-0.215121	0.1	
-0.201609	-0.173762	0.2	
0.0202986	-0.00819178	0.1	
0.0318198	-0.0318198	0.1	
0.045	0	0.1	
0.0512771	-0.0404658	0.154914	
0.0207402	-0.174187	0.1	
0.0142935	-0.12453	0.1	
-0.0203113	-0.154489	0.1	
0.00260765	-0.105267	0.157285	
0.160735	0.0621263	0.1	
0.168985	0.119579	0.1	
0.213357	0.0766959	0.2	
0.216596	0.0778377	0.1	
-0.12308	-0.143942	0.2	
-0.0415815	-0.110392	0.2	
-0.0607822	-0.132192	0.1	
-0.0647576	-0.0686517	0.145827	
0.0632975	0.0980676	0.2	
0.0691478	0.134694	0.1	
0.0741079	0.088115	0.1	
0.0186333	0.101613	0.152058	
0.0725059	-0.197526	0.1	
0.082636	-0.254415	0.1	
0.0922363	-0.215793	0.2	
0.0204871	-0.24099	0.1	
-0.169647	0.0846842	0.2	
-0.19804	0.0242816	0.1	
-0.140177	0.0445127	0.1	
-0.181323	-0.0027565	0.2	
0.213357	0.0766959	0.2	
0.204676	0.0233192	0.1	
0.160735	0.0621263	0.1	
0.216596	0.0778377	0.1	
0.0447484	0.293988	0.1	
0.00604814	0.236488	0.2	
-0.0135764	0.270208	0.1	
0.0312955	0.232251	0.1	
0.160735	0.0621263	0.1	
0.132963	0.044259	0.2	
0.114043	0.0943971	0.1	
0.0969794	0.021072	0.155881	
-0.247343	0.061739	0.1	
-0.253293	0.00301969	0.1	
-0.19804	0.0242816	0.1	
-0.248332	0.050693	0.2	
-0.0529805	-0.19738	0.2	
0.0279075	-0.16395	0.2	
-0.0203113	-0.154489	0.1	
0.00260765	-0.105267	0.157285	
0.114043	0.0943971	0.1	
0.0632975	0.0980676	0.2	
0.144601	0.131477	0.2	
0.0691478	0.134694	0.1	
-0.275518	-0.12132	0.2	
-0.312956	-0.0762135	0.1	
-0.318623	-0.0616012	0.2	
-0.258057	-0.0572365	0.1	
-0.175847	0.204716	0.1	
-0.131315	0.16418	0.1	
-0.121547	0.224354	0.1	
-0.155635	0.172227	0.2	
0.255462	0.038247	0.1	
0.281012	0.0229437	0.2	
0.201967	-0.00950962	0.2	
0.251733	-0.014256	0.1	
-0.242461	0.118505	0.1	
-0.191044	0.0809942	0.1	
-0.169647	0.0846842	0.2	
-0.248332	0.050693	0.2	
-0.203899	-0.0323666	0.1	
-0.209136	-0.0909343	0.1	
-0.157075	-0.0653284	0.1	
-0.142279	-0.0393203	0.151217	
-0.075941	0.18593	0.1	
-0.0232097	0.208019	0.1	
-0.0674604	0.249371	0.1	
-0.0758641	0.204419	0.2	
0.132963	0.044259	0.2	
0.160735	0.0621263	0.1	
0.153315	0.00689278	0.1	
0.0969794	0.021072	0.155881	
0.201967	-0.00950962	0.2	
0.204676	0.0233192	0.1	
0.251733	-0.014256	0.1	
0.194544	-0.0323862	0.1	
0.268615	-0.174062	0.1	
0.287124	-0.235637	0.1	
0.216652	-0.249073	0.2	
0.211584	-0.20097	0.1	
0	0.045	0.1	
0.0396544	0.04868	0.156181	
-0.0182151	0.0644617	0.2	
-0.0436673	0.0180876	0.150301	
0.240073	-0.0744514	0.1	
0.225509	-0.136032	0.1	
0.190166	-0.0983881	0.2	
0.183564	-0.0903245	0.1	
0.045	0	0.1	
0.0714224	0.0228299	0.1	
0.0318198	0.0318198	0.1	
0.0396544	0.04868	0.156181	
0.00604814	0.236488	0.2	
0.0750467	0.185499	0.2	
0.0236281	0.174203	0.1	
0.0312955	0.232251	0.1	
-0.237687	0.180874	0.1	
-0.175847	0.204716	0.1	
-0.207714	0.236511	0.2	
-0.155635	0.172227	0.2	
-0.0339688	0.375665	0.2	
-0.0572929	0.316053	0.1	
-0.00311199	0.32667	0.1	
-0.0730421	0.296762	0.2	
-0.0269211	0.0671862	0.1	
0.00442099	0.0829354	0.1	
-0.0254114	0.106009	0.1	
0.0186333	0.101613	0.152058	
-0.209136	-0.0909343	0.1	
-0.258057	-0.0572365	0.1	
-0.275518	-0.12132	0.2	
-0.190622	-0.0884834	0.2	
-0.0415815	-0.110392	0.2	
-0.0529805	-0.19738	0.2	
-0.0203113	-0.154489	0.1	
0.00260765	-0.105267	0.157285	
0.160735	0.0621263	0.1	
0.132963	0.044259	0.2	
0.144601	0.131477	0.2	
0.114043	0.0943971	0.1	
-0.13855	0.104902	0.1	
-0.0949426	0.0752698	0.1	
-0.0791922	0.124893	0.1	
-0.0733988	0.0716859	0.157752	
-0.191044	0.0809942	0.1	
-0.13855	0.104902	0.1	
-0.1869	0.140647	0.1	
-0.169647	0.0846842	0.2	
-0.217835	-0.151685	0.1	
-0.279108	-0.122562	0.1	
-0.275518	-0.12132	0.2	
-0.209136	-0.0909343	0.1	
-0.312956	-0.0762135	0.1	
-0.312659	-0.0214623	0.1	
-0.318623	-0.0616012	0.2	
-0.258057	-0.0572365	0.1	
0.132963	0.044259	0.2	
0.153315	0.00689278	0.1	
0.201967	-0.00950962	0.2	
0.0969794	0.021072	0.155881	
-0.279108	-0.122562	0.1	
-0.312956	-0.0762135	0.1	
-0.275518	-0.12132	0.2	
-0.258057	-0.0572365	0.1	
-0.253293	0.00301969	0.1	
-0.19804	0.0242816	0.1	
-0.248332	0.050693	0.2	
-0.181323	-0.0027565	0.2	
0.0236281	0.174203	0.1	
0.0750467	0.185499	0.2	
-0.00652201	0.151895	0.2	
0.0186333	0.101613	0.152058	
0.238182	0.208514	0.1	
0.297412	0.240191	0.2	
0.294509	0.157311	0.1	
0.304312	0.234791	0.1	
0.0207402	-0.174187	0.1	
-0.0203113	-0.154489	0.1	
0.0279075	-0.16395	0.2	
0.00260765	-0.105267	0.157285	
0.331486	-0.177371	0.1	
0.287124	-0.235637	0.1	
0.339399	-0.183579	0.2	
0.268615	-0.174062	0.1	
0.12107	-0.0431928	0.2	
0.0512771	-0.0404658	0.154914	
0.0868431	-0.0680824	0.1	
0.062652	-0.118801	0.158114	
-0.258057	-0.0572365	0.1	
-0.275518	-0.12132	0.2	
-0.279108	-0.122562	0.1	
-0.209136	-0.0909343	0.1	
-0.0572929	0.316053	0.1	
-0.10824	0.362258	0.1	
-0.108028	0.370407	0.2	
-0.0339688	0.375665	0.2	
0.0741079	0.088115	0.1	
0.0405437	0.0931998	0.1	
0.0550025	0.059172	0.1	
0.0396544	0.04868	0.156181	
0.130886	-0.100339	0.1	
0.168154	-0.150165	0.1	
0.108307	-0.130924	0.2	
0.110168	-0.152489	0.1	
0.0318198	0.0318198	0.1	
0.0202986	-0.00819178	0.1	
0.045	0	0.1	
0.0060848	-2.90377e-05	0.157763	
-0.0276628	-0.367444	0.1	
0.0404591	-0.377182	0.2	
0	-0.45	0.15	
0.044217	-0.387842	0.1	
-0.0730421	0.296762	0.2	
-0.0135764	0.270208	0.1	
-0.00311199	0.32667	0.1	
0.0210919	0.316201	0.2	
-0.161049	0.262379	0.1	
-0.175847	0.204716	0.1	
-0.121547	0.224354	0.1	
-0.138104	0.243902	0.2	
-0.0572929	0.316053	0.1	
-0.00311199	0.32667	0.1	
-0.0358979	0.379949	0.1	
-0.0339688	0.375665	0.2	
0.00604814	0.236488	0.2	
-0.00652201	0.151895	0.2	
-0.0232097	0.208019	0.1	
0.0236281	0.174203	0.1	
0	-0.045	0.1	
0.0401753	-0.0586342	0.1	
0.0318198	-0.0318198	0.1	
0.0512771	-0.0404658	0.154914	
-0.209136	-0.0909343	0.1	
-0.275518	-0.12132	0.2	
-0.217835	-0.151685	0.1	
-0.190622	-0.0884834	0.2	
0.287124	-0.235637	0.1	
0.29265	-0.244884	0.2	
0.339399	-0.183579	0.2	
0.268615	-0.174062	0.1	
-0.0607822	-0.132192	0.1	
-0.0251864	-0.106886	0.1	
-0.0619298	-0.0870419	0.1	
-0.0647576	-0.0686517	0.145827	
0.0714224	0.0228299	0.1	
0.0858783	0.0607949	0.1	
0.0550025	0.059172	0.1	
0.0396544	0.04868	0.156181	
0.138545	-0.218367	0.1	
0.0922363	-0.215793	0.2	
0.174426	-0.185564	0.2	
0.110168	-0.152489	0.1	
-0.0880857	0.11829	0.2	
-0.0278782	0.153479	0.1	
-0.0758641	0.204419	0.2	
-0.00652201	0.151895	0.2	
0.204676	0.0233192	0.1	
0.213357	0.0766959	0.2	
0.255462	0.038247	0.1	
0.216596	0.0778377	0.1	
-0.190622	-0.0884834	0.2	
-0.12308	-0.143942	0.2	
-0.160221	-0.122206	0.1	
-0.142279	-0.0393203	0.151217	
-0.1869	0.140647	0.1	
-0.242461	0.118505	0.1	
-0.169647	0.0846842	0.2	
-0.244028	0.149971	0.2	
-0.10824	0.362258	0.1	
-0.0572929	0.316053	0.1	
-0.0358979	0.379949	0.1	
-0.0339688	0.375665	0.2	
0.110168	-0.152489	0.1	
0.138545	-0.218367	0.1	
0.0922363	-0.215793	0.2	
0.0725059	-0.197526	0.1	
-0.0318198	-0.0318198	0.1	
-0.0436673	0.0180876	0.150301	
-0.045	0	0.1	
-0.088703	-0.0138649	0.150815	
-0.29175	-0.237189	0.1	
-0.265692	-0.195501	0.2	
-0.298599	-0.245054	0.2	
-0.225546	-0.215121	0.1	
-0.0566812	-0.183891	0.1	
-0.110394	-0.216726	0.1	
-0.0496677	-0.250381	0.1	
-0.0529805	-0.19738	0.2	
0.0381609	0.387454	0.2	
-0.00311199	0.32667	0.1	
-0.0339688	0.375665	0.2	
0.0450774	0.367889	0.1	
-0.16441	-0.183508	0.1	
-0.160221	-0.122206	0.1	
-0.217835	-0.151685	0.1	
-0.201609	-0.173762	0.2	
0.213357	0.0766959	0.2	
0.230865	0.135658	0.1	
0.287454	0.0808414	0.1	
0.216596	0.0778377	0.1	
-0.155635	0.172227	0.2	
-0.1869	0.140647	0.1	
-0.13855	0.104902	0.1	
-0.169647	0.0846842	0.2	
-0.279108	-0.122562	0.1	
-0.312956	-0.0762135	0.1	
-0.356724	-0.11546	0.1	
-0.275518	-0.12132	0.2	
0.0741079	0.088115	0.1	
0.0691478	0.134694	0.1	
0.0405437	0.0931998	0.1	
0.0186333	0.101613	0.152058	
-0.248332	0.050693	0.2	
-0.242461	0.118505	0.1	
-0.247343	0.061739	0.1	
-0.296313	0.0995627	0.2	
-0.0758641	0.204419	0.2	
-0.0232097	0.208019	0.1	
-0.0674604	0.249371	0.1	
0.00604814	0.236488	0.2	
0.168154	-0.150165	0.1	
0.138545	-0.218367	0.1	
0.174426	-0.185564	0.2	
0.110168	-0.152489	0.1	
-0.0496677	-0.250381	0.1	
-0.0142517	-0.205249	0.1	
-0.0529805	-0.19738	0.2	
0.0148093	-0.246449	0.2	
0.0750467	0.185499	0.2	
0.0872949	0.269115	0.2	
0.0906227	0.254757	0.1	
0.0312955	0.232251	0.1	
-0.140177	0.0445127	0.1	
-0.13855	0.104902	0.1	
-0.191044	0.0809942	0.1	
-0.169647	0.0846842	0.2	
-0.108753	-0.0943056	0.1	
-0.111446	-0.0565624	0.2	
-0.12308	-0.143942	0.2	
-0.0647576	-0.0686517	0.145827	
0.00677135	0.0163475	0.1	
0.0060848	-2.90377e-05	0.157763	
0	0.045	0.1	
-0.0436673	0.0180876	0.150301	
0.287454	0.0808414	0.1	
0.255462	0.038247	0.1	
0.213357	0.0766959	0.2	
0.216596	0.0778377	0.1	
-0.12308	-0.143942	0.2	
-0.111446	-0.0565624	0.2	
-0.108753	-0.0943056	0.1	
-0.142279	-0.0393203	0.151217	
-0.269145	-0.181189	0.1	
-0.327578	-0.175094	0.2	
-0.279108	-0.122562	0.1	
-0.331484	-0.17939	0.1	
-0.0278782	0.153479	0.1	
0.0236281	0.174203	0.1	
-0.00652201	0.151895	0.2	
0.0186333	0.101613	0.152058	
-0.0572929	0.316053	0.1	
-0.0674604	0.249371	0.1	
-0.0135764	0.270208	0.1	
-0.0730421	0.296762	0.2	
0	0.045	0.1	
0.0060848	-2.90377e-05	0.157763	
0.0396544	0.04868	0.156181	
-0.0436673	0.0180876	0.150301	
-0.155635	0.172227	0.2	
-0.131315	0.16418	0.1	
-0.121547	0.224354	0.1	
-0.0758641	0.204419	0.2	
-0.13855	0.104902	0.1	
-0.0791922	0.124893	0.1	
-0.0880857	0.11829	0.2	
-0.0733988	0.0716859	0.157752	
-0.0997698	0.0308567	0.2	
-0.181323	-0.0027565	0.2	
-0.140177	0.0445127	0.1	
-0.142279	-0.0393203	0.151217	
0.168154	-0.150165	0.1	
0.108307	-0.130924	0.2	
0.190166	-0.0983881	0.2	
0.130886	-0.100339	0.1	
-0.0566812	-0.183891	0.1	
-0.0496677	-0.250381	0.1	
-0.0142517	-0.205249	0.1	
-0.0529805	-0.19738	0.2	
-0.1869	0.140647	0.1	
-0.131315	0.16418	0.1	
-0.175847	0.204716	0.1	
-0.155635	0.172227	0.2	
-0.0607822	-0.132192	0.1	
-0.0619298	-0.0870419	0.1	
-0.108753	-0.0943056	0.1	
-0.0647576	-0.0686517	0.145827	
0.180378	0.336857	0.1	
0.285477	0.347855	0.149953	
0.18581	0.349201	0.2	
0.245754	0.289669	0.1	
0.0714224	0.0228299	0.1	
0.0396544	0.04868	0.156181	
0.045	0	0.1	
0.0969794	0.021072	0.155881	
-0.0496677	-0.250381	0.1	
-0.0142517	-0.205249	0.1	
0.0148093	-0.246449	0.2	
0.0204871	-0.24099	0.1	
-0.138104	0.243902	0.2	
-0.121547	0.224354	0.1	
-0.0674604	0.249371	0.1	
-0.0758641	0.204419	0.2	
0.045	0	0.1	
0.0396544	0.04868	0.156181	
0.0060848	-2.90377e-05	0.157763	
0.0512771	-0.0404658	0.154914	
0.0872949	0.269115	0.2	
0.0447484	0.293988	0.1	
0.0906227	0.254757	0.1	
0.0312955	0.232251	0.1	
0.132963	0.044259	0.2	
0.0632975	0.0980676	0.2	
0.114043	0.0943971	0.1	
0.0969794	0.021072	0.155881	
-0.121547	0.224354	0.1	
-0.075941	0.18593	0.1	
-0.0674604	0.249371	0.1	
-0.0758641	0.204419	0.2	
0.0750467	0.185499	0.2	
0.0691478	0.134694	0.1	
0.0632975	0.0980676	0.2	
0.0186333	0.101613	0.152058	
-0.161049	0.262379	0.1	
-0.121547	0.224354	0.1	
-0.116127	0.293072	0.1	
-0.138104	0.243902	0.2	
0.26859	-0.0619166	0.2	
0.261818	-0.161797	0.2	
0.225509	-0.136032	0.1	
0.287371	-0.120299	0.1	
-0.0318198	-0.0318198	0.1	
-0.00500969	-0.0120945	0.1	
-0.0436673	0.0180876	0.150301	
-0.0200153	-0.0483211	0.151402	
0.110168	-0.152489	0.1	
0.0587245	-0.143156	0.1	
0.0725059	-0.197526	0.1	
0.062652	-0.118801	0.158114	
-0.0730421	0.296762	0.2	
-0.0674604	0.249371	0.1	
-0.0135764	0.270208	0.1	
0.00604814	0.236488	0.2	
-0.0182151	0.0644617	0.2	
0.0396544	0.04868	0.156181	
0	0.045	0.1	
0.0186333	0.101613	0.152058	
-0.237687	0.180874	0.1	
-0.1869	0.140647	0.1	
-0.155635	0.172227	0.2	
-0.244028	0.149971	0.2	
-0.00311199	0.32667	0.1	
-0.0358979	0.379949	0.1	
-0.0339688	0.375665	0.2	
0.0450774	0.367889	0.1	
0.430623	-0.130628	0.149953	
0.446786	-0.053688	0.149994	
0.357114	-0.107098	0.1	
0.384421	-0.0378621	0.2	
0.174426	-0.185564	0.2	
0.225509	-0.136032	0.1	
0.211584	-0.20097	0.1	
0.168154	-0.150165	0.1	
0.0210919	0.316201	0.2	
-0.0135764	0.270208	0.1	
-0.00311199	0.32667	0.1	
0.0447484	0.293988	0.1	
0.363227	0.0380543	0.2	
0.369533	0.112832	0.2	
0.446786	0.053688	0.149994	
0.387235	0.0357483	0.1	
-0.10824	0.362258	0.1	
-0.130628	0.430623	0.150047	
-0.212133	0.396862	0.150011	
-0.108028	0.370407	0.2	
-0.169647	0.0846842	0.2	
-0.191044	0.0809942	0.1	
-0.19804	0.0242816	0.1	
-0.248332	0.050693	0.2	
-0.279108	-0.122562	0.1	
-0.275518	-0.12132	0.2	
-0.327578	-0.175094	0.2	
-0.269145	-0.181189	0.1	
0.190166	-0.0983881	0.2	
0.12107	-0.0431928	0.2	
0.201967	-0.00950962	0.2	
0.194544	-0.0323862	0.1	
0.179715	0.179275	0.1	
0.173936	0.254382	0.1	
0.154944	0.223937	0.2	
0.238182	0.208514	0.1	
0.255462	0.038247	0.1	
0.213357	0.0766959	0.2	
0.281012	0.0229437	0.2	
0.287454	0.0808414	0.1	
0.12107	-0.0431928	0.2	
0.0986719	-0.0360043	0.1	
0.0512771	-0.0404658	0.154914	
0.0969794	0.021072	0.155881	
0.268615	-0.174062	0.1	
0.216652	-0.249073	0.2	
0.261818	-0.161797	0.2	
0.211584	-0.20097	0.1	
0.168154	-0.150165	0.1	
0.190166	-0.0983881	0.2	
0.225509	-0.136032	0.1	
0.183564	-0.0903245	0.1	
0.174426	-0.185564	0.2	
0.190166	-0.0983881	0.2	
0.225509	-0.136032	0.1	
0.168154	-0.150165	0.1	
0.168985	0.119579	0.1	
0.144601	0.131477	0.2	
0.213357	0.0766959	0.2	
0.230865	0.135658	0.1	
0.213357	0.0766959	0.2	
0.144601	0.131477	0.2	
0.168985	0.119579	0.1	
0.160735	0.0621263	0.1	
-0.0232097	0.208019	0.1	
-0.0135764	0.270208	0.1	
0.00604814	0.236488	0.2	
0.0312955	0.232251	0.1	
0.230865	0.135658	0.1	
0.213357	0.0766959	0.2	
0.168985	0.119579	0.1	
0.216596	0.0778377	0.1	
-0.256491	-0.0362829	0.2	
-0.275518	-0.12132	0.2	
-0.258057	-0.0572365	0.1	
-0.190622	-0.0884834	0.2	
0.0210919	0.316201	0.2	
-0.00311199	0.32667	0.1	
-0.0339688	0.375665	0.2	
0.0381609	0.387454	0.2	
-0.379429	-0.0366192	0.2	
-0.372975	0.0289182	0.1	
-0.373197	-0.0467972	0.1	
-0.45	0	0.15	
-0.181323	-0.0027565	0.2	
-0.190622	-0.0884834	0.2	
-0.203899	-0.0323666	0.1	
-0.142279	-0.0393203	0.151217	
0.0447484	0.293988	0.1	
0.0872949	0.269115	0.2	
0.00604814	0.236488	0.2	
0.0312955	0.232251	0.1	
-0.256491	-0.0362829	0.2	
-0.312659	-0.0214623	0.1	
-0.253293	0.00301969	0.1	
-0.258057	-0.0572365	0.1	
-0.160221	-0.122206	0.1	
-0.217835	-0.151685	0.1	
-0.201609	-0.173762	0.2	
-0.190622	-0.0884834	0.2	
0.251733	-0.014256	0.1	
0.26859	-0.0619166	0.2	
0.201967	-0.00950962	0.2	
0.240073	-0.0744514	0.1	
0.12107	-0.0431928	0.2	
0.130886	-0.100339	0.1	
0.108307	-0.130924	0.2	
0.062652	-0.118801	0.158114	
-0.29431	0.0991694	0.1	
-0.300257	0.152847	0.1	
-0.355442	0.107822	0.1	
-0.296313	0.0995627	0.2	
0.173936	0.254382	0.1	
0.154944	0.223937	0.2	
0.155004	0.296903	0.2	
0.0906227	0.254757	0.1	
-0.203899	-0.0323666	0.1	
-0.19804	0.0242816	0.1	
-0.181323	-0.0027565	0.2	
-0.142279	-0.0393203	0.151217	
-0.320541	0.0201981	0.2	
-0.312659	-0.0214623	0.1	
-0.253293	0.00301969	0.1	
-0.256491	-0.0362829	0.2	
0.212129	-0.396865	0.149953	
0.130628	-0.430623	0.149953	
0.111895	-0.372646	0.2	
0.109857	-0.362973	0.1	
-0.12308	-0.143942	0.2	
-0.0529805	-0.19738	0.2	
-0.0607822	-0.132192	0.1	
-0.0415815	-0.110392	0.2	
0.0404591	-0.377182	0.2	
-0.0383965	-0.372403	0.2	
-0.0276628	-0.367444	0.1	
0	-0.45	0.15	
-0.133674	-0.228308	0.2	
-0.111587	-0.287654	0.1	
-0.110394	-0.216726	0.1	
-0.0659287	-0.28985	0.2	
-0.133674	-0.228308	0.2	
-0.110394	-0.216726	0.1	
-0.16441	-0.183508	0.1	
-0.12308	-0.143942	0.2	
-0.292926	0.235471	0.1	
-0.300257	0.152847	0.1	
-0.237687	0.180874	0.1	
-0.287124	0.235637	0.2	
-0.0269211	0.0671862	0.1	
-0.0436673	0.0180876	0.150301	
-0.0182151	0.0644617	0.2	
-0.0733988	0.0716859	0.157752	
0.0922363	-0.215793	0.2	
0.147007	-0.259035	0.2	
0.082636	-0.254415	0.1	
0.138545	-0.218367	0.1	
0	0.045	0.1	
0.0060848	-2.90377e-05	0.157763	
0.00677135	0.0163475	0.1	
0.0396544	0.04868	0.156181	
-0.0269211	0.0671862	0.1	
-0.0583523	0.0875158	0.1	
-0.0611924	0.0535755	0.1	
-0.0733988	0.0716859	0.157752	
0.0204871	-0.24099	0.1	
0.082636	-0.254415	0.1	
0.0148093	-0.246449	0.2	
0.0511003	-0.317442	0.1	
0.0986719	-0.0360043	0.1	
0.0662467	-0.0253248	0.1	
0.0512771	-0.0404658	0.154914	
0.0969794	0.021072	0.155881	
0.446786	-0.053688	0.149994	
0.374822	-0.0324999	0.1	
0.357114	-0.107098	0.1	
0.384421	-0.0378621	0.2	
-0.285477	0.347854	0.150033	
-0.251772	0.306785	0.1	
-0.212133	0.396862	0.150011	
-0.248262	0.29482	0.2	
0.114043	0.0943971	0.1	
0.144601	0.131477	0.2	
0.168985	0.119579	0.1	
0.124146	0.156872	0.1	
-0.16441	-0.183508	0.1	
-0.160221	-0.122206	0.1	
-0.201609	-0.173762	0.2	
-0.12308	-0.143942	0.2	
-0.292926	0.235471	0.1	
-0.217513	0.254621	0.1	
-0.251772	0.306785	0.1	
-0.248262	0.29482	0.2	
0.339399	-0.183579	0.2	
0.430623	-0.130628	0.149953	
0.396865	-0.212129	0.149953	
0.331486	-0.177371	0.1	
0.111895	-0.372646	0.2	
0.130628	-0.430623	0.149953	
0.053688	-0.446786	0.149994	
0.044217	-0.387842	0.1	
-0.0606984	0.0243229	0.1	
-0.0436673	0.0180876	0.150301	
-0.0611924	0.0535755	0.1	
-0.0733988	0.0716859	0.157752	
0.0396544	0.04868	0.156181	
0.0512771	-0.0404658	0.154914	
0.045	0	0.1	
0.0969794	0.021072	0.155881	
0.129359	0.208003	0.1	
0.154944	0.223937	0.2	
0.173936	0.254382	0.1	
0.0906227	0.254757	0.1	
-0.0269211	0.0671862	0.1	
-0.0611924	0.0535755	0.1	
-0.0436673	0.0180876	0.150301	
-0.0733988	0.0716859	0.157752	
0.212129	-0.396865	0.149953	
0.111895	-0.372646	0.2	
0.175084	-0.3275	0.2	
0.109857	-0.362973	0.1	
-0.173995	-0.331361	0.1	
-0.237792	-0.287474	0.1	
-0.212128	-0.396865	0.149972	
-0.182092	-0.340669	0.2	
-0.237687	0.180874	0.1	
-0.217513	0.254621	0.1	
-0.292926	0.235471	0.1	
-0.287124	0.235637	0.2	
0.355442	0.107822	0.1	
0.446786	0.053688	0.149994	
0.369533	0.112832	0.2	
0.387235	0.0357483	0.1	
0.430623	0.130628	0.149953	
0.369533	0.112832	0.2	
0.396865	0.212129	0.149953	
0.349981	0.18562	0.1	
0.287371	-0.120299	0.1	
0.348465	-0.103096	0.2	
0.339399	-0.183579	0.2	
0.331486	-0.177371	0.1	
-0.446786	0.0536856	0.15	
-0.372975	0.0289182	0.1	
-0.362114	0.10176	0.2	
-0.389559	0.0336032	0.2	
-0.29175	-0.237189	0.1	
-0.347855	-0.285477	0.149967	
-0.298599	-0.245054	0.2	
-0.331484	-0.17939	0.1	
0.045	0	0.1	
0.0512771	-0.0404658	0.154914	
0.0662467	-0.0253248	0.1	
0.0969794	0.021072	0.155881	
-0.212128	-0.396865	0.149972	
-0.237792	-0.287474	0.1	
-0.285477	-0.347855	0.149972	
-0.182092	-0.340669	0.2	
-0.138104	0.243902	0.2	
-0.175847	0.204716	0.1	
-0.121547	0.224354	0.1	
-0.155635	0.172227	0.2	
-0.237792	-0.287474	0.1	
-0.347855	-0.285477	0.149967	
-0.298599	-0.245054	0.2	
-0.29175	-0.237189	0.1	
0.0279075	-0.16395	0.2	
0.0725059	-0.197526	0.1	
0.0207402	-0.174187	0.1	
0.062652	-0.118801	0.158114	
0.053688	-0.446786	0.149994	
0.0404591	-0.377182	0.2	
0.111895	-0.372646	0.2	
0.044217	-0.387842	0.1	
0.0922363	-0.215793	0.2	
0.108307	-0.130924	0.2	
0.174426	-0.185564	0.2	
0.110168	-0.152489	0.1	
0.130628	0.430623	0.149953	
0.120589	0.374273	0.1	
0.107822	0.355442	0.2	
0.053688	0.446786	0.149994	
0.138545	-0.218367	0.1	
0.147007	-0.259035	0.2	
0.082636	-0.254415	0.1	
0.134408	-0.294741	0.1	
0.261818	-0.161797	0.2	
0.339399	-0.183579	0.2	
0.29265	-0.244884	0.2	
0.268615	-0.174062	0.1	
-0.0730421	0.296762	0.2	
-0.116127	0.293072	0.1	
-0.0674604	0.249371	0.1	
-0.138104	0.243902	0.2	
-0.247343	0.061739	0.1	
-0.304909	0.0444641	0.1	
-0.253293	0.00301969	0.1	
-0.248332	0.050693	0.2	
-0.108753	-0.0943056	0.1	
-0.111446	-0.0565624	0.2	
-0.0647576	-0.0686517	0.145827	
-0.142279	-0.0393203	0.151217	
-0.253293	0.00301969	0.1	
-0.304909	0.0444641	0.1	
-0.312659	-0.0214623	0.1	
-0.320541	0.0201981	0.2	
-0.347855	0.285477	0.150034	
-0.292926	0.235471	0.1	
-0.251772	0.306785	0.1	
-0.248262	0.29482	0.2	
0.045	0	0.1	
0.0318198	0.0318198	0.1	
0.0060848	-2.90377e-05	0.157763	
0.0396544	0.04868	0.156181	
-0.182284	0.324323	0.1	
-0.212133	0.396862	0.150011	
-0.251772	0.306785	0.1	
-0.248262	0.29482	0.2	
0.168154	-0.150165	0.1	
0.174426	-0.185564	0.2	
0.108307	-0.130924	0.2	
0.110168	-0.152489	0.1	
0.117493	0.309521	0.1	
0.173936	0.254382	0.1	
0.155004	0.296903	0.2	
0.0906227	0.254757	0.1	
-0.0659287	-0.28985	0.2	
-0.0137107	-0.295895	0.1	
-0.0496677	-0.250381	0.1	
0.0148093	-0.246449	0.2	
0.044217	-0.387842	0.1	
0.00378559	-0.316996	0.2	
0.0404591	-0.377182	0.2	
0.0511003	-0.317442	0.1	
-0.161049	0.262379	0.1	
-0.175847	0.204716	0.1	
-0.138104	0.243902	0.2	
-0.207714	0.236511	0.2	
-0.173131	0.322508	0.2	
-0.161049	0.262379	0.1	
-0.116127	0.293072	0.1	
-0.138104	0.243902	0.2	
0.26859	-0.0619166	0.2	
0.324791	-0.0252069	0.2	
0.303447	-0.0554764	0.1	
0.251733	-0.014256	0.1	
-0.173995	-0.331361	0.1	
-0.130611	-0.430628	0.15	
-0.112928	-0.360216	0.2	
-0.182092	-0.340669	0.2	
0.304312	0.234791	0.1	
0.238182	0.208514	0.1	
0.297412	0.240191	0.2	
0.245754	0.289669	0.1	
-0.108028	0.370407	0.2	
-0.10824	0.362258	0.1	
-0.116127	0.293072	0.1	
-0.173131	0.322508	0.2	
0.0587245	-0.143156	0.1	
0.0142935	-0.12453	0.1	
0.0207402	-0.174187	0.1	
0.062652	-0.118801	0.158114	
-0.0201457	0.00856081	0.1	
0.0060848	-2.90377e-05	0.157763	
0.00677135	0.0163475	0.1	
-0.0436673	0.0180876	0.150301	
-0.203899	-0.0323666	0.1	
-0.190622	-0.0884834	0.2	
-0.209136	-0.0909343	0.1	
-0.142279	-0.0393203	0.151217	
0.0207402	-0.174187	0.1	
0.062652	-0.118801	0.158114	
0.0142935	-0.12453	0.1	
0.00260765	-0.105267	0.157285	
-0.285477	-0.347855	0.149972	
-0.347855	-0.285477	0.149967	
-0.298599	-0.245054	0.2	
-0.237792	-0.287474	0.1	
0.0922363	-0.215793	0.2	
0.108307	-0.130924	0.2	
0.110168	-0.152489	0.1	
0.062652	-0.118801	0.158114	
-0.0276628	-0.367444	0.1	
0.00378559	-0.316996	0.2	
0.0404591	-0.377182	0.2	
0.044217	-0.387842	0.1	
-0.396865	-0.212129	0.149995	
-0.298599	-0.245054	0.2	
-0.347855	-0.285477	0.149967	
-0.331484	-0.17939	0.1	
0.0447484	0.293988	0.1	
0.107822	0.355442	0.2	
0.0872949	0.269115	0.2	
0.117493	0.309521	0.1	
0.168985	0.119579	0.1	
0.144601	0.131477	0.2	
0.179715	0.179275	0.1	
0.124146	0.156872	0.1	
0.212129	0.396865	0.149953	
0.285477	0.347855	0.149953	
0.18581	0.349201	0.2	
0.180378	0.336857	0.1	
0.339399	-0.183579	0.2	
0.396865	-0.212129	0.149953	
0.347855	-0.285477	0.149953	
0.331486	-0.177371	0.1	
-0.217513	0.254621	0.1	
-0.161049	0.262379	0.1	
-0.173131	0.322508	0.2	
-0.207714	0.236511	0.2	
-0.0758641	0.204419	0.2	
-0.155635	0.172227	0.2	
-0.131315	0.16418	0.1	
-0.0880857	0.11829	0.2	
0.053688	0.446786	0.149994	
0.0381609	0.387454	0.2	
0	0.45	0.15	
0.0450774	0.367889	0.1	
0.130628	-0.430623	0.149953	
0.111895	-0.372646	0.2	
0.109857	-0.362973	0.1	
0.044217	-0.387842	0.1	
0.0872949	0.269115	0.2	
0.155004	0.296903	0.2	
0.154944	0.223937	0.2	
0.0906227	0.254757	0.1	
-0.175847	0.204716	0.1	
-0.161049	0.262379	0.1	
-0.217513	0.254621	0.1	
-0.207714	0.236511	0.2	
0.0868431	-0.0680824	0.1	
0.0401753	-0.0586342	0.1	
0.0488551	-0.0983509	0.1	
0.0512771	-0.0404658	0.154914	
0.324791	-0.0252069	0.2	
0.314556	0.0156287	0.1	
0.303447	-0.0554764	0.1	
0.251733	-0.014256	0.1	
0.144601	0.131477	0.2	
0.154944	0.223937	0.2	
0.179715	0.179275	0.1	
0.124146	0.156872	0.1	
-0.112928	-0.360216	0.2	
-0.0536856	-0.446786	0.15	
-0.104718	-0.361527	0.1	
-0.0383965	-0.372403	0.2	
-0.251772	0.306785	0.1	
-0.217513	0.254621	0.1	
-0.182284	0.324323	0.1	
-0.248262	0.29482	0.2	
0.0401753	-0.0586342	0.1	
0.0488551	-0.0983509	0.1	
0.0512771	-0.0404658	0.154914	
0.00260765	-0.105267	0.157285	
0.0632975	0.0980676	0.2	
0.0750467	0.185499	0.2	
0.144601	0.131477	0.2	
0.0691478	0.134694	0.1	
0.175084	-0.3275	0.2	
0.212129	-0.396865	0.149953	
0.109857	-0.362973	0.1	
0.187286	-0.334755	0.1	
-0.108753	-0.0943056	0.1	
-0.080591	-0.0588792	0.1	
-0.112529	-0.0425202	0.1	
-0.0647576	-0.0686517	0.145827	
-0.217513	0.254621	0.1	
-0.237687	0.180874	0.1	
-0.175847	0.204716	0.1	
-0.207714	0.236511	0.2	
-0.116127	0.293072	0.1	
-0.0572929	0.316053	0.1	
-0.10824	0.362258	0.1	
-0.0730421	0.296762	0.2	
-0.256491	-0.0362829	0.2	
-0.318623	-0.0616012	0.2	
-0.312659	-0.0214623	0.1	
-0.258057	-0.0572365	0.1	
-0.300257	0.152847	0.1	
-0.237687	0.180874	0.1	
-0.287124	0.235637	0.2	
-0.244028	0.149971	0.2	
-0.217513	0.254621	0.1	
-0.161049	0.262379	0.1	
-0.182284	0.324323	0.1	
-0.173131	0.322508	0.2	
-0.0269211	0.0671862	0.1	
-0.0733988	0.0716859	0.157752	
-0.0182151	0.0644617	0.2	
0.0186333	0.101613	0.152058	
0.109857	-0.362973	0.1	
0.111895	-0.372646	0.2	
0.175084	-0.3275	0.2	
0.134408	-0.294741	0.1	
-0.181323	-0.0027565	0.2	
-0.256491	-0.0362829	0.2	
-0.203899	-0.0323666	0.1	
-0.190622	-0.0884834	0.2	
-0.275518	-0.12132	0.2	
-0.356724	-0.11546	0.1	
-0.279108	-0.122562	0.1	
-0.327578	-0.175094	0.2	
0.396865	0.212129	0.149953	
0.369533	0.112832	0.2	
0.329177	0.174808	0.2	
0.349981	0.18562	0.1	
0.082636	-0.254415	0.1	
0.0148093	-0.246449	0.2	
0.0922363	-0.215793	0.2	
0.0204871	-0.24099	0.1	
-0.327578	-0.175094	0.2	
-0.298599	-0.245054	0.2	
-0.396865	-0.212129	0.149995	
-0.331484	-0.17939	0.1	
-0.312956	-0.0762135	0.1	
-0.373197	-0.0467972	0.1	
-0.356724	-0.11546	0.1	
-0.318623	-0.0616012	0.2	
-0.327578	-0.175094	0.2	
-0.356724	-0.11546	0.1	
-0.279108	-0.122562	0.1	
-0.331484	-0.17939	0.1	
-0.237687	0.180874	0.1	
-0.217513	0.254621	0.1	
-0.287124	0.235637	0.2	
-0.207714	0.236511	0.2	
0.0872949	0.269115	0.2	
0.0210919	0.316201	0.2	
0.107822	0.355442	0.2	
0.0447484	0.293988	0.1	
0.294509	0.157311	0.1	
0.297412	0.240191	0.2	
0.329177	0.174808	0.2	
0.304312	0.234791	0.1	
0.201967	-0.00950962	0.2	
0.132963	0.044259	0.2	
0.213357	0.0766959	0.2	
0.204676	0.0233192	0.1	
-0.318623	-0.0616012	0.2	
-0.256491	-0.0362829	0.2	
-0.275518	-0.12132	0.2	
-0.258057	-0.0572365	0.1	
-0.130611	-0.430628	0.15	
-0.173995	-0.331361	0.1	
-0.212128	-0.396865	0.149972	
-0.182092	-0.340669	0.2	
0.109857	-0.362973	0.1	
0.0839363	-0.30145	0.2	
0.111895	-0.372646	0.2	
0.134408	-0.294741	0.1	
-0.0997698	0.0308567	0.2	
-0.140177	0.0445127	0.1	
-0.169647	0.0846842	0.2	
-0.0733988	0.0716859	0.157752	
0.0279075	-0.16395	0.2	
0.0922363	-0.215793	0.2	
0.0725059	-0.197526	0.1	
0.062652	-0.118801	0.158114	
0.294509	0.157311	0.1	
0.296534	0.101262	0.2	
0.230865	0.135658	0.1	
0.287454	0.0808414	0.1	
0.155004	0.296903	0.2	
0.107822	0.355442	0.2	
0.18581	0.349201	0.2	
0.180378	0.336857	0.1	
0.294509	0.157311	0.1	
0.237285	0.176133	0.2	
0.297412	0.240191	0.2	
0.238182	0.208514	0.1	
0.053688	-0.446786	0.149994	
0	-0.45	0.15	
0.0404591	-0.377182	0.2	
0.044217	-0.387842	0.1	
0.216652	-0.249073	0.2	
0.147007	-0.259035	0.2	
0.174426	-0.185564	0.2	
0.138545	-0.218367	0.1	
-0.0712343	-0.0265969	0.1	
-0.0200153	-0.0483211	0.151402	
-0.0318198	-0.0318198	0.1	
-0.088703	-0.0138649	0.150815	
0.053688	0.446786	0.149994	
0.120589	0.374273	0.1	
0.107822	0.355442	0.2	
0.0450774	0.367889	0.1	
-0.0137107	-0.295895	0.1	
0.0148093	-0.246449	0.2	
0.00378559	-0.316996	0.2	
0.0511003	-0.317442	0.1	
-0.269145	-0.181189	0.1	
-0.265692	-0.195501	0.2	
-0.29175	-0.237189	0.1	
-0.225546	-0.215121	0.1	
0.12107	-0.0431928	0.2	
0.190166	-0.0983881	0.2	
0.108307	-0.130924	0.2	
0.130886	-0.100339	0.1	
-0.108028	0.370407	0.2	
-0.212133	0.396862	0.150011	
-0.10824	0.362258	0.1	
-0.173131	0.322508	0.2	
-0.320541	0.0201981	0.2	
-0.372975	0.0289182	0.1	
-0.312659	-0.0214623	0.1	
-0.379429	-0.0366192	0.2	
-0.446786	-0.053688	0.150006	
-0.379429	-0.0366192	0.2	
-0.373197	-0.0467972	0.1	
-0.45	0	0.15	
0.0148093	-0.246449	0.2	
-0.0137107	-0.295895	0.1	
-0.0496677	-0.250381	0.1	
0.0204871	-0.24099	0.1	
0.240073	-0.0744514	0.1	
0.303447	-0.0554764	0.1	
0.26859	-0.0619166	0.2	
0.287371	-0.120299	0.1	
0.339399	-0.183579	0.2	
0.347855	-0.285477	0.149953	
0.287124	-0.235637	0.1	
0.331486	-0.177371	0.1	
0.268615	-0.174062	0.1	
0.261818	-0.161797	0.2	
0.225509	-0.136032	0.1	
0.211584	-0.20097	0.1	
-0.00500969	-0.0120945	0.1	
0.0060848	-2.90377e-05	0.157763	
-0.0201457	0.00856081	0.1	
-0.0436673	0.0180876	0.150301	
-0.223685	-0.271786	0.2	
-0.170075	-0.251953	0.1	
-0.225546	-0.215121	0.1	
-0.201609	-0.173762	0.2	
0.446786	0.053688	0.149994	
0.45	0	0.15	
0.363227	0.0380543	0.2	
0.387235	0.0357483	0.1	
-0.16441	-0.183508	0.1	
-0.170075	-0.251953	0.1	
-0.133674	-0.228308	0.2	
-0.201609	-0.173762	0.2	
0.0148093	-0.246449	0.2	
-0.0137107	-0.295895	0.1	
0.0204871	-0.24099	0.1	
0.0511003	-0.317442	0.1	
-0.347855	0.285477	0.150034	
-0.351668	0.187175	0.1	
-0.292926	0.235471	0.1	
-0.287124	0.235637	0.2	
-0.0254114	0.106009	0.1	
0.0139627	0.124614	0.1	
-0.0278782	0.153479	0.1	
0.0186333	0.101613	0.152058	
0.0279075	-0.16395	0.2	
-0.0529805	-0.19738	0.2	
-0.0142517	-0.205249	0.1	
0.0148093	-0.246449	0.2	
-0.1869	0.140647	0.1	
-0.237687	0.180874	0.1	
-0.242461	0.118505	0.1	
-0.244028	0.149971	0.2	
-0.372975	0.0289182	0.1	
-0.373197	-0.0467972	0.1	
-0.312659	-0.0214623	0.1	
-0.379429	-0.0366192	0.2	
-0.225546	-0.215121	0.1	
-0.298599	-0.245054	0.2	
-0.29175	-0.237189	0.1	
-0.223685	-0.271786	0.2	
-0.0137107	-0.295895	0.1	
-0.0615368	-0.322264	0.1	
-0.0276628	-0.367444	0.1	
0.00378559	-0.316996	0.2	
-0.130611	-0.430628	0.15	
-0.0536856	-0.446786	0.15	
-0.104718	-0.361527	0.1	
-0.112928	-0.360216	0.2	
-0.0659287	-0.28985	0.2	
-0.0615368	-0.322264	0.1	
-0.0137107	-0.295895	0.1	
0.00378559	-0.316996	0.2	
0.053688	0.446786	0.149994	
0.107822	0.355442	0.2	
0.0381609	0.387454	0.2	
0.0450774	0.367889	0.1	
0.0381609	0.387454	0.2	
0.0210919	0.316201	0.2	
-0.00311199	0.32667	0.1	
0.0450774	0.367889	0.1	
0.296534	0.101262	0.2	
0.363227	0.0380543	0.2	
0.281012	0.0229437	0.2	
0.287454	0.0808414	0.1	
-0.0880857	0.11829	0.2	
-0.169647	0.0846842	0.2	
-0.13855	0.104902	0.1	
-0.0733988	0.0716859	0.157752	
0.0872949	0.269115	0.2	
0.0750467	0.185499	0.2	
0.00604814	0.236488	0.2	
0.0312955	0.232251	0.1	
0.18581	0.349201	0.2	
0.120589	0.374273	0.1	
0.212129	0.396865	0.149953	
0.180378	0.336857	0.1	
-0.0276628	-0.367444	0.1	
0.00378559	-0.316996	0.2	
0.044217	-0.387842	0.1	
0.0511003	-0.317442	0.1	
0.213357	0.0766959	0.2	
0.281012	0.0229437	0.2	
0.201967	-0.00950962	0.2	
0.255462	0.038247	0.1	
0.082636	-0.254415	0.1	
0.0922363	-0.215793	0.2	
0.138545	-0.218367	0.1	
0.0725059	-0.197526	0.1	
-0.355442	0.107822	0.1	
-0.351668	0.187175	0.1	
-0.430628	0.130611	0.15	
-0.32913	0.168426	0.2	
0.0447484	0.293988	0.1	
0.0210919	0.316201	0.2	
0.107822	0.355442	0.2	
0.0450774	0.367889	0.1	
-0.396866	0.212126	0.150019	
-0.351668	0.187175	0.1	
-0.347855	0.285477	0.150034	
-0.287124	0.235637	0.2	
-0.00500969	-0.0120945	0.1	
0.00677135	0.0163475	0.1	
-0.0201457	0.00856081	0.1	
0.0060848	-2.90377e-05	0.157763	
-0.304909	0.0444641	0.1	
-0.355442	0.107822	0.1	
-0.372975	0.0289182	0.1	
-0.362114	0.10176	0.2	
-0.320541	0.0201981	0.2	
-0.304909	0.0444641	0.1	
-0.372975	0.0289182	0.1	
-0.362114	0.10176	0.2	
0.00604814	0.236488	0.2	
0.0750467	0.185499	0.2	
-0.00652201	0.151895	0.2	
0.0236281	0.174203	0.1	
0.082636	-0.254415	0.1	
0.0839363	-0.30145	0.2	
0.0148093	-0.246449	0.2	
0.0511003	-0.317442	0.1	
0.117493	0.309521	0.1	
0.0447484	0.293988	0.1	
0.107822	0.355442	0.2	
0.0450774	0.367889	0.1	
-0.0606984	0.0243229	0.1	
-0.0944203	0.0353385	0.1	
-0.0436673	0.0180876	0.150301	
-0.0733988	0.0716859	0.157752	
0.216652	-0.249073	0.2	
0.147007	-0.259035	0.2	
0.138545	-0.218367	0.1	
0.199452	-0.267103	0.1	
0.173936	0.254382	0.1	
0.228237	0.281807	0.2	
0.154944	0.223937	0.2	
0.238182	0.208514	0.1	
0.120589	0.374273	0.1	
0.18581	0.349201	0.2	
0.107822	0.355442	0.2	
0.180378	0.336857	0.1	
-0.362114	0.10176	0.2	
-0.372975	0.0289182	0.1	
-0.320541	0.0201981	0.2	
-0.389559	0.0336032	0.2	
-0.0339688	0.375665	0.2	
-0.108028	0.370407	0.2	
-0.0572929	0.316053	0.1	
-0.0730421	0.296762	0.2	
-0.0880857	0.11829	0.2	
-0.155635	0.172227	0.2	
-0.13855	0.104902	0.1	
-0.169647	0.0846842	0.2	
0.187286	-0.334755	0.1	
0.25204	-0.306462	0.2	
0.257787	-0.293807	0.1	
0.199452	-0.267103	0.1	
0.287371	-0.120299	0.1	
0.261818	-0.161797	0.2	
0.225509	-0.136032	0.1	
0.268615	-0.174062	0.1	
-0.296313	0.0995627	0.2	
-0.355442	0.107822	0.1	
-0.304909	0.0444641	0.1	
-0.362114	0.10176	0.2	
-0.225546	-0.215121	0.1	
-0.265692	-0.195501	0.2	
-0.298599	-0.245054	0.2	
-0.223685	-0.271786	0.2	
-0.140177	0.0445127	0.1	
-0.0997698	0.0308567	0.2	
-0.169647	0.0846842	0.2	
-0.181323	-0.0027565	0.2	
0	-0.045	0.1	
-0.0200153	-0.0483211	0.151402	
0.0401753	-0.0586342	0.1	
0.0512771	-0.0404658	0.154914	
0.0741079	0.088115	0.1	
0.0396544	0.04868	0.156181	
0.0632975	0.0980676	0.2	
0.0186333	0.101613	0.152058	
-0.108028	0.370407	0.2	
-0.116127	0.293072	0.1	
-0.10824	0.362258	0.1	
-0.0730421	0.296762	0.2	
-0.0944203	0.0353385	0.1	
-0.0606984	0.0243229	0.1	
-0.0436673	0.0180876	0.150301	
-0.088703	-0.0138649	0.150815	
0.174426	-0.185564	0.2	
0.216652	-0.249073	0.2	
0.138545	-0.218367	0.1	
0.211584	-0.20097	0.1	
-0.248332	0.050693	0.2	
-0.247343	0.061739	0.1	
-0.304909	0.0444641	0.1	
-0.296313	0.0995627	0.2	
0.212129	0.396865	0.149953	
0.120589	0.374273	0.1	
0.18581	0.349201	0.2	
0.130628	0.430623	0.149953	
-0.304909	0.0444641	0.1	
-0.320541	0.0201981	0.2	
-0.296313	0.0995627	0.2	
-0.362114	0.10176	0.2	
-0.104718	-0.361527	0.1	
-0.0615368	-0.322264	0.1	
-0.112928	-0.360216	0.2	
-0.0383965	-0.372403	0.2	
0.0318198	0.0318198	0.1	
0.0250698	0.0602098	0.1	
0	0.045	0.1	
0.0396544	0.04868	0.156181	
0.147007	-0.259035	0.2	
0.0839363	-0.30145	0.2	
0.082636	-0.254415	0.1	
0.134408	-0.294741	0.1	
-0.265692	-0.195501	0.2	
-0.327578	-0.175094	0.2	
-0.275518	-0.12132	0.2	
-0.269145	-0.181189	0.1	
-0.256491	-0.0362829	0.2	
-0.253293	0.00301969	0.1	
-0.248332	0.050693	0.2	
-0.181323	-0.0027565	0.2	
0.257787	-0.293807	0.1	
0.285477	-0.347855	0.149953	
0.25204	-0.306462	0.2	
0.187286	-0.334755	0.1	
0.0250698	0.0602098	0.1	
0.0550025	0.059172	0.1	
0.0405437	0.0931998	0.1	
0.0396544	0.04868	0.156181	
-0.248262	0.29482	0.2	
-0.292926	0.235471	0.1	
-0.217513	0.254621	0.1	
-0.287124	0.235637	0.2	
-0.10824	0.362258	0.1	
-0.053688	0.446786	0.150006	
-0.130628	0.430623	0.150047	
-0.108028	0.370407	0.2	
-0.130611	-0.430628	0.15	
-0.104718	-0.361527	0.1	
-0.173995	-0.331361	0.1	
-0.112928	-0.360216	0.2	
-0.285477	0.347854	0.150033	
-0.347855	0.285477	0.150034	
-0.251772	0.306785	0.1	
-0.248262	0.29482	0.2	
0.285477	0.347855	0.149953	
0.347855	0.285477	0.149953	
0.297412	0.240191	0.2	
0.245754	0.289669	0.1	
0.109857	-0.362973	0.1	
0.111895	-0.372646	0.2	
0.0839363	-0.30145	0.2	
0.0511003	-0.317442	0.1	
0.00604814	0.236488	0.2	
-0.0135764	0.270208	0.1	
0.0210919	0.316201	0.2	
0.0447484	0.293988	0.1	
0.180378	0.336857	0.1	
0.18581	0.349201	0.2	
0.228237	0.281807	0.2	
0.245754	0.289669	0.1	
-0.108028	0.370407	0.2	
-0.10824	0.362258	0.1	
-0.0572929	0.316053	0.1	
-0.0730421	0.296762	0.2	
0.173936	0.254382	0.1	
0.155004	0.296903	0.2	
0.228237	0.281807	0.2	
0.180378	0.336857	0.1	
-0.446786	0.0536856	0.15	
-0.372975	0.0289182	0.1	
-0.355442	0.107822	0.1	
-0.362114	0.10176	0.2	
0.0741079	0.088115	0.1	
0.0405437	0.0931998	0.1	
0.0396544	0.04868	0.156181	
0.0186333	0.101613	0.152058	
-0.0318198	0.0318198	0.1	
-0.0611924	0.0535755	0.1	
-0.0606984	0.0243229	0.1	
-0.0436673	0.0180876	0.150301	
-0.00311199	0.32667	0.1	
-0.0339688	0.375665	0.2	
-0.0730421	0.296762	0.2	
0.0210919	0.316201	0.2	
-0.0712343	-0.0265969	0.1	
-0.045	0	0.1	
-0.0737761	0.00176994	0.1	
-0.088703	-0.0138649	0.150815	
0.446786	-0.053688	0.149994	
0.45	0	0.15	
0.374822	-0.0324999	0.1	
0.384421	-0.0378621	0.2	
0.430623	0.130628	0.149953	
0.446786	0.053688	0.149994	
0.369533	0.112832	0.2	
0.355442	0.107822	0.1	
0.261818	-0.161797	0.2	
0.174426	-0.185564	0.2	
0.225509	-0.136032	0.1	
0.211584	-0.20097	0.1	
0.25204	-0.306462	0.2	
0.285477	-0.347855	0.149953	
0.212129	-0.396865	0.149953	
0.187286	-0.334755	0.1	
0.0318198	0.0318198	0.1	
0.00677135	0.0163475	0.1	
0.0060848	-2.90377e-05	0.157763	
0.0396544	0.04868	0.156181	
0.155004	0.296903	0.2	
0.0872949	0.269115	0.2	
0.117493	0.309521	0.1	
0.0906227	0.254757	0.1	
0.154944	0.223937	0.2	
0.144601	0.131477	0.2	
0.0750467	0.185499	0.2	
0.124146	0.156872	0.1	
0.29265	-0.244884	0.2	
0.347855	-0.285477	0.149953	
0.287124	-0.235637	0.1	
0.339399	-0.183579	0.2	
-0.312659	-0.0214623	0.1	
-0.320541	0.0201981	0.2	
-0.379429	-0.0366192	0.2	
-0.318623	-0.0616012	0.2	
-0.201609	-0.173762	0.2	
-0.217835	-0.151685	0.1	
-0.275518	-0.12132	0.2	
-0.190622	-0.0884834	0.2	
-0.0997698	0.0308567	0.2	
-0.0944203	0.0353385	0.1	
-0.0733988	0.0716859	0.157752	
-0.088703	-0.0138649	0.150815	
0.324791	-0.0252069	0.2	
0.26859	-0.0619166	0.2	
0.281012	0.0229437	0.2	
0.251733	-0.014256	0.1	
0.147007	-0.259035	0.2	
0.0839363	-0.30145	0.2	
0.0922363	-0.215793	0.2	
0.082636	-0.254415	0.1	
0.216652	-0.249073	0.2	
0.138545	-0.218367	0.1	
0.211584	-0.20097	0.1	
0.199452	-0.267103	0.1	
0.314556	0.0156287	0.1	
0.281012	0.0229437	0.2	
0.363227	0.0380543	0.2	
0.287454	0.0808414	0.1	
-0.396865	-0.212129	0.149995	
-0.356724	-0.11546	0.1	
-0.327578	-0.175094	0.2	
-0.331484	-0.17939	0.1	
0.296534	0.101262	0.2	
0.213357	0.0766959	0.2	
0.230865	0.135658	0.1	
0.287454	0.0808414	0.1	
-0.225546	-0.215121	0.1	
-0.16441	-0.183508	0.1	
-0.217835	-0.151685	0.1	
-0.201609	-0.173762	0.2	
-0.430628	0.130611	0.15	
-0.351668	0.187175	0.1	
-0.396866	0.212126	0.150019	
-0.32913	0.168426	0.2	
0.251733	-0.014256	0.1	
0.303447	-0.0554764	0.1	
0.26859	-0.0619166	0.2	
0.240073	-0.0744514	0.1	
-0.0496677	-0.250381	0.1	
-0.0615368	-0.322264	0.1	
-0.0137107	-0.295895	0.1	
-0.0659287	-0.28985	0.2	
-0.0251864	-0.106886	0.1	
0.00260765	-0.105267	0.157285	
-0.0276546	-0.0671169	0.1	
-0.0647576	-0.0686517	0.145827	
-0.0251864	-0.106886	0.1	
0.00728726	-0.0832273	0.1	
-0.0276546	-0.0671169	0.1	
0.00260765	-0.105267	0.157285	
0.179715	0.179275	0.1	
0.154944	0.223937	0.2	
0.237285	0.176133	0.2	
0.238182	0.208514	0.1	
0.369533	0.112832	0.2	
0.430623	0.130628	0.149953	
0.355442	0.107822	0.1	
0.349981	0.18562	0.1	
-0.304909	0.0444641	0.1	
-0.253293	0.00301969	0.1	
-0.248332	0.050693	0.2	
-0.320541	0.0201981	0.2	
0.314556	0.0156287	0.1	
0.324791	-0.0252069	0.2	
0.281012	0.0229437	0.2	
0.251733	-0.014256	0.1	
0.190166	-0.0983881	0.2	
0.201967	-0.00950962	0.2	
0.26859	-0.0619166	0.2	
0.240073	-0.0744514	0.1	
-0.104718	-0.361527	0.1	
-0.111587	-0.287654	0.1	
-0.173995	-0.331361	0.1	
-0.13795	-0.29702	0.2	
0.357114	-0.107098	0.1	
0.348465	-0.103096	0.2	
0.287371	-0.120299	0.1	
0.331486	-0.177371	0.1	
-0.111587	-0.287654	0.1	
-0.0615368	-0.322264	0.1	
-0.0496677	-0.250381	0.1	
-0.0659287	-0.28985	0.2	
-0.116127	0.293072	0.1	
-0.0674604	0.249371	0.1	
-0.0572929	0.316053	0.1	
-0.0730421	0.296762	0.2	
-0.296313	0.0995627	0.2	
-0.242461	0.118505	0.1	
-0.300257	0.152847	0.1	
-0.244028	0.149971	0.2	
-0.372975	0.0289182	0.1	
-0.320541	0.0201981	0.2	
-0.389559	0.0336032	0.2	
-0.379429	-0.0366192	0.2	
0.111895	-0.372646	0.2	
0.0404591	-0.377182	0.2	
0.0839363	-0.30145	0.2	
0.0511003	-0.317442	0.1	
-0.0659287	-0.28985	0.2	
-0.0383965	-0.372403	0.2	
-0.0615368	-0.322264	0.1	
0.00378559	-0.316996	0.2	
-0.0383965	-0.372403	0.2	
-0.0615368	-0.322264	0.1	
-0.112928	-0.360216	0.2	
-0.0659287	-0.28985	0.2	
0.0839363	-0.30145	0.2	
0.175084	-0.3275	0.2	
0.111895	-0.372646	0.2	
0.134408	-0.294741	0.1	
0.285477	0.347855	0.149953	
0.228237	0.281807	0.2	
0.18581	0.349201	0.2	
0.245754	0.289669	0.1	
-0.373197	-0.0467972	0.1	
-0.312956	-0.0762135	0.1	
-0.312659	-0.0214623	0.1	
-0.318623	-0.0616012	0.2	
0.261818	-0.161797	0.2	
0.225509	-0.136032	0.1	
0.190166	-0.0983881	0.2	
0.26859	-0.0619166	0.2	
-0.389559	0.0336032	0.2	
-0.446786	0.0536856	0.15	
-0.372975	0.0289182	0.1	
-0.45	0	0.15	
-0.110394	-0.216726	0.1	
-0.133674	-0.228308	0.2	
-0.0529805	-0.19738	0.2	
-0.12308	-0.143942	0.2	
-0.287124	0.235637	0.2	
-0.396866	0.212126	0.150019	
-0.351668	0.187175	0.1	
-0.32913	0.168426	0.2	
0.349981	0.18562	0.1	
0.329177	0.174808	0.2	
0.396865	0.212129	0.149953	
0.304312	0.234791	0.1	
0.363227	0.0380543	0.2	
0.384421	-0.0378621	0.2	
0.374822	-0.0324999	0.1	
0.387235	0.0357483	0.1	
0.304312	0.234791	0.1	
0.297412	0.240191	0.2	
0.347855	0.285477	0.149953	
0.245754	0.289669	0.1	
-0.0358979	0.379949	0.1	
0	0.45	0.15	
-0.053688	0.446786	0.150006	
-0.0339688	0.375665	0.2	
-0.217835	-0.151685	0.1	
-0.265692	-0.195501	0.2	
-0.225546	-0.215121	0.1	
-0.201609	-0.173762	0.2	
-0.248262	0.29482	0.2	
-0.217513	0.254621	0.1	
-0.182284	0.324323	0.1	
-0.173131	0.322508	0.2	
-0.248262	0.29482	0.2	
-0.347855	0.285477	0.150034	
-0.292926	0.235471	0.1	
-0.287124	0.235637	0.2	
-0.248332	0.050693	0.2	
-0.169647	0.0846842	0.2	
-0.242461	0.118505	0.1	
-0.244028	0.149971	0.2	
-0.0383965	-0.372403	0.2	
-0.0536856	-0.446786	0.15	
-0.0276628	-0.367444	0.1	
0	-0.45	0.15	
-0.170075	-0.251953	0.1	
-0.111587	-0.287654	0.1	
-0.110394	-0.216726	0.1	
-0.133674	-0.228308	0.2	
0.0839363	-0.30145	0.2	
0.0148093	-0.246449	0.2	
0.0922363	-0.215793	0.2	
0.082636	-0.254415	0.1	
-0.170075	-0.251953	0.1	
-0.110394	-0.216726	0.1	
-0.16441	-0.183508	0.1	
-0.133674	-0.228308	0.2	
-0.365881	-0.111705	0.2	
-0.379429	-0.0366192	0.2	
-0.373197	-0.0467972	0.1	
-0.446786	-0.053688	0.150006	
0.339399	-0.183579	0.2	
0.261818	-0.161797	0.2	
0.348465	-0.103096	0.2	
0.287371	-0.120299	0.1	
-0.0619298	-0.0870419	0.1	
-0.0251864	-0.106886	0.1	
-0.0276546	-0.0671169	0.1	
-0.0647576	-0.0686517	0.145827	
-0.155635	0.172227	0.2	
-0.207714	0.236511	0.2	
-0.237687	0.180874	0.1	
-0.244028	0.149971	0.2	
0.132963	0.044259	0.2	
0.0632975	0.0980676	0.2	
0.144601	0.131477	0.2	
0.114043	0.0943971	0.1	
0.0148093	-0.246449	0.2	
-0.0659287	-0.28985	0.2	
-0.0137107	-0.295895	0.1	
0.00378559	-0.316996	0.2	
0.120589	0.374273	0.1	
0.107822	0.355442	0.2	
0.18581	0.349201	0.2	
0.130628	0.430623	0.149953	
0.303447	-0.0554764	0.1	
0.348465	-0.103096	0.2	
0.26859	-0.0619166	0.2	
0.287371	-0.120299	0.1	
-0.237792	-0.287474	0.1	
-0.250007	-0.374161	0.1	
-0.173995	-0.331361	0.1	
-0.212128	-0.396865	0.149972	
0.175084	-0.3275	0.2	
0.25204	-0.306462	0.2	
0.187286	-0.334755	0.1	
0.199452	-0.267103	0.1	
-0.00652201	0.151895	0.2	
-0.0232097	0.208019	0.1	
-0.0758641	0.204419	0.2	
0.00604814	0.236488	0.2	
-0.379429	-0.0366192	0.2	
-0.373197	-0.0467972	0.1	
-0.312659	-0.0214623	0.1	
-0.318623	-0.0616012	0.2	
0.154944	0.223937	0.2	
0.173936	0.254382	0.1	
0.179715	0.179275	0.1	
0.129359	0.208003	0.1	
-0.182284	0.324323	0.1	
-0.10824	0.362258	0.1	
-0.212133	0.396862	0.150011	
-0.173131	0.322508	0.2	
-0.160221	-0.122206	0.1	
-0.201609	-0.173762	0.2	
-0.12308	-0.143942	0.2	
-0.190622	-0.0884834	0.2	
-0.253293	0.00301969	0.1	
-0.248332	0.050693	0.2	
-0.320541	0.0201981	0.2	
-0.256491	-0.0362829	0.2	
-0.173131	0.322508	0.2	
-0.248262	0.29482	0.2	
-0.217513	0.254621	0.1	
-0.207714	0.236511	0.2	
-0.446786	0.0536856	0.15	
-0.355442	0.107822	0.1	
-0.430628	0.130611	0.15	
-0.362114	0.10176	0.2	
-0.121547	0.224354	0.1	
-0.138104	0.243902	0.2	
-0.155635	0.172227	0.2	
-0.0758641	0.204419	0.2	
0.108307	-0.130924	0.2	
0.130886	-0.100339	0.1	
0.110168	-0.152489	0.1	
0.062652	-0.118801	0.158114	
0.238182	0.208514	0.1	
0.228237	0.281807	0.2	
0.297412	0.240191	0.2	
0.245754	0.289669	0.1	
0.349981	0.18562	0.1	
0.294509	0.157311	0.1	
0.329177	0.174808	0.2	
0.304312	0.234791	0.1	
-0.237792	-0.287474	0.1	
-0.285477	-0.347855	0.149972	
-0.250007	-0.374161	0.1	
-0.212128	-0.396865	0.149972	
-0.0383965	-0.372403	0.2	
-0.0276628	-0.367444	0.1	
-0.0615368	-0.322264	0.1	
0.00378559	-0.316996	0.2	
0.107822	0.355442	0.2	
0.155004	0.296903	0.2	
0.117493	0.309521	0.1	
0.180378	0.336857	0.1	
0.374822	-0.0324999	0.1	
0.324791	-0.0252069	0.2	
0.384421	-0.0378621	0.2	
0.363227	0.0380543	0.2	
-0.327578	-0.175094	0.2	
-0.365881	-0.111705	0.2	
-0.356724	-0.11546	0.1	
-0.396865	-0.212129	0.149995	
-0.170075	-0.251953	0.1	
-0.173995	-0.331361	0.1	
-0.13795	-0.29702	0.2	
-0.223685	-0.271786	0.2	
-0.275518	-0.12132	0.2	
-0.365881	-0.111705	0.2	
-0.356724	-0.11546	0.1	
-0.327578	-0.175094	0.2	
-0.0415815	-0.110392	0.2	
0.00260765	-0.105267	0.157285	
-0.0607822	-0.132192	0.1	
-0.0647576	-0.0686517	0.145827	
0.329177	0.174808	0.2	
0.237285	0.176133	0.2	
0.297412	0.240191	0.2	
0.294509	0.157311	0.1	
-0.19804	0.0242816	0.1	
-0.169647	0.0846842	0.2	
-0.248332	0.050693	0.2	
-0.181323	-0.0027565	0.2	
0.357114	-0.107098	0.1	
0.348465	-0.103096	0.2	
0.303447	-0.0554764	0.1	
0.287371	-0.120299	0.1	
0.144601	0.131477	0.2	
0.213357	0.0766959	0.2	
0.132963	0.044259	0.2	
0.160735	0.0621263	0.1	
-0.0712343	-0.0265969	0.1	
-0.0318198	-0.0318198	0.1	
-0.0200153	-0.0483211	0.151402	
-0.0647576	-0.0686517	0.145827	
0.00677135	0.0163475	0.1	
-0.00500969	-0.0120945	0.1	
0.0202986	-0.00819178	0.1	
0.0060848	-2.90377e-05	0.157763	
-0.169647	0.0846842	0.2	
-0.155635	0.172227	0.2	
-0.1869	0.140647	0.1	
-0.244028	0.149971	0.2	
-0.0730421	0.296762	0.2	
-0.108028	0.370407	0.2	
-0.116127	0.293072	0.1	
-0.173131	0.322508	0.2	
0.212129	-0.396865	0.149953	
0.175084	-0.3275	0.2	
0.25204	-0.306462	0.2	
0.187286	-0.334755	0.1	
0.363227	0.0380543	0.2	
0.296534	0.101262	0.2	
0.355442	0.107822	0.1	
0.287454	0.0808414	0.1	
0.237285	0.176133	0.2	
0.296534	0.101262	0.2	
0.230865	0.135658	0.1	
0.294509	0.157311	0.1	
0.155004	0.296903	0.2	
0.18581	0.349201	0.2	
0.228237	0.281807	0.2	
0.180378	0.336857	0.1	
0.187286	-0.334755	0.1	
0.109857	-0.362973	0.1	
0.175084	-0.3275	0.2	
0.134408	-0.294741	0.1	
0.00378559	-0.316996	0.2	
-0.0276628	-0.367444	0.1	
-0.0137107	-0.295895	0.1	
0.0511003	-0.317442	0.1	
-0.0529805	-0.19738	0.2	
-0.0659287	-0.28985	0.2	
-0.0496677	-0.250381	0.1	
0.0148093	-0.246449	0.2	
-0.0436673	0.0180876	0.150301	
-0.0733988	0.0716859	0.157752	
-0.0944203	0.0353385	0.1	
-0.088703	-0.0138649	0.150815	
-0.0536856	-0.446786	0.15	
-0.0276628	-0.367444	0.1	
-0.104718	-0.361527	0.1	
-0.0383965	-0.372403	0.2	
0.25204	-0.306462	0.2	
0.347855	-0.285477	0.149953	
0.257787	-0.293807	0.1	
0.29265	-0.244884	0.2	
-0.10824	0.362258	0.1	
-0.182284	0.324323	0.1	
-0.116127	0.293072	0.1	
-0.173131	0.322508	0.2	
-0.446786	-0.053688	0.150006	
-0.373197	-0.0467972	0.1	
-0.365881	-0.111705	0.2	
-0.430623	-0.130628	0.150047	
0.0662467	-0.0253248	0.1	
0.045	0	0.1	
0.0318198	-0.0318198	0.1	
0.0512771	-0.0404658	0.154914	
0.369533	0.112832	0.2	
0.363227	0.0380543	0.2	
0.355442	0.107822	0.1	
0.387235	0.0357483	0.1	
-0.170075	-0.251953	0.1	
-0.173995	-0.331361	0.1	
-0.111587	-0.287654	0.1	
-0.13795	-0.29702	0.2	
0.225509	-0.136032	0.1	
0.190166	-0.0983881	0.2	
0.174426	-0.185564	0.2	
0.261818	-0.161797	0.2	
0.109857	-0.362973	0.1	
0.212129	-0.396865	0.149953	
0.172208	-0.415746	0.1	
0.187286	-0.334755	0.1	
0.190166	-0.0983881	0.2	
0.174426	-0.185564	0.2	
0.108307	-0.130924	0.2	
0.168154	-0.150165	0.1	
0.0202986	-0.00819178	0.1	
0.045	0	0.1	
0.0060848	-2.90377e-05	0.157763	
0.0512771	-0.0404658	0.154914	
-0.0674604	0.249371	0.1	
-0.0730421	0.296762	0.2	
-0.138104	0.243902	0.2	
-0.0758641	0.204419	0.2	
-0.296313	0.0995627	0.2	
-0.248332	0.050693	0.2	
-0.242461	0.118505	0.1	
-0.244028	0.149971	0.2	
-0.116127	0.293072	0.1	
-0.182284	0.324323	0.1	
-0.161049	0.262379	0.1	
-0.173131	0.322508	0.2	
-0.108753	-0.0943056	0.1	
-0.0647576	-0.0686517	0.145827	
-0.112529	-0.0425202	0.1	
-0.142279	-0.0393203	0.151217	
-0.217835	-0.151685	0.1	
-0.275518	-0.12132	0.2	
-0.265692	-0.195501	0.2	
-0.201609	-0.173762	0.2	
-0.0674604	0.249371	0.1	
-0.0730421	0.296762	0.2	
-0.0758641	0.204419	0.2	
0.00604814	0.236488	0.2	
0	-0.045	0.1	
0.0060848	-2.90377e-05	0.157763	
-0.00500969	-0.0120945	0.1	
-0.0200153	-0.0483211	0.151402	
-0.182092	-0.340669	0.2	
-0.237792	-0.287474	0.1	
-0.285477	-0.347855	0.149972	
-0.223685	-0.271786	0.2	
-0.296313	0.0995627	0.2	
-0.300257	0.152847	0.1	
-0.355442	0.107822	0.1	
-0.32913	0.168426	0.2	
-0.248262	0.29482	0.2	
-0.212133	0.396862	0.150011	
-0.285477	0.347854	0.150033	
-0.250007	0.374161	0.2	
0.348465	-0.103096	0.2	
0.430623	-0.130628	0.149953	
0.357114	-0.107098	0.1	
0.384421	-0.0378621	0.2	
0.355442	0.107822	0.1	
0.329177	0.174808	0.2	
0.369533	0.112832	0.2	
0.349981	0.18562	0.1	
-0.396865	-0.212129	0.149995	
-0.365881	-0.111705	0.2	
-0.356724	-0.11546	0.1	
-0.430623	-0.130628	0.150047	
-0.32913	0.168426	0.2	
-0.300257	0.152847	0.1	
-0.287124	0.235637	0.2	
-0.244028	0.149971	0.2	
0.396865	-0.212129	0.149953	
0.430623	-0.130628	0.149953	
0.415746	-0.172208	0.1	
0.331486	-0.177371	0.1	
0.257787	-0.293807	0.1	
0.285477	-0.347855	0.149953	
0.347855	-0.285477	0.149953	
0.25204	-0.306462	0.2	
0.147007	-0.259035	0.2	
0.0922363	-0.215793	0.2	
0.174426	-0.185564	0.2	
0.138545	-0.218367	0.1	
-0.237792	-0.287474	0.1	
-0.318198	-0.318198	0.1	
-0.347855	-0.285477	0.149967	
-0.29175	-0.237189	0.1	
0.117493	0.309521	0.1	
0.120589	0.374273	0.1	
0.107822	0.355442	0.2	
0.180378	0.336857	0.1	
0.331486	-0.177371	0.1	
0.396865	-0.212129	0.149953	
0.347855	-0.285477	0.149953	
0.374161	-0.250007	0.1	
0.0868431	-0.0680824	0.1	
0.0488551	-0.0983509	0.1	
0.0864603	-0.112342	0.1	
0.062652	-0.118801	0.158114	
-0.32913	0.168426	0.2	
-0.430628	0.130611	0.15	
-0.355442	0.107822	0.1	
-0.362114	0.10176	0.2	
-0.248262	0.29482	0.2	
-0.182284	0.324323	0.1	
-0.212133	0.396862	0.150011	
-0.173131	0.322508	0.2	
-0.112928	-0.360216	0.2	
-0.104718	-0.361527	0.1	
-0.173995	-0.331361	0.1	
-0.13795	-0.29702	0.2	
-0.237792	-0.287474	0.1	
-0.298599	-0.245054	0.2	
-0.285477	-0.347855	0.149972	
-0.223685	-0.271786	0.2	
-0.225546	-0.215121	0.1	
-0.29175	-0.237189	0.1	
-0.237792	-0.287474	0.1	
-0.223685	-0.271786	0.2	
-0.138104	0.243902	0.2	
-0.173131	0.322508	0.2	
-0.161049	0.262379	0.1	
-0.207714	0.236511	0.2	
-0.00652201	0.151895	0.2	
-0.0182151	0.0644617	0.2	
-0.0733988	0.0716859	0.157752	
0.0186333	0.101613	0.152058	
0.211584	-0.20097	0.1	
0.138545	-0.218367	0.1	
0.174426	-0.185564	0.2	
0.168154	-0.150165	0.1	
0.415746	-0.172208	0.1	
0.430623	-0.130628	0.149953	
0.357114	-0.107098	0.1	
0.331486	-0.177371	0.1	
-0.182092	-0.340669	0.2	
-0.13795	-0.29702	0.2	
-0.173995	-0.331361	0.1	
-0.223685	-0.271786	0.2	
0.0868431	-0.0680824	0.1	
0.0512771	-0.0404658	0.154914	
0.0488551	-0.0983509	0.1	
0.062652	-0.118801	0.158114	
0.109857	-0.362973	0.1	
0.212129	-0.396865	0.149953	
0.130628	-0.430623	0.149953	
0.172208	-0.415746	0.1	
0.238182	0.208514	0.1	
0.173936	0.254382	0.1	
0.228237	0.281807	0.2	
0.245754	0.289669	0.1	
0.180378	0.336857	0.1	
0.228237	0.281807	0.2	
0.173936	0.254382	0.1	
0.245754	0.289669	0.1	
-0.130628	0.430623	0.150047	
-0.172208	0.415746	0.1	
-0.10824	0.362258	0.1	
-0.212133	0.396862	0.150011	
-0.347855	-0.285477	0.149967	
-0.285477	-0.347855	0.149972	
-0.318198	-0.318198	0.1	
-0.237792	-0.287474	0.1	
-0.312659	-0.0214623	0.1	
-0.320541	0.0201981	0.2	
-0.318623	-0.0616012	0.2	
-0.256491	-0.0362829	0.2	
0.329177	0.174808	0.2	
0.297412	0.240191	0.2	
0.396865	0.212129	0.149953	
0.304312	0.234791	0.1	
0.281012	0.0229437	0.2	
0.26859	-0.0619166	0.2	
0.201967	-0.00950962	0.2	
0.251733	-0.014256	0.1	
0.155004	0.296903	0.2	
0.173936	0.254382	0.1	
0.117493	0.309521	0.1	
0.180378	0.336857	0.1	
0.0447484	0.293988	0.1	
-0.00311199	0.32667	0.1	
0.0210919	0.316201	0.2	
0.0450774	0.367889	0.1	
-0.374161	-0.250007	0.1	
-0.347855	-0.285477	0.149967	
-0.29175	-0.237189	0.1	
-0.331484	-0.17939	0.1	
-0.0135764	0.270208	0.1	
-0.0730421	0.296762	0.2	
0.00604814	0.236488	0.2	
0.0210919	0.316201	0.2	
-0.173995	-0.331361	0.1	
-0.170075	-0.251953	0.1	
-0.237792	-0.287474	0.1	
-0.223685	-0.271786	0.2	
0.132963	0.044259	0.2	
0.201967	-0.00950962	0.2	
0.12107	-0.0431928	0.2	
0.0969794	0.021072	0.155881	
-0.217513	0.254621	0.1	
-0.248262	0.29482	0.2	
-0.287124	0.235637	0.2	
-0.207714	0.236511	0.2	
0.297412	0.240191	0.2	
0.347855	0.285477	0.149953	
0.396865	0.212129	0.149953	
0.304312	0.234791	0.1	
-0.172208	0.415746	0.2	
-0.212133	0.396862	0.150011	
-0.130628	0.430623	0.150047	
-0.108028	0.370407	0.2	
-0.0203113	-0.154489	0.1	
0.0142935	-0.12453	0.1	
-0.0251864	-0.106886	0.1	
0.00260765	-0.105267	0.157285	
-0.173995	-0.331361	0.1	
-0.112928	-0.360216	0.2	
-0.13795	-0.29702	0.2	
-0.182092	-0.340669	0.2	
0.314556	0.0156287	0.1	
0.255462	0.038247	0.1	
0.281012	0.0229437	0.2	
0.287454	0.0808414	0.1	
0.0714224	0.0228299	0.1	
0.0662467	-0.0253248	0.1	
0.104819	-0.00331638	0.1	
0.0969794	0.021072	0.155881	
0.314556	0.0156287	0.1	
0.363227	0.0380543	0.2	
0.355442	0.107822	0.1	
0.287454	0.0808414	0.1	
0.0839363	-0.30145	0.2	
0.00378559	-0.316996	0.2	
0.0148093	-0.246449	0.2	
0.0511003	-0.317442	0.1	
-0.237687	0.180874	0.1	
-0.300257	0.152847	0.1	
-0.242461	0.118505	0.1	
-0.244028	0.149971	0.2	
0.281012	0.0229437	0.2	
0.255462	0.038247	0.1	
0.314556	0.0156287	0.1	
0.251733	-0.014256	0.1	
-0.347855	-0.285477	0.149967	
-0.374161	-0.250007	0.1	
-0.396865	-0.212129	0.149995	
-0.331484	-0.17939	0.1	
0.294509	0.157311	0.1	
0.329177	0.174808	0.2	
0.355442	0.107822	0.1	
0.349981	0.18562	0.1	
0.0318198	0.0318198	0.1	
0.0714224	0.0228299	0.1	
0.0550025	0.059172	0.1	
0.0396544	0.04868	0.156181	
0.396865	0.212129	0.149953	
0.415746	0.172208	0.2	
0.369533	0.112832	0.2	
0.430623	0.130628	0.149953	
-0.365881	-0.111705	0.2	
-0.373197	-0.0467972	0.1	
-0.379429	-0.0366192	0.2	
-0.318623	-0.0616012	0.2	
0.130628	-0.430623	0.149953	
0.111895	-0.372646	0.2	
0.172208	-0.415746	0.2	
0.212129	-0.396865	0.149953	
-0.0615368	-0.322264	0.1	
-0.104718	-0.361527	0.1	
-0.0276628	-0.367444	0.1	
-0.0383965	-0.372403	0.2	
-0.172208	-0.415746	0.1	
-0.173995	-0.331361	0.1	
-0.212128	-0.396865	0.149972	
-0.130611	-0.430628	0.15	
-0.172208	-0.415746	0.2	
-0.112928	-0.360216	0.2	
-0.130611	-0.430628	0.15	
-0.182092	-0.340669	0.2	
0.213357	0.0766959	0.2	
0.296534	0.101262	0.2	
0.281012	0.0229437	0.2	
0.287454	0.0808414	0.1	
-0.175847	0.204716	0.1	
-0.138104	0.243902	0.2	
-0.207714	0.236511	0.2	
-0.155635	0.172227	0.2	
0.134408	-0.294741	0.1	
0.138545	-0.218367	0.1	
0.147007	-0.259035	0.2	
0.199452	-0.267103	0.1	
0.446786	-0.053688	0.149994	
0.430623	-0.130628	0.149953	
0.441353	-0.0877906	0.2	
0.384421	-0.0378621	0.2	
-0.0318198	-0.0318198	0.1	
-0.0200153	-0.0483211	0.151402	
-0.0436673	0.0180876	0.150301	
-0.088703	-0.0138649	0.150815	
-0.207714	0.236511	0.2	
-0.287124	0.235637	0.2	
-0.237687	0.180874	0.1	
-0.244028	0.149971	0.2	
0.250007	0.374161	0.1	
0.285477	0.347855	0.149953	
0.212129	0.396865	0.149953	
0.180378	0.336857	0.1	
0.0210919	0.316201	0.2	
0.0381609	0.387454	0.2	
0.107822	0.355442	0.2	
0.0450774	0.367889	0.1	
0.25204	-0.306462	0.2	
0.257787	-0.293807	0.1	
0.216652	-0.249073	0.2	
0.29265	-0.244884	0.2	
0.250007	0.374161	0.1	
0.285477	0.347855	0.149953	
0.180378	0.336857	0.1	
0.245754	0.289669	0.1	
0.296534	0.101262	0.2	
0.369533	0.112832	0.2	
0.363227	0.0380543	0.2	
0.355442	0.107822	0.1	
0.237285	0.176133	0.2	
0.154944	0.223937	0.2	
0.228237	0.281807	0.2	
0.238182	0.208514	0.1	
0.00378559	-0.316996	0.2	
-0.0383965	-0.372403	0.2	
-0.0276628	-0.367444	0.1	
0.0404591	-0.377182	0.2	
-0.365881	-0.111705	0.2	
-0.356724	-0.11546	0.1	
-0.373197	-0.0467972	0.1	
-0.318623	-0.0616012	0.2	
0.347855	-0.285477	0.149953	
0.287124	-0.235637	0.1	
0.331486	-0.177371	0.1	
0.374161	-0.250007	0.1	
-0.374161	-0.250007	0.2	
-0.298599	-0.245054	0.2	
-0.347855	-0.285477	0.149967	
-0.396865	-0.212129	0.149995	
-0.0276546	-0.0671169	0.1	
0.00728726	-0.0832273	0.1	
0	-0.045	0.1	
-0.0200153	-0.0483211	0.151402	
-0.0383965	-0.372403	0.2	
-0.112928	-0.360216	0.2	
-0.0536856	-0.446786	0.15	
-0.0877906	-0.441353	0.2	
-0.112928	-0.360216	0.2	
-0.130611	-0.430628	0.15	
-0.0536856	-0.446786	0.15	
-0.0877906	-0.441353	0.2	
0.134408	-0.294741	0.1	
0.147007	-0.259035	0.2	
0.175084	-0.3275	0.2	
0.199452	-0.267103	0.1	
-0.0318198	-0.0318198	0.1	
0	-0.045	0.1	
-0.00500969	-0.0120945	0.1	
-0.0200153	-0.0483211	0.151402	
0.297412	0.240191	0.2	
0.228237	0.281807	0.2	
0.285477	0.347855	0.149953	
0.245754	0.289669	0.1	
-0.300257	0.152847	0.1	
-0.351668	0.187175	0.1	
-0.355442	0.107822	0.1	
-0.32913	0.168426	0.2	
0.0877906	0.441353	0.1	
0.120589	0.374273	0.1	
0.130628	0.430623	0.149953	
0.053688	0.446786	0.149994	
-0.130611	-0.430628	0.15	
-0.212128	-0.396865	0.149972	
-0.172208	-0.415746	0.2	
-0.182092	-0.340669	0.2	
-0.173995	-0.331361	0.1	
-0.172208	-0.415746	0.1	
-0.104718	-0.361527	0.1	
-0.130611	-0.430628	0.15	
-0.116127	0.293072	0.1	
-0.0730421	0.296762	0.2	
-0.173131	0.322508	0.2	
-0.138104	0.243902	0.2	
-0.111587	-0.287654	0.1	
-0.170075	-0.251953	0.1	
-0.13795	-0.29702	0.2	
-0.133674	-0.228308	0.2	
-0.182092	-0.340669	0.2	
-0.173995	-0.331361	0.1	
-0.237792	-0.287474	0.1	
-0.223685	-0.271786	0.2	
0.117493	0.309521	0.1	
0.107822	0.355442	0.2	
0.120589	0.374273	0.1	
0.0450774	0.367889	0.1	
-0.170075	-0.251953	0.1	
-0.223685	-0.271786	0.2	
-0.133674	-0.228308	0.2	
-0.201609	-0.173762	0.2	
0.0210919	0.316201	0.2	
0.0872949	0.269115	0.2	
0.00604814	0.236488	0.2	
0.0447484	0.293988	0.1	
0.0060848	-2.90377e-05	0.157763	
-0.0436673	0.0180876	0.150301	
-0.00500969	-0.0120945	0.1	
-0.0200153	-0.0483211	0.151402	
-0.298599	-0.245054	0.2	
-0.237792	-0.287474	0.1	
-0.29175	-0.237189	0.1	
-0.223685	-0.271786	0.2	
-0.172208	0.415746	0.1	
-0.182284	0.324323	0.1	
-0.10824	0.362258	0.1	
-0.212133	0.396862	0.150011	
0.0986719	-0.0360043	0.1	
0.0662467	-0.0253248	0.1	
0.0868431	-0.0680824	0.1	
0.0512771	-0.0404658	0.154914	
-0.355442	0.107822	0.1	
-0.296313	0.0995627	0.2	
-0.32913	0.168426	0.2	
-0.362114	0.10176	0.2	
-0.347855	0.285477	0.150034	
-0.396866	0.212126	0.150019	
-0.287124	0.235637	0.2	
-0.374161	0.250007	0.2	
0.329177	0.174808	0.2	
0.296534	0.101262	0.2	
0.294509	0.157311	0.1	
0.355442	0.107822	0.1	
-0.190622	-0.0884834	0.2	
-0.111446	-0.0565624	0.2	
-0.12308	-0.143942	0.2	
-0.142279	-0.0393203	0.151217	
0.144601	0.131477	0.2	
0.237285	0.176133	0.2	
0.213357	0.0766959	0.2	
0.230865	0.135658	0.1	
-0.430628	0.130611	0.15	
-0.441353	0.0877906	0.1	
-0.355442	0.107822	0.1	
-0.446786	0.0536856	0.15	
0.296534	0.101262	0.2	
0.329177	0.174808	0.2	
0.369533	0.112832	0.2	
0.355442	0.107822	0.1	
-0.298599	-0.245054	0.2	
-0.374161	-0.250007	0.2	
-0.327578	-0.175094	0.2	
-0.396865	-0.212129	0.149995	
0.0207402	-0.174187	0.1	
0.0279075	-0.16395	0.2	
0.062652	-0.118801	0.158114	
0.00260765	-0.105267	0.157285	
0.0872949	0.269115	0.2	
0.0447484	0.293988	0.1	
0.117493	0.309521	0.1	
0.0906227	0.254757	0.1	
0.374822	-0.0324999	0.1	
0.324791	-0.0252069	0.2	
0.363227	0.0380543	0.2	
0.314556	0.0156287	0.1	
-0.396866	0.212126	0.150019	
-0.430628	0.130611	0.15	
-0.32913	0.168426	0.2	
-0.415746	0.172208	0.2	
0.0839363	-0.30145	0.2	
0.147007	-0.259035	0.2	
0.175084	-0.3275	0.2	
0.134408	-0.294741	0.1	
0.387235	0.0357483	0.1	
0.363227	0.0380543	0.2	
0.355442	0.107822	0.1	
0.314556	0.0156287	0.1	
0.415746	-0.172208	0.2	
0.430623	-0.130628	0.149953	
0.396865	-0.212129	0.149953	
0.339399	-0.183579	0.2	
-0.201609	-0.173762	0.2	
-0.133674	-0.228308	0.2	
-0.16441	-0.183508	0.1	
-0.12308	-0.143942	0.2	
-0.373197	-0.0467972	0.1	
-0.356724	-0.11546	0.1	
-0.365881	-0.111705	0.2	
-0.430623	-0.130628	0.150047	
0.396865	-0.212129	0.149953	
0.347855	-0.285477	0.149953	
0.374161	-0.250007	0.2	
0.339399	-0.183579	0.2	
0.347855	0.285477	0.149953	
0.297412	0.240191	0.2	
0.318198	0.318198	0.2	
0.285477	0.347855	0.149953	
0.357114	-0.107098	0.1	
0.446786	-0.053688	0.149994	
0.430623	-0.130628	0.149953	
0.441353	-0.0877906	0.1	
-0.133674	-0.228308	0.2	
-0.13795	-0.29702	0.2	
-0.111587	-0.287654	0.1	
-0.0659287	-0.28985	0.2	
0.441353	0.0877906	0.1	
0.446786	0.053688	0.149994	
0.355442	0.107822	0.1	
0.387235	0.0357483	0.1	
0.257787	-0.293807	0.1	
0.287124	-0.235637	0.1	
0.216652	-0.249073	0.2	
0.29265	-0.244884	0.2	
0.0877906	0.441353	0.1	
0.120589	0.374273	0.1	
0.053688	0.446786	0.149994	
0.0450774	0.367889	0.1	
0.0858783	0.0607949	0.1	
0.0396544	0.04868	0.156181	
0.0714224	0.0228299	0.1	
0.0969794	0.021072	0.155881	
0.387235	0.0357483	0.1	
0.374822	-0.0324999	0.1	
0.363227	0.0380543	0.2	
0.314556	0.0156287	0.1	
0.329177	0.174808	0.2	
0.415746	0.172208	0.2	
0.369533	0.112832	0.2	
0.396865	0.212129	0.149953	
-0.225546	-0.215121	0.1	
-0.237792	-0.287474	0.1	
-0.170075	-0.251953	0.1	
-0.223685	-0.271786	0.2	
-0.304909	0.0444641	0.1	
-0.372975	0.0289182	0.1	
-0.312659	-0.0214623	0.1	
-0.320541	0.0201981	0.2	
0.261818	-0.161797	0.2	
0.26859	-0.0619166	0.2	
0.348465	-0.103096	0.2	
0.287371	-0.120299	0.1	
0.294509	0.157311	0.1	
0.230865	0.135658	0.1	
0.237285	0.176133	0.2	
0.238182	0.208514	0.1	
-0.10824	0.362258	0.1	
-0.0358979	0.379949	0.1	
-0.0877906	0.441353	0.1	
-0.053688	0.446786	0.150006	
0.357114	-0.107098	0.1	
0.374822	-0.0324999	0.1	
0.446786	-0.053688	0.149994	
0.441353	-0.0877906	0.1	
0.355442	0.107822	0.1	
0.296534	0.101262	0.2	
0.294509	0.157311	0.1	
0.287454	0.0808414	0.1	
0.0511003	-0.317442	0.1	
0.082636	-0.254415	0.1	
0.0839363	-0.30145	0.2	
0.134408	-0.294741	0.1	
0.237285	0.176133	0.2	
0.144601	0.131477	0.2	
0.154944	0.223937	0.2	
0.179715	0.179275	0.1	
0.0839363	-0.30145	0.2	
0.109857	-0.362973	0.1	
0.0511003	-0.317442	0.1	
0.134408	-0.294741	0.1	
0.175084	-0.3275	0.2	
0.172208	-0.415746	0.2	
0.111895	-0.372646	0.2	
0.212129	-0.396865	0.149953	
-0.292926	0.235471	0.1	
-0.374161	0.250007	0.1	
-0.351668	0.187175	0.1	
-0.347855	0.285477	0.150034	
-0.250007	0.374161	0.2	
-0.248262	0.29482	0.2	
-0.212133	0.396862	0.150011	
-0.173131	0.322508	0.2	
0.237285	0.176133	0.2	
0.296534	0.101262	0.2	
0.213357	0.0766959	0.2	
0.230865	0.135658	0.1	
0.228237	0.281807	0.2	
0.297412	0.240191	0.2	
0.237285	0.176133	0.2	
0.238182	0.208514	0.1	
0.314556	0.0156287	0.1	
0.374822	-0.0324999	0.1	
0.324791	-0.0252069	0.2	
0.303447	-0.0554764	0.1	
0.25204	-0.306462	0.2	
0.175084	-0.3275	0.2	
0.216652	-0.249073	0.2	
0.199452	-0.267103	0.1	
-0.396866	0.212126	0.150019	
-0.351668	0.187175	0.1	
-0.374161	0.250007	0.1	
-0.347855	0.285477	0.150034	
0.230865	0.135658	0.1	
0.179715	0.179275	0.1	
0.237285	0.176133	0.2	
0.238182	0.208514	0.1	
-0.372975	0.0289182	0.1	
-0.355442	0.107822	0.1	
-0.441353	0.0877906	0.1	
-0.446786	0.0536856	0.15	
-0.396865	-0.212129	0.149995	
-0.356724	-0.11546	0.1	
-0.415746	-0.172208	0.1	
-0.430623	-0.130628	0.150047	
0.250007	-0.374161	0.2	
0.285477	-0.347855	0.149953	
0.212129	-0.396865	0.149953	
0.25204	-0.306462	0.2	
-0.396865	-0.212129	0.149995	
-0.415746	-0.172208	0.2	
-0.365881	-0.111705	0.2	
-0.430623	-0.130628	0.150047	
0.00728726	-0.0832273	0.1	
-0.0200153	-0.0483211	0.151402	
-0.0276546	-0.0671169	0.1	
0.00260765	-0.105267	0.157285	
0.155004	0.296903	0.2	
0.0872949	0.269115	0.2	
0.107822	0.355442	0.2	
0.117493	0.309521	0.1	
0.0488551	-0.0983509	0.1	
0.062652	-0.118801	0.158114	
0.0512771	-0.0404658	0.154914	
0.00260765	-0.105267	0.157285	
0.211584	-0.20097	0.1	
0.287124	-0.235637	0.1	
0.216652	-0.249073	0.2	
0.199452	-0.267103	0.1	
0.0488551	-0.0983509	0.1	
0.00728726	-0.0832273	0.1	
0.0142935	-0.12453	0.1	
0.00260765	-0.105267	0.157285	
-0.0415815	-0.110392	0.2	
0.0279075	-0.16395	0.2	
-0.0529805	-0.19738	0.2	
0.00260765	-0.105267	0.157285	
0.257787	-0.293807	0.1	
0.216652	-0.249073	0.2	
0.287124	-0.235637	0.1	
0.199452	-0.267103	0.1	
0.318198	0.318198	0.1	
0.347855	0.285477	0.149953	
0.285477	0.347855	0.149953	
0.245754	0.289669	0.1	
0.374161	-0.250007	0.2	
0.347855	-0.285477	0.149953	
0.29265	-0.244884	0.2	
0.339399	-0.183579	0.2	
-0.223685	-0.271786	0.2	
-0.225546	-0.215121	0.1	
-0.265692	-0.195501	0.2	
-0.201609	-0.173762	0.2	
0.00378559	-0.316996	0.2	
0.0839363	-0.30145	0.2	
0.0404591	-0.377182	0.2	
0.0511003	-0.317442	0.1	
0.374161	0.250007	0.2	
0.297412	0.240191	0.2	
0.347855	0.285477	0.149953	
0.396865	0.212129	0.149953	
-0.347855	0.285477	0.150034	
-0.285477	0.347854	0.150033	
-0.318198	0.318198	0.2	
-0.248262	0.29482	0.2	
-0.0877906	0.441353	0.1	
-0.10824	0.362258	0.1	
-0.053688	0.446786	0.150006	
-0.130628	0.430623	0.150047	
0.154944	0.223937	0.2	
0.155004	0.296903	0.2	
0.228237	0.281807	0.2	
0.173936	0.254382	0.1	
0.348465	-0.103096	0.2	
0.26859	-0.0619166	0.2	
0.324791	-0.0252069	0.2	
0.303447	-0.0554764	0.1	
0.18581	0.349201	0.2	
0.172208	0.415746	0.2	
0.212129	0.396865	0.149953	
0.130628	0.430623	0.149953	
-0.0276546	-0.0671169	0.1	
0.00260765	-0.105267	0.157285	
-0.0200153	-0.0483211	0.151402	
-0.0647576	-0.0686517	0.145827	
0.296534	0.101262	0.2	
0.237285	0.176133	0.2	
0.329177	0.174808	0.2	
0.294509	0.157311	0.1	
0.318198	-0.318198	0.2	
0.347855	-0.285477	0.149953	
0.285477	-0.347855	0.149953	
0.25204	-0.306462	0.2	
0.430623	0.130628	0.149953	
0.396865	0.212129	0.149953	
0.415746	0.172208	0.1	
0.349981	0.18562	0.1	
0.130628	-0.430623	0.149953	
0.053688	-0.446786	0.149994	
0.044217	-0.387842	0.1	
0.0877906	-0.441353	0.1	
0.175084	-0.3275	0.2	
0.187286	-0.334755	0.1	
0.134408	-0.294741	0.1	
0.199452	-0.267103	0.1	
-0.396865	-0.212129	0.149995	
-0.415746	-0.172208	0.1	
-0.356724	-0.11546	0.1	
-0.331484	-0.17939	0.1	
-0.374161	0.250007	0.2	
-0.396866	0.212126	0.150019	
-0.287124	0.235637	0.2	
-0.32913	0.168426	0.2	
-0.0358979	0.379949	0.1	
0	0.45	0.1	
0	0.45	0.15	
0.0450774	0.367889	0.1	
-0.320541	0.0201981	0.2	
-0.248332	0.050693	0.2	
-0.304909	0.0444641	0.1	
-0.296313	0.0995627	0.2	
-0.292926	0.235471	0.1	
-0.251772	0.306785	0.1	
-0.318198	0.318198	0.1	
-0.347855	0.285477	0.150034	
-0.347855	0.285477	0.150034	
-0.251772	0.306785	0.1	
-0.318198	0.318198	0.1	
-0.285477	0.347854	0.150033	
-0.251772	0.306785	0.1	
-0.212133	0.396862	0.150011	
-0.250007	0.374161	0.1	
-0.285477	0.347854	0.150033	
-0.396866	0.212126	0.150019	
-0.415746	0.172208	0.1	
-0.351668	0.187175	0.1	
-0.430628	0.130611	0.15	
0.287124	-0.235637	0.1	
0.257787	-0.293807	0.1	
0.347855	-0.285477	0.149953	
0.29265	-0.244884	0.2	
0.0404591	-0.377182	0.2	
0	-0.45	0.2	
-0.0383965	-0.372403	0.2	
0	-0.45	0.15	
-0.365881	-0.111705	0.2	
-0.327578	-0.175094	0.2	
-0.415746	-0.172208	0.2	
-0.396865	-0.212129	0.149995	
-0.108028	0.370407	0.2	
-0.172208	0.415746	0.2	
-0.212133	0.396862	0.150011	
-0.173131	0.322508	0.2	
0.25204	-0.306462	0.2	
0.318198	-0.318198	0.2	
0.347855	-0.285477	0.149953	
0.29265	-0.244884	0.2	
-0.0791922	0.124893	0.1	
-0.0949426	0.0752698	0.1	
-0.0583523	0.0875158	0.1	
-0.0733988	0.0716859	0.157752	
0.114815	0.0394603	0.1	
0.104819	-0.00331638	0.1	
0.153315	0.00689278	0.1	
0.0969794	0.021072	0.155881	
0.18581	0.349201	0.2	
0.250007	0.374161	0.2	
0.285477	0.347855	0.149953	
0.212129	0.396865	0.149953	
0.384421	-0.0378621	0.2	
0.45	0	0.2	
0.45	0	0.15	
0.363227	0.0380543	0.2	
-0.32913	0.168426	0.2	
-0.296313	0.0995627	0.2	
-0.300257	0.152847	0.1	
-0.244028	0.149971	0.2	
-0.355442	0.107822	0.1	
-0.351668	0.187175	0.1	
-0.415746	0.172208	0.1	
-0.430628	0.130611	0.15	
0.216652	-0.249073	0.2	
0.257787	-0.293807	0.1	
0.25204	-0.306462	0.2	
0.199452	-0.267103	0.1	
-0.0944203	0.0353385	0.1	
-0.104461	0.000932435	0.1	
-0.0737761	0.00176994	0.1	
-0.088703	-0.0138649	0.150815	
0.441353	0.0877906	0.1	
0.446786	0.053688	0.149994	
0.430623	0.130628	0.149953	
0.355442	0.107822	0.1	
0.369533	0.112832	0.2	
0.441353	0.0877906	0.2	
0.446786	0.053688	0.149994	
0.430623	0.130628	0.149953	
0.0550025	0.059172	0.1	
0.0250698	0.0602098	0.1	
0.0318198	0.0318198	0.1	
0.0396544	0.04868	0.156181	
0.147007	-0.259035	0.2	
0.216652	-0.249073	0.2	
0.175084	-0.3275	0.2	
0.199452	-0.267103	0.1	
0.187286	-0.334755	0.1	
0.285477	-0.347855	0.149953	
0.212129	-0.396865	0.149953	
0.250007	-0.374161	0.1	
0.216652	-0.249073	0.2	
0.174426	-0.185564	0.2	
0.261818	-0.161797	0.2	
0.211584	-0.20097	0.1	
-0.446786	-0.053688	0.150006	
-0.441353	-0.0877906	0.1	
-0.373197	-0.0467972	0.1	
-0.430623	-0.130628	0.150047	
-0.415746	0.172208	0.2	
-0.430628	0.130611	0.15	
-0.32913	0.168426	0.2	
-0.362114	0.10176	0.2	
-0.379429	-0.0366192	0.2	
-0.365881	-0.111705	0.2	
-0.441353	-0.0877906	0.2	
-0.446786	-0.053688	0.150006	
0.0405437	0.0931998	0.1	
0.0691478	0.134694	0.1	
0.0139627	0.124614	0.1	
0.0186333	0.101613	0.152058	
0.347855	0.285477	0.149953	
0.318198	0.318198	0.1	
0.304312	0.234791	0.1	
0.245754	0.289669	0.1	
-0.223685	-0.271786	0.2	
-0.13795	-0.29702	0.2	
-0.170075	-0.251953	0.1	
-0.133674	-0.228308	0.2	
0.250007	-0.374161	0.2	
0.212129	-0.396865	0.149953	
0.175084	-0.3275	0.2	
0.25204	-0.306462	0.2	
0.044217	-0.387842	0.1	
0.109857	-0.362973	0.1	
0.130628	-0.430623	0.149953	
0.0877906	-0.441353	0.1	
-0.108753	-0.0943056	0.1	
-0.112529	-0.0425202	0.1	
-0.157075	-0.0653284	0.1	
-0.142279	-0.0393203	0.151217	
-0.347855	-0.285477	0.149967	
-0.298599	-0.245054	0.2	
-0.318198	-0.318198	0.2	
-0.285477	-0.347855	0.149972	
-0.0949426	0.0752698	0.1	
-0.0944203	0.0353385	0.1	
-0.0611924	0.0535755	0.1	
-0.0733988	0.0716859	0.157752	
0.0250698	0.0602098	0.1	
0.0405437	0.0931998	0.1	
0.00442099	0.0829354	0.1	
0.0186333	0.101613	0.152058	
-0.00652201	0.151895	0.2	
-0.0182151	0.0644617	0.2	
-0.0880857	0.11829	0.2	
-0.0733988	0.0716859	0.157752	
-0.250007	0.374161	0.1	
-0.182284	0.324323	0.1	
-0.212133	0.396862	0.150011	
-0.251772	0.306785	0.1	
-0.285477	-0.347855	0.149972	
-0.250007	-0.374161	0.2	
-0.212128	-0.396865	0.149972	
-0.182092	-0.340669	0.2	
-0.0200153	-0.0483211	0.151402	
-0.088703	-0.0138649	0.150815	
-0.0712343	-0.0265969	0.1	
-0.0647576	-0.0686517	0.145827	
0.257787	-0.293807	0.1	
0.285477	-0.347855	0.149953	
0.187286	-0.334755	0.1	
0.250007	-0.374161	0.1	
0.363227	0.0380543	0.2	
0.369533	0.112832	0.2	
0.441353	0.0877906	0.2	
0.446786	0.053688	0.149994	
0.172208	0.415746	0.1	
0.120589	0.374273	0.1	
0.212129	0.396865	0.149953	
0.130628	0.430623	0.149953	
0.130628	-0.430623	0.149953	
0.0877906	-0.441353	0.2	
0.111895	-0.372646	0.2	
0.053688	-0.446786	0.149994	
0.0750467	0.185499	0.2	
0.0632975	0.0980676	0.2	
-0.00652201	0.151895	0.2	
0.0186333	0.101613	0.152058	
0.297412	0.240191	0.2	
0.374161	0.250007	0.2	
0.329177	0.174808	0.2	
0.396865	0.212129	0.149953	
0	-0.45	0.15	
0	-0.45	0.1	
-0.0276628	-0.367444	0.1	
0.044217	-0.387842	0.1	
-0.365881	-0.111705	0.2	
-0.441353	-0.0877906	0.2	
-0.446786	-0.053688	0.150006	
-0.430623	-0.130628	0.150047	
0.45	0	0.2	
0.45	0	0.15	
0.363227	0.0380543	0.2	
0.446786	0.053688	0.149994	
0.0398215	-0.0765894	0.2	
-0.0200153	-0.0483211	0.151402	
0.0060848	-2.90377e-05	0.157763	
0.0512771	-0.0404658	0.154914	
0.107822	0.355442	0.2	
0.172208	0.415746	0.2	
0.18581	0.349201	0.2	
0.130628	0.430623	0.149953	
-0.362114	0.10176	0.2	
-0.441353	0.0877906	0.2	
-0.446786	0.0536856	0.15	
-0.389559	0.0336032	0.2	
-0.12308	-0.143942	0.2	
-0.111446	-0.0565624	0.2	
-0.0415815	-0.110392	0.2	
-0.0647576	-0.0686517	0.145827	
-0.372975	0.0289182	0.1	
-0.45	0	0.1	
-0.373197	-0.0467972	0.1	
-0.45	0	0.15	
0.0877906	-0.441353	0.2	
0.0404591	-0.377182	0.2	
0.111895	-0.372646	0.2	
0.053688	-0.446786	0.149994	
-0.0538392	-0.0535857	0.1	
-0.0712343	-0.0265969	0.1	
-0.080591	-0.0588792	0.1	
-0.0647576	-0.0686517	0.145827	
-0.080591	-0.0588792	0.1	
-0.088703	-0.0138649	0.150815	
-0.112529	-0.0425202	0.1	
-0.0647576	-0.0686517	0.145827	
0.212129	0.396865	0.149953	
0.120589	0.374273	0.1	
0.172208	0.415746	0.1	
0.180378	0.336857	0.1	
-0.0318198	0.0318198	0.1	
-0.0606984	0.0243229	0.1	
-0.045	0	0.1	
-0.0436673	0.0180876	0.150301	
-0.0182151	0.0644617	0.2	
0.0396544	0.04868	0.156181	
0.0060848	-2.90377e-05	0.157763	
-0.0436673	0.0180876	0.150301	
0.053688	0.446786	0.149994	
0	0.45	0.15	
0	0.45	0.1	
0.0450774	0.367889	0.1	
0.339399	-0.183579	0.2	
0.415746	-0.172208	0.2	
0.430623	-0.130628	0.149953	
0.348465	-0.103096	0.2	
0.349981	0.18562	0.1	
0.396865	0.212129	0.149953	
0.374161	0.250007	0.1	
0.304312	0.234791	0.1	
0.0587245	-0.143156	0.1	
0.110168	-0.152489	0.1	
0.0864603	-0.112342	0.1	
0.062652	-0.118801	0.158114	
0.0587245	-0.143156	0.1	
0.0488551	-0.0983509	0.1	
0.0142935	-0.12453	0.1	
0.062652	-0.118801	0.158114	
0.0250698	0.0602098	0.1	
0.0396544	0.04868	0.156181	
0.0405437	0.0931998	0.1	
0.0186333	0.101613	0.152058	
-0.0536856	-0.446786	0.15	
-0.104718	-0.361527	0.1	
-0.0877906	-0.441353	0.1	
-0.130611	-0.430628	0.15	
-0.0339688	0.375665	0.2	
0	0.45	0.15	
0	0.45	0.2	
0.0381609	0.387454	0.2	
-0.379429	-0.0366192	0.2	
-0.45	0	0.2	
-0.389559	0.0336032	0.2	
-0.45	0	0.15	
0.297412	0.240191	0.2	
0.228237	0.281807	0.2	
0.318198	0.318198	0.2	
0.285477	0.347855	0.149953	
0.348465	-0.103096	0.2	
0.441353	-0.0877906	0.2	
0.430623	-0.130628	0.149953	
0.384421	-0.0378621	0.2	
-0.080591	-0.0588792	0.1	
-0.0712343	-0.0265969	0.1	
-0.112529	-0.0425202	0.1	
-0.088703	-0.0138649	0.150815	
-0.446786	-0.053688	0.150006	
-0.373197	-0.0467972	0.1	
-0.45	0	0.1	
-0.45	0	0.15	
0.396865	0.212129	0.149953	
0.347855	0.285477	0.149953	
0.374161	0.250007	0.1	
0.304312	0.234791	0.1	
0.0398215	-0.0765894	0.2	
0.0512771	-0.0404658	0.154914	
0.12107	-0.0431928	0.2	
0.062652	-0.118801	0.158114	
0.281012	0.0229437	0.2	
0.363227	0.0380543	0.2	
0.324791	-0.0252069	0.2	
0.314556	0.0156287	0.1	
-0.248262	0.29482	0.2	
-0.318198	0.318198	0.2	
-0.347855	0.285477	0.150034	
-0.287124	0.235637	0.2	
-0.0877906	0.441353	0.2	
-0.130628	0.430623	0.150047	
-0.053688	0.446786	0.150006	
-0.108028	0.370407	0.2	
0.355442	0.107822	0.1	
0.430623	0.130628	0.149953	
0.415746	0.172208	0.1	
0.349981	0.18562	0.1	
-0.441353	0.0877906	0.2	
-0.446786	0.0536856	0.15	
-0.430628	0.130611	0.15	
-0.362114	0.10176	0.2	
-0.0383965	-0.372403	0.2	
0	-0.45	0.2	
-0.0536856	-0.446786	0.15	
0	-0.45	0.15	
-0.053688	0.446786	0.150006	
-0.0877906	0.441353	0.2	
-0.108028	0.370407	0.2	
-0.0339688	0.375665	0.2	
-0.112529	-0.0425202	0.1	
-0.0647576	-0.0686517	0.145827	
-0.088703	-0.0138649	0.150815	
-0.142279	-0.0393203	0.151217	
0.374822	-0.0324999	0.1	
0.45	0	0.15	
0.45	0	0.1	
0.387235	0.0357483	0.1	
0	-0.45	0.1	
-0.0276628	-0.367444	0.1	
-0.0536856	-0.446786	0.15	
0	-0.45	0.15	
0.0868431	-0.0680824	0.1	
0.0662467	-0.0253248	0.1	
0.0401753	-0.0586342	0.1	
0.0512771	-0.0404658	0.154914	
0.18581	0.349201	0.2	
0.250007	0.374161	0.2	
0.228237	0.281807	0.2	
0.285477	0.347855	0.149953	
-0.356724	-0.11546	0.1	
-0.373197	-0.0467972	0.1	
-0.441353	-0.0877906	0.1	
-0.430623	-0.130628	0.150047	
0.0279075	-0.16395	0.2	
0.108307	-0.130924	0.2	
0.0922363	-0.215793	0.2	
0.062652	-0.118801	0.158114	
-0.298599	-0.245054	0.2	
-0.318198	-0.318198	0.2	
-0.285477	-0.347855	0.149972	
-0.223685	-0.271786	0.2	
-0.0318198	0.0318198	0.1	
-0.045	0	0.1	
-0.0201457	0.00856081	0.1	
-0.0436673	0.0180876	0.150301	
-0.0276628	-0.367444	0.1	
-0.104718	-0.361527	0.1	
-0.0877906	-0.441353	0.1	
-0.0536856	-0.446786	0.15	
-0.153293	-0.011499	0.1	
-0.203899	-0.0323666	0.1	
-0.157075	-0.0653284	0.1	
-0.142279	-0.0393203	0.151217	
0.0398215	-0.0765894	0.2	
0.0060848	-2.90377e-05	0.157763	
0.0516213	0.0106253	0.2	
0.0512771	-0.0404658	0.154914	
-0.182092	-0.340669	0.2	
-0.285477	-0.347855	0.149972	
-0.250007	-0.374161	0.2	
-0.223685	-0.271786	0.2	
0.0488551	-0.0983509	0.1	
0.0142935	-0.12453	0.1	
0.062652	-0.118801	0.158114	
0.00260765	-0.105267	0.157285	
0.285477	-0.347855	0.149953	
0.318198	-0.318198	0.1	
0.257787	-0.293807	0.1	
0.347855	-0.285477	0.149953	
-0.0276546	-0.0671169	0.1	
-0.0538392	-0.0535857	0.1	
-0.0619298	-0.0870419	0.1	
-0.0647576	-0.0686517	0.145827	
0.114815	0.0394603	0.1	
0.0858783	0.0607949	0.1	
0.0714224	0.0228299	0.1	
0.0969794	0.021072	0.155881	
0.45	0	0.1	
0.446786	-0.053688	0.149994	
0.45	0	0.15	
0.374822	-0.0324999	0.1	
-0.0415815	-0.110392	0.2	
-0.0200153	-0.0483211	0.151402	
0.0398215	-0.0765894	0.2	
0.00260765	-0.105267	0.157285	
0	-0.45	0.15	
0.0404591	-0.377182	0.2	
0	-0.45	0.2	
0.053688	-0.446786	0.149994	
-0.0949426	0.0752698	0.1	
-0.0611924	0.0535755	0.1	
-0.0583523	0.0875158	0.1	
-0.0733988	0.0716859	0.157752	
-0.446786	0.0536856	0.15	
-0.45	0	0.1	
-0.372975	0.0289182	0.1	
-0.45	0	0.15	
0.0142935	-0.12453	0.1	
0.00728726	-0.0832273	0.1	
-0.0251864	-0.106886	0.1	
0.00260765	-0.105267	0.157285	
-0.104461	0.000932435	0.1	
-0.153293	-0.011499	0.1	
-0.112529	-0.0425202	0.1	
-0.142279	-0.0393203	0.151217	
-0.0299174	-0.0229457	0.2	
0.0060848	-2.90377e-05	0.157763	
0.0398215	-0.0765894	0.2	
-0.0200153	-0.0483211	0.151402	
-0.053688	0.446786	0.150006	
0	0.45	0.15	
0	0.45	0.2	
-0.0339688	0.375665	0.2	
0.0516213	0.0106253	0.2	
0.0396544	0.04868	0.156181	
0.0632975	0.0980676	0.2	
0.0969794	0.021072	0.155881	
-0.45	0	0.2	
-0.379429	-0.0366192	0.2	
-0.446786	-0.053688	0.150006	
-0.45	0	0.15	
0.0662467	-0.0253248	0.1	
0.0318198	-0.0318198	0.1	
0.0401753	-0.0586342	0.1	
0.0512771	-0.0404658	0.154914	
0.0516213	0.0106253	0.2	
0.0060848	-2.90377e-05	0.157763	
0.0396544	0.04868	0.156181	
0.0512771	-0.0404658	0.154914	
0	-0.045	0.1	
-0.0318198	-0.0318198	0.1	
-0.0276546	-0.0671169	0.1	
-0.0200153	-0.0483211	0.151402	
-0.0712343	-0.0265969	0.1	
-0.088703	-0.0138649	0.150815	
-0.080591	-0.0588792	0.1	
-0.0647576	-0.0686517	0.145827	
-0.0619298	-0.0870419	0.1	
-0.080591	-0.0588792	0.1	
-0.108753	-0.0943056	0.1	
-0.0647576	-0.0686517	0.145827	
-0.0182151	0.0644617	0.2	
-0.0299174	-0.0229457	0.2	
-0.0997698	0.0308567	0.2	
-0.0436673	0.0180876	0.150301	
0.0516213	0.0106253	0.2	
-0.0299174	-0.0229457	0.2	
-0.0182151	0.0644617	0.2	
0.0060848	-2.90377e-05	0.157763	
0.0632975	0.0980676	0.2	
0.0516213	0.0106253	0.2	
-0.0182151	0.0644617	0.2	
0.0396544	0.04868	0.156181	
0.0516213	0.0106253	0.2	
0.0512771	-0.0404658	0.154914	
0.0396544	0.04868	0.156181	
0.0969794	0.021072	0.155881	
0.0398215	-0.0765894	0.2	
0.12107	-0.0431928	0.2	
0.108307	-0.130924	0.2	
0.062652	-0.118801	0.158114	
-0.111446	-0.0565624	0.2	
-0.0299174	-0.0229457	0.2	
-0.0415815	-0.110392	0.2	
-0.0647576	-0.0686517	0.145827	
-0.0299174	-0.0229457	0.2	
0.0398215	-0.0765894	0.2	
-0.0415815	-0.110392	0.2	
-0.0200153	-0.0483211	0.151402	
0.0516213	0.0106253	0.2	
0.0398215	-0.0765894	0.2	
-0.0299174	-0.0229457	0.2	
0.0060848	-2.90377e-05	0.157763	
-0.0997698	0.0308567	0.2	
-0.088703	-0.0138649	0.150815	
-0.111446	-0.0565624	0.2	
-0.142279	-0.0393203	0.151217	
-0.0880857	0.11829	0.2	
-0.0182151	0.0644617	0.2	
-0.0997698	0.0308567	0.2	
-0.0733988	0.0716859	0.157752	
0	-0.45	0.1	
0	-0.45	0.15	
0.053688	-0.446786	0.149994	
0.044217	-0.387842	0.1	
-0.0997698	0.0308567	0.2	
-0.169647	0.0846842	0.2	
-0.0880857	0.11829	0.2	
-0.0733988	0.0716859	0.157752	
0	0.45	0.15	
0	0.45	0.1	
-0.0358979	0.379949	0.1	
-0.053688	0.446786	0.150006	
-0.0997698	0.0308567	0.2	
-0.111446	-0.0565624	0.2	
-0.181323	-0.0027565	0.2	
-0.142279	-0.0393203	0.151217	
0.0632975	0.0980676	0.2	
-0.0182151	0.0644617	0.2	
-0.00652201	0.151895	0.2	
0.0186333	0.101613	0.152058	
-0.111446	-0.0565624	0.2	
-0.0997698	0.0308567	0.2	
-0.0299174	-0.0229457	0.2	
-0.088703	-0.0138649	0.150815	
0.0139627	0.124614	0.1	
-0.0254114	0.106009	0.1	
0.00442099	0.0829354	0.1	
0.0186333	0.101613	0.152058	
-0.0415815	-0.110392	0.2	
0.0398215	-0.0765894	0.2	
0.0279075	-0.16395	0.2	
0.00260765	-0.105267	0.157285	
-0.0299174	-0.0229457	0.2	
-0.0200153	-0.0483211	0.151402	
-0.0415815	-0.110392	0.2	
-0.0647576	-0.0686517	0.145827	
-0.0997698	0.0308567	0.2	
-0.0733988	0.0716859	0.157752	
-0.0436673	0.0180876	0.150301	
-0.088703	-0.0138649	0.150815	
0.132963	0.044259	0.2	
0.0516213	0.0106253	0.2	
0.0632975	0.0980676	0.2	
0.0969794	0.021072	0.155881	
0.0864603	-0.112342	0.1	
0.0488551	-0.0983509	0.1	
0.0587245	-0.143156	0.1	
0.062652	-0.118801	0.158114	
0.287124	-0.235637	0.1	
0.257787	-0.293807	0.1	
0.318198	-0.318198	0.1	
0.347855	-0.285477	0.149953	
0.12107	-0.0431928	0.2	
0.0398215	-0.0765894	0.2	
0.0516213	0.0106253	0.2	
0.0512771	-0.0404658	0.154914	
-0.104461	0.000932435	0.1	
-0.112529	-0.0425202	0.1	
-0.088703	-0.0138649	0.150815	
-0.142279	-0.0393203	0.151217	
0.0516213	0.0106253	0.2	
0.132963	0.044259	0.2	
0.12107	-0.0431928	0.2	
0.0969794	0.021072	0.155881	
0.0381609	0.387454	0.2	
0	0.45	0.15	
0	0.45	0.2	
0.053688	0.446786	0.149994	
-0.111446	-0.0565624	0.2	
-0.088703	-0.0138649	0.150815	
-0.0299174	-0.0229457	0.2	
-0.0647576	-0.0686517	0.145827	
0.108307	-0.130924	0.2	
0.0279075	-0.16395	0.2	
0.0398215	-0.0765894	0.2	
0.062652	-0.118801	0.158114	
0.0516213	0.0106253	0.2	
0.12107	-0.0431928	0.2	
0.0512771	-0.0404658	0.154914	
0.0969794	0.021072	0.155881	
-0.0182151	0.0644617	0.2	
0.0060848	-2.90377e-05	0.157763	
-0.0299174	-0.0229457	0.2	
-0.0436673	0.0180876	0.150301	
0.45	0	0.15	
0.446786	-0.053688	0.149994	
0.45	0	0.2	
0.384421	-0.0378621	0.2	
-0.0182151	0.0644617	0.2	
-0.0436673	0.0180876	0.150301	
-0.0997698	0.0308567	0.2	
-0.0733988	0.0716859	0.157752	
0.446786	0.053688	0.149994	
0.45	0	0.1	
0.45	0	0.15	
0.387235	0.0357483	0.1	
-0.0997698	0.0308567	0.2	
-0.0436673	0.0180876	0.150301	
-0.0299174	-0.0229457	0.2	
-0.088703	-0.0138649	0.150815	
-0.0182151	0.0644617	0.2	
0.0516213	0.0106253	0.2	
0.0060848	-2.90377e-05	0.157763	
0.0396544	0.04868	0.156181	
0.441353	0.0877906	0.2	
0.45	0	0.2	
0.363227	0.0380543	0.2	
0.446786	0.053688	0.149994	
0.0714224	0.0228299	0.1	
0.104819	-0.00331638	0.1	
0.114815	0.0394603	0.1	
0.0969794	0.021072	0.155881	
-0.389559	0.0336032	0.2	
-0.45	0	0.2	
-0.446786	0.0536856	0.15	
-0.45	0	0.15	
-0.0383965	-0.372403	0.2	
-0.0536856	-0.446786	0.15	
0	-0.45	0.2	
-0.0877906	-0.441353	0.2	
-0.0276628	-0.367444	0.1	
-0.0877906	-0.441353	0.1	
0	-0.45	0.1	
-0.0536856	-0.446786	0.15	
-0.0299174	-0.0229457	0.2	
-0.088703	-0.0138649	0.150815	
-0.0200153	-0.0483211	0.151402	
-0.0647576	-0.0686517	0.145827	
-0.0436673	0.0180876	0.150301	
-0.0200153	-0.0483211	0.151402	
-0.0299174	-0.0229457	0.2	
-0.088703	-0.0138649	0.150815	
-0.181323	-0.0027565	0.2	
-0.111446	-0.0565624	0.2	
-0.190622	-0.0884834	0.2	
-0.142279	-0.0393203	0.151217	
0.053688	0.446786	0.149994	
0	0.45	0.1	
0.0877906	0.441353	0.1	
0.0450774	0.367889	0.1	
-0.104461	0.000932435	0.1	
-0.112529	-0.0425202	0.1	
-0.0712343	-0.0265969	0.1	
-0.088703	-0.0138649	0.150815	
0.0632975	0.0980676	0.2	
0.0396544	0.04868	0.156181	
-0.0182151	0.0644617	0.2	
0.0186333	0.101613	0.152058	
-0.0200153	-0.0483211	0.151402	
0.0512771	-0.0404658	0.154914	
0.0398215	-0.0765894	0.2	
0.00260765	-0.105267	0.157285	
0.374822	-0.0324999	0.1	
0.45	0	0.1	
0.446786	-0.053688	0.149994	
0.441353	-0.0877906	0.1	
-0.372975	0.0289182	0.1	
-0.441353	0.0877906	0.1	
-0.45	0	0.1	
-0.446786	0.0536856	0.15	
-0.374161	-0.250007	0.2	
-0.415746	-0.172208	0.2	
-0.327578	-0.175094	0.2	
-0.396865	-0.212129	0.149995	
-0.0200153	-0.0483211	0.151402	
0.00260765	-0.105267	0.157285	
-0.0415815	-0.110392	0.2	
-0.0647576	-0.0686517	0.145827	
-0.45	0	0.1	
-0.441353	-0.0877906	0.1	
-0.373197	-0.0467972	0.1	
-0.446786	-0.053688	0.150006	
-0.0877906	0.441353	0.2	
-0.053688	0.446786	0.150006	
0	0.45	0.2	
-0.0339688	0.375665	0.2	
-0.415746	0.172208	0.1	
-0.441353	0.0877906	0.1	
-0.355442	0.107822	0.1	
-0.430628	0.130611	0.15	
-0.285477	-0.347855	0.149972	
-0.318198	-0.318198	0.2	
-0.250007	-0.374161	0.2	
-0.223685	-0.271786	0.2	
0.430623	-0.130628	0.149953	
0.357114	-0.107098	0.1	
0.441353	-0.0877906	0.1	
0.415746	-0.172208	0.1	
-0.318198	-0.318198	0.1	
-0.285477	-0.347855	0.149972	
-0.250007	-0.374161	0.1	
-0.237792	-0.287474	0.1	
-0.088703	-0.0138649	0.150815	
-0.0647576	-0.0686517	0.145827	
-0.111446	-0.0565624	0.2	
-0.142279	-0.0393203	0.151217	
-0.45	0	0.2	
-0.379429	-0.0366192	0.2	
-0.441353	-0.0877906	0.2	
-0.446786	-0.053688	0.150006	
0.347855	-0.285477	0.149953	
0.318198	-0.318198	0.1	
0.287124	-0.235637	0.1	
0.374161	-0.250007	0.1	
-0.32913	0.168426	0.2	
-0.374161	0.250007	0.2	
-0.396866	0.212126	0.150019	
-0.415746	0.172208	0.2	
-0.172208	-0.415746	0.1	
-0.173995	-0.331361	0.1	
-0.250007	-0.374161	0.1	
-0.212128	-0.396865	0.149972	
-0.104461	0.000932435	0.1	
-0.0712343	-0.0265969	0.1	
-0.0737761	0.00176994	0.1	
-0.088703	-0.0138649	0.150815	
0.00442099	0.0829354	0.1	
0.0405437	0.0931998	0.1	
0.0139627	0.124614	0.1	
0.0186333	0.101613	0.152058	
0.0404591	-0.377182	0.2	
0.0877906	-0.441353	0.2	
0	-0.45	0.2	
0.053688	-0.446786	0.149994	
0.331486	-0.177371	0.1	
0.415746	-0.172208	0.1	
0.396865	-0.212129	0.149953	
0.374161	-0.250007	0.1	
0.175084	-0.3275	0.2	
0.172208	-0.415746	0.2	
0.212129	-0.396865	0.149953	
0.250007	-0.374161	0.2	
0.415746	0.172208	0.2	
0.329177	0.174808	0.2	
0.374161	0.250007	0.2	
0.396865	0.212129	0.149953	
0.107822	0.355442	0.2	
0.0877906	0.441353	0.2	
0.172208	0.415746	0.2	
0.130628	0.430623	0.149953	
-0.157075	-0.0653284	0.1	
-0.112529	-0.0425202	0.1	
-0.153293	-0.011499	0.1	
-0.142279	-0.0393203	0.151217	
-0.182284	0.324323	0.1	
-0.172208	0.415746	0.1	
-0.250007	0.374161	0.1	
-0.212133	0.396862	0.150011	
-0.374161	-0.250007	0.1	
-0.347855	-0.285477	0.149967	
-0.318198	-0.318198	0.1	
-0.29175	-0.237189	0.1	
0.0398215	-0.0765894	0.2	
0.0512771	-0.0404658	0.154914	
0.062652	-0.118801	0.158114	
0.00260765	-0.105267	0.157285	
-0.292926	0.235471	0.1	
-0.318198	0.318198	0.1	
-0.374161	0.250007	0.1	
-0.347855	0.285477	0.150034	
-0.441353	-0.0877906	0.1	
-0.415746	-0.172208	0.1	
-0.356724	-0.11546	0.1	
-0.430623	-0.130628	0.150047	
-0.374161	-0.250007	0.1	
-0.415746	-0.172208	0.1	
-0.396865	-0.212129	0.149995	
-0.331484	-0.17939	0.1	
-0.0877906	-0.441353	0.2	
-0.112928	-0.360216	0.2	
-0.130611	-0.430628	0.15	
-0.172208	-0.415746	0.2	
0.441353	-0.0877906	0.2	
0.430623	-0.130628	0.149953	
0.415746	-0.172208	0.2	
0.348465	-0.103096	0.2	
0	0.45	0.1	
-0.0877906	0.441353	0.1	
-0.0358979	0.379949	0.1	
-0.053688	0.446786	0.150006	
0.318198	0.318198	0.2	
0.228237	0.281807	0.2	
0.250007	0.374161	0.2	
0.285477	0.347855	0.149953	
-0.172208	0.415746	0.2	
-0.250007	0.374161	0.2	
-0.212133	0.396862	0.150011	
-0.173131	0.322508	0.2	
0.0877906	-0.441353	0.1	
0.109857	-0.362973	0.1	
0.130628	-0.430623	0.149953	
0.172208	-0.415746	0.1	
0.415746	0.172208	0.1	
0.441353	0.0877906	0.1	
0.430623	0.130628	0.149953	
0.355442	0.107822	0.1	
-0.287124	0.235637	0.2	
-0.318198	0.318198	0.2	
-0.347855	0.285477	0.150034	
-0.374161	0.250007	0.2	
-0.430628	0.130611	0.15	
-0.415746	0.172208	0.2	
-0.441353	0.0877906	0.2	
-0.362114	0.10176	0.2	
0.0398215	-0.0765894	0.2	
0.062652	-0.118801	0.158114	
0.0279075	-0.16395	0.2	
0.00260765	-0.105267	0.157285	
-0.10824	0.362258	0.1	
-0.0877906	0.441353	0.1	
-0.172208	0.415746	0.1	
-0.130628	0.430623	0.150047	
0.0877906	0.441353	0.2	
0.0381609	0.387454	0.2	
0	0.45	0.2	
0.053688	0.446786	0.149994	
0.285477	0.347855	0.149953	
0.250007	0.374161	0.1	
0.318198	0.318198	0.1	
0.245754	0.289669	0.1	
-0.441353	0.0877906	0.2	
-0.45	0	0.2	
-0.446786	0.0536856	0.15	
-0.389559	0.0336032	0.2	
0.044217	-0.387842	0.1	
0.053688	-0.446786	0.149994	
0	-0.45	0.1	
0.0877906	-0.441353	0.1	
0.441353	0.0877906	0.1	
0.45	0	0.1	
0.446786	0.053688	0.149994	
0.387235	0.0357483	0.1	
-0.172208	-0.415746	0.1	
-0.0877906	-0.441353	0.1	
-0.104718	-0.361527	0.1	
-0.130611	-0.430628	0.15	
-0.0619298	-0.0870419	0.1	
-0.0538392	-0.0535857	0.1	
-0.080591	-0.0588792	0.1	
-0.0647576	-0.0686517	0.145827	
0.212129	0.396865	0.149953	
0.172208	0.415746	0.1	
0.250007	0.374161	0.1	
0.180378	0.336857	0.1	
0.212129	-0.396865	0.149953	
0.172208	-0.415746	0.1	
0.187286	-0.334755	0.1	
0.250007	-0.374161	0.1	
0.318198	0.318198	0.1	
0.374161	0.250007	0.1	
0.347855	0.285477	0.149953	
0.304312	0.234791	0.1	
0.29265	-0.244884	0.2	
0.318198	-0.318198	0.2	
0.347855	-0.285477	0.149953	
0.374161	-0.250007	0.2	
0.415746	0.172208	0.2	
0.441353	0.0877906	0.2	
0.369533	0.112832	0.2	
0.430623	0.130628	0.149953	
0.441353	-0.0877906	0.2	
0.45	0	0.2	
0.446786	-0.053688	0.149994	
0.384421	-0.0378621	0.2	
-0.285477	0.347854	0.150033	
-0.318198	0.318198	0.2	
-0.248262	0.29482	0.2	
-0.250007	0.374161	0.2	
0.172208	-0.415746	0.2	
0.0877906	-0.441353	0.2	
0.111895	-0.372646	0.2	
0.130628	-0.430623	0.149953	
-0.415746	-0.172208	0.2	
-0.441353	-0.0877906	0.2	
-0.365881	-0.111705	0.2	
-0.430623	-0.130628	0.150047	
-0.0299174	-0.0229457	0.2	
-0.0436673	0.0180876	0.150301	
0.0060848	-2.90377e-05	0.157763	
-0.0200153	-0.0483211	0.151402	
-0.0877906	0.441353	0.2	
-0.172208	0.415746	0.2	
-0.130628	0.430623	0.150047	
-0.108028	0.370407	0.2	
0.257787	-0.293807	0.1	
0.318198	-0.318198	0.1	
0.285477	-0.347855	0.149953	
0.250007	-0.374161	0.1	
0.120589	0.374273	0.1	
0.172208	0.415746	0.1	
0.0877906	0.441353	0.1	
0.130628	0.430623	0.149953	
0.396865	-0.212129	0.149953	
0.374161	-0.250007	0.2	
0.415746	-0.172208	0.2	
0.339399	-0.183579	0.2	
0.374161	0.250007	0.2	
0.297412	0.240191	0.2	
0.318198	0.318198	0.2	
0.347855	0.285477	0.149953	
0.374161	0.250007	0.1	
0.415746	0.172208	0.1	
0.396865	0.212129	0.149953	
0.349981	0.18562	0.1	
0.285477	-0.347855	0.149953	
0.250007	-0.374161	0.2	
0.318198	-0.318198	0.2	
0.25204	-0.306462	0.2	
-0.351668	0.187175	0.1	
-0.374161	0.250007	0.1	
-0.415746	0.172208	0.1	
-0.396866	0.212126	0.150019	
-0.298599	-0.245054	0.2	
-0.318198	-0.318198	0.2	
-0.374161	-0.250007	0.2	
-0.347855	-0.285477	0.149967	
-0.172208	-0.415746	0.2	
-0.212128	-0.396865	0.149972	
-0.250007	-0.374161	0.2	
-0.182092	-0.340669	0.2	
-0.251772	0.306785	0.1	
-0.250007	0.374161	0.1	
-0.318198	0.318198	0.1	
-0.285477	0.347854	0.150033	
0.250007	0.374161	0.2	
0.18581	0.349201	0.2	
0.172208	0.415746	0.2	
0.212129	0.396865	0.149953	
0.194544	-0.0323862	0.1	
0.12107	-0.0431928	0.2	
0.153315	0.00689278	0.1	
0.136366	-0.0453365	0.1	
0.194544	-0.0323862	0.1	
0.153315	0.00689278	0.1	
0.12107	-0.0431928	0.2	
0.201967	-0.00950962	0.2	
-0.190622	-0.0884834	0.2	
-0.258057	-0.0572365	0.1	
-0.203899	-0.0323666	0.1	
-0.209136	-0.0909343	0.1	
-0.190622	-0.0884834	0.2	
-0.203899	-0.0323666	0.1	
-0.258057	-0.0572365	0.1	
-0.256491	-0.0362829	0.2	
-0.110394	-0.216726	0.1	
-0.0659287	-0.28985	0.2	
-0.0529805	-0.19738	0.2	
-0.133674	-0.228308	0.2	
-0.0529805	-0.19738	0.2	
-0.0659287	-0.28985	0.2	
-0.110394	-0.216726	0.1	
-0.0496677	-0.250381	0.1	
0.0279075	-0.16395	0.2	
0.0204871	-0.24099	0.1	
-0.0142517	-0.205249	0.1	
0.0207402	-0.174187	0.1	
-0.0142517	-0.205249	0.1	
0.0204871	-0.24099	0.1	
0.0279075	-0.16395	0.2	
0.0148093	-0.246449	0.2	
-0.142279	-0.0393203	0.151217	
-0.104461	0.000932435	0.1	
-0.140177	0.0445127	0.1	
-0.088703	-0.0138649	0.150815	
-0.142279	-0.0393203	0.151217	
-0.140177	0.0445127	0.1	
-0.104461	0.000932435	0.1	
-0.153293	-0.011499	0.1	
-0.142279	-0.0393203	0.151217	
-0.19804	0.0242816	0.1	
-0.140177	0.0445127	0.1	
-0.153293	-0.011499	0.1	
-0.142279	-0.0393203	0.151217	
-0.140177	0.0445127	0.1	
-0.19804	0.0242816	0.1	
-0.181323	-0.0027565	0.2	
0.268615	-0.174062	0.1	
0.29265	-0.244884	0.2	
0.216652	-0.249073	0.2	
0.287124	-0.235637	0.1	
0.268615	-0.174062	0.1	
0.216652	-0.249073	0.2	
0.29265	-0.244884	0.2	
0.261818	-0.161797	0.2	
0.144601	0.131477	0.2	
0.230865	0.135658	0.1	
0.179715	0.179275	0.1	
0.237285	0.176133	0.2	
0.179715	0.179275	0.1	
0.230865	0.135658	0.1	
0.144601	0.131477	0.2	
0.168985	0.119579	0.1	
0.0922363	-0.215793	0.2	
0.0204871	-0.24099	0.1	
0.0279075	-0.16395	0.2	
0.0725059	-0.197526	0.1	
0.0279075	-0.16395	0.2	
0.0204871	-0.24099	0.1	
0.0922363	-0.215793	0.2	
0.0148093	-0.246449	0.2	
0.0186333	0.101613	0.152058	
0.0250698	0.0602098	0.1	
0	0.045	0.1	
0.00442099	0.0829354	0.1	
0.0186333	0.101613	0.152058	
0	0.045	0.1	
0.0250698	0.0602098	0.1	
0.0396544	0.04868	0.156181	
-0.0647576	-0.0686517	0.145827	
-0.0318198	-0.0318198	0.1	
-0.0276546	-0.0671169	0.1	
-0.0538392	-0.0535857	0.1	
-0.0647576	-0.0686517	0.145827	
-0.0276546	-0.0671169	0.1	
-0.0318198	-0.0318198	0.1	
-0.0200153	-0.0483211	0.151402	
0.111895	-0.372646	0.2	
0.044217	-0.387842	0.1	
0.0511003	-0.317442	0.1	
0.109857	-0.362973	0.1	
0.0511003	-0.317442	0.1	
0.044217	-0.387842	0.1	
0.111895	-0.372646	0.2	
0.0404591	-0.377182	0.2	
0.154944	0.223937	0.2	
0.0906227	0.254757	0.1	
0.0750467	0.185499	0.2	
0.0872949	0.269115	0.2	
0.0750467	0.185499	0.2	
0.0906227	0.254757	0.1	
0.154944	0.223937	0.2	
0.129359	0.208003	0.1	
0.0512771	-0.0404658	0.154914	
0.0060848	-2.90377e-05	0.157763	
0	-0.045	0.1	
-0.0200153	-0.0483211	0.151402	
-0.088703	-0.0138649	0.150815	
-0.0606984	0.0243229	0.1	
-0.045	0	0.1	
-0.0737761	0.00176994	0.1	
-0.088703	-0.0138649	0.150815	
-0.045	0	0.1	
-0.0606984	0.0243229	0.1	
-0.0436673	0.0180876	0.150301	
0.00260765	-0.105267	0.157285	
0.0401753	-0.0586342	0.1	
-0.0200153	-0.0483211	0.151402	
0.0512771	-0.0404658	0.154914	
0.00260765	-0.105267	0.157285	
-0.0200153	-0.0483211	0.151402	
0.0401753	-0.0586342	0.1	
0.00728726	-0.0832273	0.1	
-0.0339688	0.375665	0.2	
0.0450774	0.367889	0.1	
0	0.45	0.15	
0.0381609	0.387454	0.2	
0	0.45	0.15	
0.0450774	0.367889	0.1	
-0.0339688	0.375665	0.2	
-0.0358979	0.379949	0.1	
-0.10824	0.362258	0.1	
-0.0339688	0.375665	0.2	
-0.053688	0.446786	0.150006	
-0.108028	0.370407	0.2	
-0.053688	0.446786	0.150006	
-0.0339688	0.375665	0.2	
-0.10824	0.362258	0.1	
-0.0358979	0.379949	0.1	
-0.318623	-0.0616012	0.2	
-0.356724	-0.11546	0.1	
-0.275518	-0.12132	0.2	
-0.365881	-0.111705	0.2	
-0.318623	-0.0616012	0.2	
-0.275518	-0.12132	0.2	
-0.356724	-0.11546	0.1	
-0.312956	-0.0762135	0.1	
-0.142279	-0.0393203	0.151217	
-0.209136	-0.0909343	0.1	
-0.160221	-0.122206	0.1	
-0.190622	-0.0884834	0.2	
-0.142279	-0.0393203	0.151217	
-0.160221	-0.122206	0.1	
-0.209136	-0.0909343	0.1	
-0.157075	-0.0653284	0.1	
0.268615	-0.174062	0.1	
0.339399	-0.183579	0.2	
0.287371	-0.120299	0.1	
0.261818	-0.161797	0.2	
0.268615	-0.174062	0.1	
0.287371	-0.120299	0.1	
0.339399	-0.183579	0.2	
0.331486	-0.177371	0.1	
0.107822	0.355442	0.2	
0.053688	0.446786	0.149994	
0.0877906	0.441353	0.2	
0.130628	0.430623	0.149953	
0.0877906	0.441353	0.2	
0.053688	0.446786	0.149994	
0.107822	0.355442	0.2	
0.0381609	0.387454	0.2	
-0.13795	-0.29702	0.2	
-0.0659287	-0.28985	0.2	
-0.0615368	-0.322264	0.1	
-0.111587	-0.287654	0.1	
-0.0615368	-0.322264	0.1	
-0.0659287	-0.28985	0.2	
-0.13795	-0.29702	0.2	
-0.112928	-0.360216	0.2	
-0.0615368	-0.322264	0.1	
-0.104718	-0.361527	0.1	
-0.13795	-0.29702	0.2	
-0.111587	-0.287654	0.1	
-0.13795	-0.29702	0.2	
-0.104718	-0.361527	0.1	
-0.0615368	-0.322264	0.1	
-0.112928	-0.360216	0.2	
-0.269145	-0.181189	0.1	
-0.331484	-0.17939	0.1	
-0.265692	-0.195501	0.2	
-0.327578	-0.175094	0.2	
-0.269145	-0.181189	0.1	
-0.265692	-0.195501	0.2	
-0.331484	-0.17939	0.1	
-0.29175	-0.237189	0.1	
-0.298599	-0.245054	0.2	
-0.265692	-0.195501	0.2	
-0.331484	-0.17939	0.1	
-0.327578	-0.175094	0.2	
-0.298599	-0.245054	0.2	
-0.331484	-0.17939	0.1	
-0.265692	-0.195501	0.2	
-0.29175	-0.237189	0.1	
-0.351668	0.187175	0.1	
-0.287124	0.235637	0.2	
-0.300257	0.152847	0.1	
-0.292926	0.235471	0.1	
-0.351668	0.187175	0.1	
-0.300257	0.152847	0.1	
-0.287124	0.235637	0.2	
-0.32913	0.168426	0.2	
0.331486	-0.177371	0.1	
0.348465	-0.103096	0.2	
0.430623	-0.130628	0.149953	
0.357114	-0.107098	0.1	
0.331486	-0.177371	0.1	
0.430623	-0.130628	0.149953	
0.348465	-0.103096	0.2	
0.339399	-0.183579	0.2	
0.0512771	-0.0404658	0.154914	
0.0202986	-0.00819178	0.1	
0	-0.045	0.1	
0.0060848	-2.90377e-05	0.157763	
0.0512771	-0.0404658	0.154914	
0	-0.045	0.1	
0.0202986	-0.00819178	0.1	
0.0318198	-0.0318198	0.1	
0.357114	-0.107098	0.1	
0.384421	-0.0378621	0.2	
0.324791	-0.0252069	0.2	
0.348465	-0.103096	0.2	
0.324791	-0.0252069	0.2	
0.384421	-0.0378621	0.2	
0.357114	-0.107098	0.1	
0.374822	-0.0324999	0.1	
0.324791	-0.0252069	0.2	
0.303447	-0.0554764	0.1	
0.357114	-0.107098	0.1	
0.348465	-0.103096	0.2	
0.357114	-0.107098	0.1	
0.303447	-0.0554764	0.1	
0.324791	-0.0252069	0.2	
0.374822	-0.0324999	0.1	
CELLS 2144 10720
4	0	1	2	3	
4	4	5	6	7	
4	8	9	10	11	
4	12	13	14	15	
4	16	17	18	19	
4	20	21	22	23	
4	24	25	26	27	
4	28	29	30	31	
4	32	33	34	35	
4	36	37	38	39	
4	40	41	42	43	
4	44	45	46	47	
4	48	49	50	51	
4	52	53	54	55	
4	56	57	58	59	
4	60	61	62	63	
4	64	65	66	67	
4	68	69	70	71	
4	72	73	74	75	
4	76	77	78	79	
4	80	81	82	83	
4	84	85	86	87	
4	88	89	90	91	
4	92	93	94	95	
4	96	97	98	99	
4	100	101	102	103	
4	104	105	106	107	
4	108	109	110	111	
4	112	113	114	115	
4	116	117	118	119	
4	120	121	122	123	
4	124	125	126	127	
4	128	129	130	131	
4	132	133	134	135	
4	136	137	138	139	
4	140	141	142	143	
4	144	145	146	147	
4	148	149	150	151	
4	152	153	154	155	
4	156	157	158	159	
4	160	161	162	163	
4	164	165	166	167	
4	168	169	170	171	
4	172	173	174	175	
4	176	177	178	179	
4	180	181	182	183	
4	184	185	186	187	
4	188	189	190	191	
4	192	193	194	195	
4	196	197	198	199	
4	200	201	202	203	
4	204	205	206	207	
4	208	209	210	211	
4	212	213	214	215	
4	216	217	218	219	
4	220	221	222	223	
4	224	225	226	227	
4	228	229	230	231	
4	232	233	234	235	
4	236	237	238	239	
4	240	241	242	243	
4	244	245	246	247	
4	248	249	250	251	
4	252	253	254	255	
4	256	257	258	259	
4	260	261	262	263	
4	264	265	266	267	
4	268	269	270	271	
4	272	273	274	275	
4	276	277	278	279	
4	280	281	282	283	
4	284	285	286	287	
4	288	289	290	291	
4	292	293	294	295	
4	296	297	298	299	
4	300	301	302	303	
4	304	305	306	307	
4	308	309	310	311	
4	312	313	314	315	
4	316	317	318	319	
4	320	321	322	323	
4	324	325	326	327	
4	328	329	330	331	
4	332	333	334	335	
4	336	337	338	339	
4	340	341	342	343	
4	344	345	346	347	
4	348	349	350	351	
4	352	353	354	355	
4	356	357	358	359	
4	360	361	362	363	
4	364	365	366	367	
4	368	369	370	371	
4	372	373	374	375	
4	376	377	378	379	
4	380	381	382	383	
4	384	385	386	387	
4	388	389	390	391	
4	392	393	394	395	
4	396	397	398	399	
4	400	401	402	403	
4	404	405	406	407	
4	408	409	410	411	
4	412	413	414	415	
4	416	417	418	419	
4	420	421	422	423	
4	424	425	426	427	
4	428	429	430	431	
4	432	433	434	435	
4	436	437	438	439	
4	440	441	442	443	
4	444	445	446	447	
4	448	449	450	451	
4	452	453	454	455	
4	456	457	458	459	
4	460	461	462	463	
4	464	465	466	467	
4	468	469	470	471	
4	472	473	474	475	
4	476	477	478	479	
4	480	481	482	483	
4	484	485	486	487	
4	488	489	490	491	
4	492	493	494	495	
4	496	497	498	499	
4	500	501	502	503	
4	504	505	506	507	
4	508	509	510	511	
4	512	513	514	515	
4	516	517	518	519	
4	520	521	522	523	
4	524	525	526	527	
4	528	529	530	531	
4	532	533	534	535	
4	536	537	538	539	
4	540	541	542	543	
4	544	545	546	547	
4	548	549	550	551	
4	552	553	554	555	
4	556	557	558	559	
4	560	561	562	563	
4	564	565	566	567	
4	568	569	570	571	
4	572	573	574	575	
4	576	577	578	579	
4	580	581	582	583	
4	584	585	586	587	
4	588	589	590	591	
4	592	593	594	595	
4	596	597	598	599	
4	600	601	602	603	
4	604	605	606	607	
4	608	609	610	611	
4	612	613	614	615	
4	616	617	618	619	
4	620	621	622	623	
4	624	625	626	627	
4	628	629	630	631	
4	632	633	634	635	
4	636	637	638	639	
4	640	641	642	643	
4	644	645	646	647	
4	648	649	650	651	
4	652	653	654	655	
4	656	657	658	659	
4	660	661	662	663	
4	664	665	666	667	
4	668	669	670	671	
4	672	673	674	675	
4	676	677	678	679	
4	680	681	682	683	
4	684	685	686	687	
4	688	689	690	691	
4	692	693	694	695	
4	696	697	698	699	
4	700	701	702	703	
4	704	705	706	707	
4	708	709	710	711	
4	712	713	714	715	
4	716	717	718	719	
4	720	721	722	723	
4	724	725	726	727	
4	728	729	730	731	
4	732	733	734	735	
4	736	737	738	739	
4	740	741	742	743	
4	744	745	746	747	
4	748	749	750	751	
4	752	753	754	755	
4	756	757	758	759	
4	760	761	762	763	
4	764	765	766	767	
4	768	769	770	771	
4	772	773	774	775	
4	776	777	778	779	
4	780	781	782	783	
4	784	785	786	787	
4	788	789	790	791	
4	792	793	794	795	
4	796	797	798	799	
4	800	801	802	803	
4	804	805	806	807	
4	808	809	810	811	
4	812	813	814	815	
4	816	817	818	819	
4	820	821	822	823	
4	824	825	826	827	
4	828	829	830	831	
4	832	833	834	835	
4	836	837	838	839	
4	840	841	842	843	
4	844	845	846	847	
4	848	849	850	851	
4	852	853	854	855	
4	856	857	858	859	
4	860	861	862	863	
4	864	865	866	867	
4	868	869	870	871	
4	872	873	874	875	
4	876	877	878	879	
4	880	881	882	883	
4	884	885	886	887	
4	888	889	890	891	
4	892	893	894	895	
4	896	897	898	899	
4	900	901	902	903	
4	904	905	906	907	
4	908	909	910	911	
4	912	913	914	915	
4	916	917	918	919	
4	920	921	922	923	
4	924	925	926	927	
4	928	929	930	931	
4	932	933	934	935	
4	936	937	938	939	
4	940	941	942	943	
4	944	945	946	947	
4	948	949	950	951	
4	952	953	954	955	
4	956	957	958	959	
4	960	961	962	963	
4	964	965	966	967	
4	968	969	970	971	
4	972	973	974	975	
4	976	977	978	979	
4	980	981	982	983	
4	984	985	986	987	
4	988	989	990	991	
4	992	993	994	995	
4	996	997	998	999	
4	1000	1001	1002	1003	
4	1004	1005	1006	1007	
4	1008	1009	1010	1011	
4	1012	1013	1014	1015	
4	1016	1017	1018	1019	
4	1020	1021	1022	1023	
4	1024	1025	1026	1027	
4	1028	1029	1030	1031	
4	1032	1033	1034	1035	
4	1036	1037	1038	1039	
4	1040	1041	1042	1043	
4	1044	1045	1046	1047	
4	1048	1049	1050	1051	
4	1052	1053	1054	1055	
4	1056	1057	1058	1059	
4	1060	1061	1062	1063	
4	1064	1065	1066	1067	
4	1068	1069	1070	1071	
4	1072	1073	1074	1075	
4	1076	1077	1078	1079	
4	1080	1081	1082	1083	
4	1084	1085	1086	1087	
4	1088	1089	1090	1091	
4	1092	1093	1094	1095	
4	1096	1097	1098	1099	
4	1100	1101	1102	1103	
4	1104	1105	1106	1107	
4	1108	1109	1110	1111	
4	1112	1113	1114	1115	
4	1116	1117	1118	1119	
4	1120	1121	1122	1123	
4	1124	1125	1126	1127	
4	1128	1129	1130	1131	
4	1132	1133	1134	1135	
4	1136	1137	1138	1139	
4	1140	1141	1142	1143	
4	1144	1145	1146	1147	
4	1148	1149	1150	1151	
4	1152	1153	1154	1155	
4	1156	1157	1158	1159	
4	1160	1161	1162	1163	
4	1164	1165	1166	1167	
4	1168	1169	1170	1171	
4	1172	1173	1174	1175	
4	1176	1177	1178	1179	
4	1180	1181	1182	1183	
4	1184	1185	1186	1187	
4	1188	1189	1190	1191	
4	1192	1193	1194	1195	
4	1196	1197	1198	1199	
4	1200	1201	1202	1203	
4	1204	1205	1206	1207	
4	1208	1209	1210	1211	
4	1212	1213	1214	1215	
4	1216	1217	1218	1219	
4	1220	1221	1222	1223	
4	1224	1225	1226	1227	
4	1228	1229	1230	1231	
4	1232	1233	1234	1235	
4	1236	1237	1238	1239	
4	1240	1241	1242	1243	
4	1244	1245	1246	1247	
4	1248	1249	1250	1251	
4	1252	1253	1254	1255	
4	1256	1257	1258	1259	
4	1260	1261	1262	1263	
4	1264	1265	1266	1267	
4	1268	1269	1270	1271	
4	1272	1273	1274	1275	
4	1276	1277	1278	1279	
4	1280	1281	1282	1283	
4	1284	1285	1286	1287	
4	1288	1289	1290	1291	
4	1292	1293	1294	1295	
4	1296	1297	1298	1299	
4	1300	1301	1302	1303	
4	1304	1305	1306	1307	
4	1308	1309	1310	1311	
4	1312	1313	1314	1315	
4	1316	1317	1318	1319	
4	1320	1321	1322	1323	
4	1324	1325	1326	1327	
4	1328	1329	1330	1331	
4	1332	1333	1334	1335	
4	1336	1337	1338	1339	
4	1340	1341	1342	1343	
4	1344	1345	1346	1347	
4	1348	1349	1350	1351	
4	1352	1353	1354	1355	
4	1356	1357	1358	1359	
4	1360	1361	1362	1363	
4	1364	1365	1366	1367	
4	1368	1369	1370	1371	
4	1372	1373	1374	1375	
4	1376	1377	1378	1379	
4	1380	1381	1382	1383	
4	1384	1385	1386	1387	
4	1388	1389	1390	1391	
4	1392	1393	1394	1395	
4	1396	1397	1398	1399	
4	1400	1401	1402	1403	
4	1404	1405	1406	1407	
4	1408	1409	1410	1411	
4	1412	1413	1414	1415	
4	1416	1417	1418	1419	
4	1420	1421	1422	1423	
4	1424	1425	1426	1427	
4	1428	1429	1430	1431	
4	1432	1433	1434	1435	
4	1436	1437	1438	1439	
4	1440	1441	1442	1443	
4	1444	1445	1446	1447	
4	1448	1449	1450	1451	
4	1452	1453	1454	1455	
4	1456	1457	1458	1459	
4	1460	1461	1462	1463	
4	1464	1465	1466	1467	
4	1468	1469	1470	1471	
4	1472	1473	1474	1475	
4	1476	1477	1478	1479	
4	1480	1481	1482	1483	
4	1484	1485	1486	1487	
4	1488	1489	1490	1491	
4	1492	1493	1494	1495	
4	1496	1497	1498	1499	
4	1500	1501	1502	1503	
4	1504	1505	1506	1507	
4	1508	1509	1510	1511	
4	1512	1513	1514	1515	
4	1516	1517	1518	1519	
4	1520	1521	1522	1523	
4	1524	1525	1526	1527	
4	1528	1529	1530	1531	
4	1532	1533	1534	1535	
4	1536	1537	1538	1539	
4	1540	1541	1542	1543	
4	1544	1545	1546	1547	
4	1548	1549	1550	1551	
4	1552	1553	1554	1555	
4	1556	1557	1558	1559	
4	1560	1561	1562	1563	
4	1564	1565	1566	1567	
4	1568	1569	1570	1571	
4	1572	1573	1574	1575	
4	1576	1577	1578	1579	
4	1580	1581	1582	1583	
4	1584	1585	1586	1587	
4	1588	1589	1590	1591	
4	1592	1593	1594	1595	
4	1596	1597	1598	1599	
4	1600	1601	1602	1603	
4	1604	1605	1606	1607	
4	1608	1609	1610	1611	
4	1612	1613	1614	1615	
4	1616	1617	1618	1619	
4	1620	1621	1622	1623	
4	1624	1625	1626	1627	
4	1628	1629	1630	1631	
4	1632	1633	1634	1635	
4	1636	1637	1638	1639	
4	1640	1641	1642	1643	
4	1644	1645	1646	1647	
4	1648	1649	1650	1651	
4	1652	1653	1654	1655	
4	1656	1657	1658	1659	
4	1660	1661	1662	1663	
4	1664	1665	1666	1667	
4	1668	1669	1670	1671	
4	1672	1673	1674	1675	
4	1676	1677	1678	1679	
4	1680	1681	1682	1683	
4	1684	1685	1686	1687	
4	1688	1689	1690	1691	
4	1692	1693	1694	1695	
4	1696	1697	1698	1699	
4	1700	1701	1702	1703	
4	1704	1705	1706	1707	
4	1708	1709	1710	1711	
4	1712	1713	1714	1715	
4	1716	1717	1718	1719	
4	1720	1721	1722	1723	
4	1724	1725	1726	1727	
4	1728	1729	1730	1731	
4	1732	1733	1734	1735	
4	1736	1737	1738	1739	
4	1740	1741	1742	1743	
4	1744	1745	1746	1747	
4	1748	1749	1750	1751	
4	1752	1753	1754	1755	
4	1756	1757	1758	1759	
4	1760	1761	1762	1763	
4	1764	1765	1766	1767	
4	1768	1769	1770	1771	
4	1772	1773	1774	1775	
4	1776	1777	1778	1779	
4	1780	1781	1782	1783	
4	1784	1785	1786	1787	
4	1788	1789	1790	1791	
4	1792	1793	1794	1795	
4	1796	1797	1798	1799	
4	1800	1801	1802	1803	
4	1804	1805	1806	1807	
4	1808	1809	1810	1811	
4	1812	1813	1814	1815	
4	1816	1817	1818	1819	
4	1820	1821	1822	1823	
4	1824	1825	1826	1827	
4	1828	1829	1830	1831	
4	1832	1833	1834	1835	
4	1836	1837	1838	1839	
4	1840	1841	1842	1843	
4	1844	1845	1846	1847	
4	1848	1849	1850	1851	
4	1852	1853	1854	1855	
4	1856	1857	1858	1859	
4	1860	1861	1862	1863	
4	1864	1865	1866	1867	
4	1868	1869	1870	1871	
4	1872	1873	1874	1875	
4	1876	1877	1878	1879	
4	1880	1881	1882	1883	
4	1884	1885	1886	1887	
4	1888	1889	1890	1891	
4	1892	1893	1894	1895	
4	1896	1897	1898	1899	
4	1900	1901	1902	1903	
4	1904	1905	1906	1907	
4	1908	1909	1910	1911	
4	1912	1913	1914	1915	
4	1916	1917	1918	1919	
4	1920	1921	1922	1923	
4	1924	1925	1926	1927	
4	1928	1929	1930	1931	
4	1932	1933	1934	1935	
4	1936	1937	1938	1939	
4	1940	1941	1942	1943	
4	1944	1945	1946	1947	
4	1948	1949	1950	1951	
4	1952	1953	1954	1955	
4	1956	1957	1958	1959	
4	1960	1961	1962	1963	
4	1964	1965	1966	1967	
4	1968	1969	1970	1971	
4	1972	1973	1974	1975	
4	1976	1977	1978	1979	
4	1980	1981	1982	1983	
4	1984	1985	1986	1987	
4	1988	1989	1990	1991	
4	1992	1993	1994	1995	
4	1996	1997	1998	1999	
4	2000	2001	2002	2003	
4	2004	2005	2006	2007	
4	2008	2009	2010	2011	
4	2012	2013	2014	2015	
4	2016	2017	2018	2019	
4	2020	2021	2022	2023	
4	2024	2025	2026	2027	
4	2028	2029	2030	2031	
4	2032	2033	2034	2035	
4	2036	2037	2038	2039	
4	2040	2041	2042	2043	
4	2044	2045	2046	2047	
4	2048	2049	2050	2051	
4	2052	2053	2054	2055	
4	2056	2057	2058	2059	
4	2060	2061	2062	2063	
4	2064	2065	2066	2067	
4	2068	2069	2070	2071	
4	2072	2073	2074	2075	
4	2076	2077	2078	2079	
4	2080	2081	2082	2083	
4	2084	2085	2086	2087	
4	2088	2089	2090	2091	
4	2092	2093	2094	2095	
4	2096	2097	2098	2099	
4	2100	2101	2102	2103	
4	2104	2105	2106	2107	
4	2108	2109	2110	2111	
4	2112	2113	2114	2115	
4	2116	2117	2118	2119	
4	2120	2121	2122	2123	
4	2124	2125	2126	2127	
4	2128	2129	2130	2131	
4	2132	2133	2134	2135	
4	2136	2137	2138	2139	
4	2140	2141	2142	2143	
4	2144	2145	2146	2147	
4	2148	2149	2150	2151	
4	2152	2153	2154	2155	
4	2156	2157	2158	2159	
4	2160	2161	2162	2163	
4	2164	2165	2166	2167	
4	2168	2169	2170	2171	
4	2172	2173	2174	2175	
4	2176	2177	2178	2179	
4	2180	2181	2182	2183	
4	2184	2185	2186	2187	
4	2188	2189	2190	2191	
4	2192	2193	2194	2195	
4	2196	2197	2198	2199	
4	2200	2201	2202	2203	
4	2204	2205	2206	2207	
4	2208	2209	2210	2211	
4	2212	2213	2214	2215	
4	2216	2217	2218	2219	
4	2220	2221	2222	2223	
4	2224	2225	2226	2227	
4	2228	2229	2230	2231	
4	2232	2233	2234	2235	
4	2236	2237	2238	2239	
4	2240	2241	2242	2243	
4	2244	2245	2246	2247	
4	2248	2249	2250	2251	
4	2252	2253	2254	2255	
4	2256	2257	2258	2259	
4	2260	2261	2262	2263	
4	2264	2265	2266	2267	
4	2268	2269	2270	2271	
4	2272	2273	2274	2275	
4	2276	2277	2278	2279	
4	2280	2281	2282	2283	
4	2284	2285	2286	2287	
4	2288	2289	2290	2291	
4	2292	2293	2294	2295	
4	2296	2297	2298	2299	
4	2300	2301	2302	2303	
4	2304	2305	2306	2307	
4	2308	2309	2310	2311	
4	2312	2313	2314	2315	
4	2316	2317	2318	2319	
4	2320	2321	2322	2323	
4	2324	2325	2326	2327	
4	2328	2329	2330	2331	
4	2332	2333	2334	2335	
4	2336	2337	2338	2339	
4	2340	2341	2342	2343	
4	2344	2345	2346	2347	
4	2348	2349	2350	2351	
4	2352	2353	2354	2355	
4	2356	2357	2358	2359	
4	2360	2361	2362	2363	
4	2364	2365	2366	2367	
4	2368	2369	2370	2371	
4	2372	2373	2374	2375	
4	2376	2377	2378	2379	
4	2380	2381	2382	2383	
4	2384	2385	2386	2387	
4	2388	2389	2390	2391	
4	2392	2393	2394	2395	
4	2396	2397	2398	2399	
4	2400	2401	2402	2403	
4	2404	2405	2406	2407	
4	2408	2409	2410	2411	
4	2412	2413	2414	2415	
4	2416	2417	2418	2419	
4	2420	2421	2422	2423	
4	2424	2425	2426	2427	
4	2428	2429	2430	2431	
4	2432	2433	2434	2435	
4	2436	2437	2438	2439	
4	2440	2441	2442	2443	
4	2444	2445	2446	2447	
4	2448	2449	2450	2451	
4	2452	2453	2454	2455	
4	2456	2457	2458	2459	
4	2460	2461	2462	2463	
4	2464	2465	2466	2467	
4	2468	2469	2470	2471	
4	2472	2473	2474	2475	
4	2476	2477	2478	2479	
4	2480	2481	2482	2483	
4	2484	2485	2486	2487	
4	2488	2489	2490	2491	
4	2492	2493	2494	2495	
4	2496	2497	2498	2499	
4	2500	2501	2502	2503	
4	2504	2505	2506	2507	
4	2508	2509	2510	2511	
4	2512	2513	2514	2515	
4	2516	2517	2518	2519	
4	2520	2521	2522	2523	
4	2524	2525	2526	2527	
4	2528	2529	2530	2531	
4	2532	2533	2534	2535	
4	2536	2537	2538	2539	
4	2540	2541	2542	2543	
4	2544	2545	2546	2547	
4	2548	2549	2550	2551	
4	2552	2553	2554	2555	
4	2556	2557	2558	2559	
4	2560	2561	2562	2563	
4	2564	2565	2566	2567	
4	2568	2569	2570	2571	
4	2572	2573	2574	2575	
4	2576	2577	2578	2579	
4	2580	2581	2582	2583	
4	2584	2585	2586	2587	
4	2588	2589	2590	2591	
4	2592	2593	2594	2595	
4	2596	2597	2598	2599	
4	2600	2601	2602	2603	
4	2604	2605	2606	2607	
4	2608	2609	2610	2611	
4	2612	2613	2614	2615	
4	2616	2617	2618	2619	
4	2620	2621	2622	2623	
4	2624	2625	2626	2627	
4	2628	2629	2630	2631	
4	2632	2633	2634	2635	
4	2636	2637	2638	2639	
4	2640	2641	2642	2643	
4	2644	2645	2646	2647	
4	2648	2649	2650	2651	
4	2652	2653	2654	2655	
4	2656	2657	2658	2659	
4	2660	2661	2662	2663	
4	2664	2665	2666	2667	
4	2668	2669	2670	2671	
4	2672	2673	2674	2675	
4	2676	2677	2678	2679	
4	2680	2681	2682	2683	
4	2684	2685	2686	2687	
4	2688	2689	2690	2691	
4	2692	2693	2694	2695	
4	2696	2697	2698	2699	
4	2700	2701	2702	2703	
4	2704	2705	2706	2707	
4	2708	2709	2710	2711	
4	2712	2713	2714	2715	
4	2716	2717	2718	2719	
4	2720	2721	2722	2723	
4	2724	2725	2726	2727	
4	2728	2729	2730	2731	
4	2732	2733	2734	2735	
4	2736	2737	2738	2739	
4	2740	2741	2742	2743	
4	2744	2745	2746	2747	
4	2748	2749	2750	2751	
4	2752	2753	2754	2755	
4	2756	2757	2758	2759	
4	2760	2761	2762	2763	
4	2764	2765	2766	2767	
4	2768	2769	2770	2771	
4	2772	2773	2774	2775	
4	2776	2777	2778	2779	
4	2780	2781	2782	2783	
4	2784	2785	2786	2787	
4	2788	2789	2790	2791	
4	2792	2793	2794	2795	
4	2796	2797	2798	2799	
4	2800	2801	2802	2803	
4	2804	2805	2806	2807	
4	2808	2809	2810	2811	
4	2812	2813	2814	2815	
4	2816	2817	2818	2819	
4	2820	2821	2822	2823	
4	2824	2825	2826	2827	
4	2828	2829	2830	2831	
4	2832	2833	2834	2835	
4	2836	2837	2838	2839	
4	2840	2841	2842	2843	
4	2844	2845	2846	2847	
4	2848	2849	2850	2851	
4	2852	2853	2854	2855	
4	2856	2857	2858	2859	
4	2860	2861	2862	2863	
4	2864	2865	2866	2867	
4	2868	2869	2870	2871	
4	2872	2873	2874	2875	
4	2876	2877	2878	2879	
4	2880	2881	2882	2883	
4	2884	2885	2886	2887	
4	2888	2889	2890	2891	
4	2892	2893	2894	2895	
4	2896	2897	2898	2899	
4	2900	2901	2902	2903	
4	2904	2905	2906	2907	
4	2908	2909	2910	2911	
4	2912	2913	2914	2915	
4	2916	2917	2918	2919	
4	2920	2921	2922	2923	
4	2924	2925	2926	2927	
4	2928	2929	2930	2931	
4	2932	2933	2934	2935	
4	2936	2937	2938	2939	
4	2940	2941	2942	2943	
4	2944	2945	2946	2947	
4	2948	2949	2950	2951	
4	2952	2953	2954	2955	
4	2956	2957	2958	2959	
4	2960	2961	2962	2963	
4	2964	2965	2966	2967	
4	2968	2969	2970	2971	
4	2972	2973	2974	2975	
4	2976	2977	2978	2979	
4	2980	2981	2982	2983	
4	2984	2985	2986	2987	
4	2988	2989	2990	2991	
4	2992	2993	2994	2995	
4	2996	2997	2998	2999	
4	3000	3001	3002	3003	
4	3004	3005	3006	3007	
4	3008	3009	3010	3011	
4	3012	3013	3014	3015	
4	3016	3017	3018	3019	
4	3020	3021	3022	3023	
4	3024	3025	3026	3027	
4	3028	3029	3030	3031	
4	3032	3033	3034	3035	
4	3036	3037	3038	3039	
4	3040	3041	3042	3043	
4	3044	3045	3046	3047	
4	3048	3049	3050	3051	
4	3052	3053	3054	3055	
4	3056	3057	3058	3059	
4	3060	3061	3062	3063	
4	3064	3065	3066	3067	
4	3068	3069	3070	3071	
4	3072	3073	3074	3075	
4	3076	3077	3078	3079	
4	3080	3081	3082	3083	
4	3084	3085	3086	3087	
4	3088	3089	3090	3091	
4	3092	3093	3094	3095	
4	3096	3097	3098	3099	
4	3100	3101	3102	3103	
4	3104	3105	3106	3107	
4	3108	3109	3110	3111	
4	3112	3113	3114	3115	
4	3116	3117	3118	3119	
4	3120	3121	3122	3123	
4	3124	3125	3126	3127	
4	3128	3129	3130	3131	
4	3132	3133	3134	3135	
4	3136	3137	3138	3139	
4	3140	3141	3142	3143	
4	3144	3145	3146	3147	
4	3148	3149	3150	3151	
4	3152	3153	3154	3155	
4	3156	3157	3158	3159	
4	3160	3161	3162	3163	
4	3164	3165	3166	3167	
4	3168	3169	3170	3171	
4	3172	3173	3174	3175	
4	3176	3177	3178	3179	
4	3180	3181	3182	3183	
4	3184	3185	3186	3187	
4	3188	3189	3190	3191	
4	3192	3193	3194	3195	
4	3196	3197	3198	3199	
4	3200	3201	3202	3203	
4	3204	3205	3206	3207	
4	3208	3209	3210	3211	
4	3212	3213	3214	3215	
4	3216	3217	3218	3219	
4	3220	3221	3222	3223	
4	3224	3225	3226	3227	
4	3228	3229	3230	3231	
4	3232	3233	3234	3235	
4	3236	3237	3238	3239	
4	3240	3241	3242	3243	
4	3244	3245	3246	3247	
4	3248	3249	3250	3251	
4	3252	3253	3254	3255	
4	3256	3257	3258	3259	
4	3260	3261	3262	3263	
4	3264	3265	3266	3267	
4	3268	3269	3270	3271	
4	3272	3273	3274	3275	
4	3276	3277	3278	3279	
4	3280	3281	3282	3283	
4	3284	3285	3286	3287	
4	3288	3289	3290	3291	
4	3292	3293	3294	3295	
4	3296	3297	3298	3299	
4	3300	3301	3302	3303	
4	3304	3305	3306	3307	
4	3308	3309	3310	3311	
4	3312	3313	3314	3315	
4	3316	3317	3318	3319	
4	3320	3321	3322	3323	
4	3324	3325	3326	3327	
4	3328	3329	3330	3331	
4	3332	3333	3334	3335	
4	3336	3337	3338	3339	
4	3340	3341	3342	3343	
4	3344	3345	3346	3347	
4	3348	3349	3350	3351	
4	3352	3353	3354	3355	
4	3356	3357	3358	3359	
4	3360	3361	3362	3363	
4	3364	3365	3366	3367	
4	3368	3369	3370	3371	
4	3372	3373	3374	3375	
4	3376	3377	3378	3379	
4	3380	3381	3382	3383	
4	3384	3385	3386	3387	
4	3388	3389	3390	3391	
4	3392	3393	3394	3395	
4	3396	3397	3398	3399	
4	3400	3401	3402	3403	
4	3404	3405	3406	3407	
4	3408	3409	3410	3411	
4	3412	3413	3414	3415	
4	3416	3417	3418	3419	
4	3420	3421	3422	3423	
4	3424	3425	3426	3427	
4	3428	3429	3430	3431	
4	3432	3433	3434	3435	
4	3436	3437	3438	3439	
4	3440	3441	3442	3443	
4	3444	3445	3446	3447	
4	3448	3449	3450	3451	
4	3452	3453	3454	3455	
4	3456	3457	3458	3459	
4	3460	3461	3462	3463	
4	3464	3465	3466	3467	
4	3468	3469	3470	3471	
4	3472	3473	3474	3475	
4	3476	3477	3478	3479	
4	3480	3481	3482	3483	
4	3484	3485	3486	3487	
4	3488	3489	3490	3491	
4	3492	3493	3494	3495	
4	3496	3497	3498	3499	
4	3500	3501	3502	3503	
4	3504	3505	3506	3507	
4	3508	3509	3510	3511	
4	3512	3513	3514	3515	
4	3516	3517	3518	3519	
4	3520	3521	3522	3523	
4	3524	3525	3526	3527	
4	3528	3529	3530	3531	
4	3532	3533	3534	3535	
4	3536	3537	3538	3539	
4	3540	3541	3542	3543	
4	3544	3545	3546	3547	
4	3548	3549	3550	3551	
4	3552	3553	3554	3555	
4	3556	3557	3558	3559	
4	3560	3561	3562	3563	
4	3564	3565	3566	3567	
4	3568	3569	3570	3571	
4	3572	3573	3574	3575	
4	3576	3577	3578	3579	
4	3580	3581	3582	3583	
4	3584	3585	3586	3587	
4	3588	3589	3590	3591	
4	3592	3593	3594	3595	
4	3596	3597	3598	3599	
4	3600	3601	3602	3603	
4	3604	3605	3606	3607	
4	3608	3609	3610	3611	
4	3612	3613	3614	3615	
4	3616	3617	3618	3619	
4	3620	3621	3622	3623	
4	3624	3625	3626	3627	
4	3628	3629	3630	3631	
4	3632	3633	3634	3635	
4	3636	3637	3638	3639	
4	3640	3641	3642	3643	
4	3644	3645	3646	3647	
4	3648	3649	3650	3651	
4	3652	3653	3654	3655	
4	3656	3657	3658	3659	
4	3660	3661	3662	3663	
4	3664	3665	3666	3667	
4	3668	3669	3670	3671	
4	3672	3673	3674	3675	
4	3676	3677	3678	3679	
4	3680	3681	3682	3683	
4	3684	3685	3686	3687	
4	3688	3689	3690	3691	
4	3692	3693	3694	3695	
4	3696	3697	3698	3699	
4	3700	3701	3702	3703	
4	3704	3705	3706	3707	
4	3708	3709	3710	3711	
4	3712	3713	3714	3715	
4	3716	3717	3718	3719	
4	3720	3721	3722	3723	
4	3724	3725	3726	3727	
4	3728	3729	3730	3731	
4	3732	3733	3734	3735	
4	3736	3737	3738	3739	
4	3740	3741	3742	3743	
4	3744	3745	3746	3747	
4	3748	3749	3750	3751	
4	3752	3753	3754	3755	
4	3756	3757	3758	3759	
4	3760	3761	3762	3763	
4	3764	3765	3766	3767	
4	3768	3769	3770	3771	
4	3772	3773	3774	3775	
4	3776	3777	3778	3779	
4	3780	3781	3782	3783	
4	3784	3785	3786	3787	
4	3788	3789	3790	3791	
4	3792	3793	3794	3795	
4	3796	3797	3798	3799	
4	3800	3801	3802	3803	
4	3804	3805	3806	3807	
4	3808	3809	3810	3811	
4	3812	3813	3814	3815	
4	3816	3817	3818	3819	
4	3820	3821	3822	3823	
4	3824	3825	3826	3827	
4	3828	3829	3830	3831	
4	3832	3833	3834	3835	
4	3836	3837	3838	3839	
4	3840	3841	3842	3843	
4	3844	3845	3846	3847	
4	3848	3849	3850	3851	
4	3852	3853	3854	3855	
4	3856	3857	3858	3859	
4	3860	3861	3862	3863	
4	3864	3865	3866	3867	
4	3868	3869	3870	3871	
4	3872	3873	3874	3875	
4	3876	3877	3878	3879	
4	3880	3881	3882	3883	
4	3884	3885	3886	3887	
4	3888	3889	3890	3891	
4	3892	3893	3894	3895	
4	3896	3897	3898	3899	
4	3900	3901	3902	3903	
4	3904	3905	3906	3907	
4	3908	3909	3910	3911	
4	3912	3913	3914	3915	
4	3916	3917	3918	3919	
4	3920	3921	3922	3923	
4	3924	3925	3926	3927	
4	3928	3929	3930	3931	
4	3932	3933	3934	3935	
4	3936	3937	3938	3939	
4	3940	3941	3942	3943	
4	3944	3945	3946	3947	
4	3948	3949	3950	3951	
4	3952	3953	3954	3955	
4	3956	3957	3958	3959	
4	3960	3961	3962	3963	
4	3964	3965	3966	3967	
4	3968	3969	3970	3971	
4	3972	3973	3974	3975	
4	3976	3977	3978	3979	
4	3980	3981	3982	3983	
4	3984	3985	3986	3987	
4	3988	3989	3990	3991	
4	3992	3993	3994	3995	
4	3996	3997	3998	3999	
4	4000	4001	4002	4003	
4	4004	4005	4006	4007	
4	4008	4009	4010	4011	
4	4012	4013	4014	4015	
4	4016	4017	4018	4019	
4	4020	4021	4022	4023	
4	4024	4025	4026	4027	
4	4028	4029	4030	4031	
4	4032	4033	4034	4035	
4	4036	4037	4038	4039	
4	4040	4041	4042	4043	
4	4044	4045	4046	4047	
4	4048	4049	4050	4051	
4	4052	4053	4054	4055	
4	4056	4057	4058	4059	
4	4060	4061	4062	4063	
4	4064	4065	4066	4067	
4	4068	4069	4070	4071	
4	4072	4073	4074	4075	
4	4076	4077	4078	4079	
4	4080	4081	4082	4083	
4	4084	4085	4086	4087	
4	4088	4089	4090	4091	
4	4092	4093	4094	4095	
4	4096	4097	4098	4099	
4	4100	4101	4102	4103	
4	4104	4105	4106	4107	
4	4108	4109	4110	4111	
4	4112	4113	4114	4115	
4	4116	4117	4118	4119	
4	4120	4121	4122	4123	
4	4124	4125	4126	4127	
4	4128	4129	4130	4131	
4	4132	4133	4134	4135	
4	4136	4137	4138	4139	
4	4140	4141	4142	4143	
4	4144	4145	4146	4147	
4	4148	4149	4150	4151	
4	4152	4153	4154	4155	
4	4156	4157	4158	4159	
4	4160	4161	4162	4163	
4	4164	4165	4166	4167	
4	4168	4169	4170	4171	
4	4172	4173	4174	4175	
4	4176	4177	4178	4179	
4	4180	4181	4182	4183	
4	4184	4185	4186	4187	
4	4188	4189	4190	4191	
4	4192	4193	4194	4195	
4	4196	4197	4198	4199	
4	4200	4201	4202	4203	
4	4204	4205	4206	4207	
4	4208	4209	4210	4211	
4	4212	4213	4214	4215	
4	4216	4217	4218	4219	
4	4220	4221	4222	4223	
4	4224	4225	4226	4227	
4	4228	4229	4230	4231	
4	4232	4233	4234	4235	
4	4236	4237	4238	4239	
4	4240	4241	4242	4243	
4	4244	4245	4246	4247	
4	4248	4249	4250	4251	
4	4252	4253	4254	4255	
4	4256	4257	4258	4259	
4	4260	4261	4262	4263	
4	4264	4265	4266	4267	
4	4268	4269	4270	4271	
4	4272	4273	4274	4275	
4	4276	4277	4278	4279	
4	4280	4281	4282	4283	
4	4284	4285	4286	4287	
4	4288	4289	4290	4291	
4	4292	4293	4294	4295	
4	4296	4297	4298	4299	
4	4300	4301	4302	4303	
4	4304	4305	4306	4307	
4	4308	4309	4310	4311	
4	4312	4313	4314	4315	
4	4316	4317	4318	4319	
4	4320	4321	4322	4323	
4	4324	4325	4326	4327	
4	4328	4329	4330	4331	
4	4332	4333	4334	4335	
4	4336	4337	4338	4339	
4	4340	4341	4342	4343	
4	4344	4345	4346	4347	
4	4348	4349	4350	4351	
4	4352	4353	4354	4355	
4	4356	4357	4358	4359	
4	4360	4361	4362	4363	
4	4364	4365	4366	4367	
4	4368	4369	4370	4371	
4	4372	4373	4374	4375	
4	4376	4377	4378	4379	
4	4380	4381	4382	4383	
4	4384	4385	4386	4387	
4	4388	4389	4390	4391	
4	4392	4393	4394	4395	
4	4396	4397	4398	4399	
4	4400	4401	4402	4403	
4	4404	4405	4406	4407	
4	4408	4409	4410	4411	
4	4412	4413	4414	4415	
4	4416	4417	4418	4419	
4	4420	4421	4422	4423	
4	4424	4425	4426	4427	
4	4428	4429	4430	4431	
4	4432	4433	4434	4435	
4	4436	4437	4438	4439	
4	4440	4441	4442	4443	
4	4444	4445	4446	4447	
4	4448	4449	4450	4451	
4	4452	4453	4454	4455	
4	4456	4457	4458	4459	
4	4460	4461	4462	4463	
4	4464	4465	4466	4467	
4	4468	4469	4470	4471	
4	4472	4473	4474	4475	
4	4476	4477	4478	4479	
4	4480	4481	4482	4483	
4	4484	4485	4486	4487	
4	4488	4489	4490	4491	
4	4492	4493	4494	4495	
4	4496	4497	4498	4499	
4	4500	4501	4502	4503	
4	4504	4505	4506	4507	
4	4508	4509	4510	4511	
4	4512	4513	4514	4515	
4	4516	4517	4518	4519	
4	4520	4521	4522	4523	
4	4524	4525	4526	4527	
4	4528	4529	4530	4531	
4	4532	4533	4534	4535	
4	4536	4537	4538	4539	
4	4540	4541	4542	4543	
4	4544	4545	4546	4547	
4	4548	4549	4550	4551	
4	4552	4553	4554	4555	
4	4556	4557	4558	4559	
4	4560	4561	4562	4563	
4	4564	4565	4566	4567	
4	4568	4569	4570	4571	
4	4572	4573	4574	4575	
4	4576	4577	4578	4579	
4	4580	4581	4582	4583	
4	4584	4585	4586	4587	
4	4588	4589	4590	4591	
4	4592	4593	4594	4595	
4	4596	4597	4598	4599	
4	4600	4601	4602	4603	
4	4604	4605	4606	4607	
4	4608	4609	4610	4611	
4	4612	4613	4614	4615	
4	4616	4617	4618	4619	
4	4620	4621	4622	4623	
4	4624	4625	4626	4627	
4	4628	4629	4630	4631	
4	4632	4633	4634	4635	
4	4636	4637	4638	4639	
4	4640	4641	4642	4643	
4	4644	4645	4646	4647	
4	4648	4649	4650	4651	
4	4652	4653	4654	4655	
4	4656	4657	4658	4659	
4	4660	4661	4662	4663	
4	4664	4665	4666	4667	
4	4668	4669	4670	4671	
4	4672	4673	4674	4675	
4	4676	4677	4678	4679	
4	4680	4681	4682	4683	
4	4684	4685	4686	4687	
4	4688	4689	4690	4691	
4	4692	4693	4694	4695	
4	4696	4697	4698	4699	
4	4700	4701	4702	4703	
4	4704	4705	4706	4707	
4	4708	4709	4710	4711	
4	4712	4713	4714	4715	
4	4716	4717	4718	4719	
4	4720	4721	4722	4723	
4	4724	4725	4726	4727	
4	4728	4729	4730	4731	
4	4732	4733	4734	4735	
4	4736	4737	4738	4739	
4	4740	4741	4742	4743	
4	4744	4745	4746	4747	
4	4748	4749	4750	4751	
4	4752	4753	4754	4755	
4	4756	4757	4758	4759	
4	4760	4761	4762	4763	
4	4764	4765	4766	4767	
4	4768	4769	4770	4771	
4	4772	4773	4774	4775	
4	4776	4777	4778	4779	
4	4780	4781	4782	4783	
4	4784	4785	4786	4787	
4	4788	4789	4790	4791	
4	4792	4793	4794	4795	
4	4796	4797	4798	4799	
4	4800	4801	4802	4803	
4	4804	4805	4806	4807	
4	4808	4809	4810	4811	
4	4812	4813	4814	4815	
4	4816	4817	4818	4819	
4	4820	4821	4822	4823	
4	4824	4825	4826	4827	
4	4828	4829	4830	4831	
4	4832	4833	4834	4835	
4	4836	4837	4838	4839	
4	4840	4841	4842	4843	
4	4844	4845	4846	4847	
4	4848	4849	4850	4851	
4	4852	4853	4854	4855	
4	4856	4857	4858	4859	
4	4860	4861	4862	4863	
4	4864	4865	4866	4867	
4	4868	4869	4870	4871	
4	4872	4873	4874	4875	
4	4876	4877	4878	4879	
4	4880	4881	4882	4883	
4	4884	4885	4886	4887	
4	4888	4889	4890	4891	
4	4892	4893	4894	4895	
4	4896	4897	4898	4899	
4	4900	4901	4902	4903	
4	4904	4905	4906	4907	
4	4908	4909	4910	4911	
4	4912	4913	4914	4915	
4	4916	4917	4918	4919	
4	4920	4921	4922	4923	
4	4924	4925	4926	4927	
4	4928	4929	4930	4931	
4	4932	4933	4934	4935	
4	4936	4937	4938	4939	
4	4940	4941	4942	4943	
4	4944	4945	4946	4947	
4	4948	4949	4950	4951	
4	4952	4953	4954	4955	
4	4956	4957	4958	4959	
4	4960	4961	4962	4963	
4	4964	4965	4966	4967	
4	4968	4969	4970	4971	
4	4972	4973	4974	4975	
4	4976	4977	4978	4979	
4	4980	4981	4982	4983	
4	4984	4985	4986	4987	
4	4988	4989	4990	4991	
4	4992	4993	4994	4995	
4	4996	4997	4998	4999	
4	5000	5001	5002	5003	
4	5004	5005	5006	5007	
4	5008	5009	5010	5011	
4	5012	5013	5014	5015	
4	5016	5017	5018	5019	
4	5020	5021	5022	5023	
4	5024	5025	5026	5027	
4	5028	5029	5030	5031	
4	5032	5033	5034	5035	
4	5036	5037	5038	5039	
4	5040	5041	5042	5043	
4	5044	5045	5046	5047	
4	5048	5049	5050	5051	
4	5052	5053	5054	5055	
4	5056	5057	5058	5059	
4	5060	5061	5062	5063	
4	5064	5065	5066	5067	
4	5068	5069	5070	5071	
4	5072	5073	5074	5075	
4	5076	5077	5078	5079	
4	5080	5081	5082	5083	
4	5084	5085	5086	5087	
4	5088	5089	5090	5091	
4	5092	5093	5094	5095	
4	5096	5097	5098	5099	
4	5100	5101	5102	5103	
4	5104	5105	5106	5107	
4	5108	5109	5110	5111	
4	5112	5113	5114	5115	
4	5116	5117	5118	5119	
4	5120	5121	5122	5123	
4	5124	5125	5126	5127	
4	5128	5129	5130	5131	
4	5132	5133	5134	5135	
4	5136	5137	5138	5139	
4	5140	5141	5142	5143	
4	5144	5145	5146	5147	
4	5148	5149	5150	5151	
4	5152	5153	5154	5155	
4	5156	5157	5158	5159	
4	5160	5161	5162	5163	
4	5164	5165	5166	5167	
4	5168	5169	5170	5171	
4	5172	5173	5174	5175	
4	5176	5177	5178	5179	
4	5180	5181	5182	5183	
4	5184	5185	5186	5187	
4	5188	5189	5190	5191	
4	5192	5193	5194	5195	
4	5196	5197	5198	5199	
4	5200	5201	5202	5203	
4	5204	5205	5206	5207	
4	5208	5209	5210	5211	
4	5212	5213	5214	5215	
4	5216	5217	5218	5219	
4	5220	5221	5222	5223	
4	5224	5225	5226	5227	
4	5228	5229	5230	5231	
4	5232	5233	5234	5235	
4	5236	5237	5238	5239	
4	5240	5241	5242	5243	
4	5244	5245	5246	5247	
4	5248	5249	5250	5251	
4	5252	5253	5254	5255	
4	5256	5257	5258	5259	
4	5260	5261	5262	5263	
4	5264	5265	5266	5267	
4	5268	5269	5270	5271	
4	5272	5273	5274	5275	
4	5276	5277	5278	5279	
4	5280	5281	5282	5283	
4	5284	5285	5286	5287	
4	5288	5289	5290	5291	
4	5292	5293	5294	5295	
4	5296	5297	5298	5299	
4	5300	5301	5302	5303	
4	5304	5305	5306	5307	
4	5308	5309	5310	5311	
4	5312	5313	5314	5315	
4	5316	5317	5318	5319	
4	5320	5321	5322	5323	
4	5324	5325	5326	5327	
4	5328	5329	5330	5331	
4	5332	5333	5334	5335	
4	5336	5337	5338	5339	
4	5340	5341	5342	5343	
4	5344	5345	5346	5347	
4	5348	5349	5350	5351	
4	5352	5353	5354	5355	
4	5356	5357	5358	5359	
4	5360	5361	5362	5363	
4	5364	5365	5366	5367	
4	5368	5369	5370	5371	
4	5372	5373	5374	5375	
4	5376	5377	5378	5379	
4	5380	5381	5382	5383	
4	5384	5385	5386	5387	
4	5388	5389	5390	5391	
4	5392	5393	5394	5395	
4	5396	5397	5398	5399	
4	5400	5401	5402	5403	
4	5404	5405	5406	5407	
4	5408	5409	5410	5411	
4	5412	5413	5414	5415	
4	5416	5417	5418	5419	
4	5420	5421	5422	5423	
4	5424	5425	5426	5427	
4	5428	5429	5430	5431	
4	5432	5433	5434	5435	
4	5436	5437	5438	5439	
4	5440	5441	5442	5443	
4	5444	5445	5446	5447	
4	5448	5449	5450	5451	
4	5452	5453	5454	5455	
4	5456	5457	5458	5459	
4	5460	5461	5462	5463	
4	5464	5465	5466	5467	
4	5468	5469	5470	5471	
4	5472	5473	5474	5475	
4	5476	5477	5478	5479	
4	5480	5481	5482	5483	
4	5484	5485	5486	5487	
4	5488	5489	5490	5491	
4	5492	5493	5494	5495	
4	5496	5497	5498	5499	
4	5500	5501	5502	5503	
4	5504	5505	5506	5507	
4	5508	5509	5510	5511	
4	5512	5513	5514	5515	
4	5516	5517	5518	5519	
4	5520	5521	5522	5523	
4	5524	5525	5526	5527	
4	5528	5529	5530	5531	
4	5532	5533	5534	5535	
4	5536	5537	5538	5539	
4	5540	5541	5542	5543	
4	5544	5545	5546	5547	
4	5548	5549	5550	5551	
4	5552	5553	5554	5555	
4	5556	5557	5558	5559	
4	5560	5561	5562	5563	
4	5564	5565	5566	5567	
4	5568	5569	5570	5571	
4	5572	5573	5574	5575	
4	5576	5577	5578	5579	
4	5580	5581	5582	5583	
4	5584	5585	5586	5587	
4	5588	5589	5590	5591	
4	5592	5593	5594	5595	
4	5596	5597	5598	5599	
4	5600	5601	5602	5603	
4	5604	5605	5606	5607	
4	5608	5609	5610	5611	
4	5612	5613	5614	5615	
4	5616	5617	5618	5619	
4	5620	5621	5622	5623	
4	5624	5625	5626	5627	
4	5628	5629	5630	5631	
4	5632	5633	5634	5635	
4	5636	5637	5638	5639	
4	5640	5641	5642	5643	
4	5644	5645	5646	5647	
4	5648	5649	5650	5651	
4	5652	5653	5654	5655	
4	5656	5657	5658	5659	
4	5660	5661	5662	5663	
4	5664	5665	5666	5667	
4	5668	5669	5670	5671	
4	5672	5673	5674	5675	
4	5676	5677	5678	5679	
4	5680	5681	5682	5683	
4	5684	5685	5686	5687	
4	5688	5689	5690	5691	
4	5692	5693	5694	5695	
4	5696	5697	5698	5699	
4	5700	5701	5702	5703	
4	5704	5705	5706	5707	
4	5708	5709	5710	5711	
4	5712	5713	5714	5715	
4	5716	5717	5718	5719	
4	5720	5721	5722	5723	
4	5724	5725	5726	5727	
4	5728	5729	5730	5731	
4	5732	5733	5734	5735	
4	5736	5737	5738	5739	
4	5740	5741	5742	5743	
4	5744	5745	5746	5747	
4	5748	5749	5750	5751	
4	5752	5753	5754	5755	
4	5756	5757	5758	5759	
4	5760	5761	5762	5763	
4	5764	5765	5766	5767	
4	5768	5769	5770	5771	
4	5772	5773	5774	5775	
4	5776	5777	5778	5779	
4	5780	5781	5782	5783	
4	5784	5785	5786	5787	
4	5788	5789	5790	5791	
4	5792	5793	5794	5795	
4	5796	5797	5798	5799	
4	5800	5801	5802	5803	
4	5804	5805	5806	5807	
4	5808	5809	5810	5811	
4	5812	5813	5814	5815	
4	5816	5817	5818	5819	
4	5820	5821	5822	5823	
4	5824	5825	5826	5827	
4	5828	5829	5830	5831	
4	5832	5833	5834	5835	
4	5836	5837	5838	5839	
4	5840	5841	5842	5843	
4	5844	5845	5846	5847	
4	5848	5849	5850	5851	
4	5852	5853	5854	5855	
4	5856	5857	5858	5859	
4	5860	5861	5862	5863	
4	5864	5865	5866	5867	
4	5868	5869	5870	5871	
4	5872	5873	5874	5875	
4	5876	5877	5878	5879	
4	5880	5881	5882	5883	
4	5884	5885	5886	5887	
4	5888	5889	5890	5891	
4	5892	5893	5894	5895	
4	5896	5897	5898	5899	
4	5900	5901	5902	5903	
4	5904	5905	5906	5907	
4	5908	5909	5910	5911	
4	5912	5913	5914	5915	
4	5916	5917	5918	5919	
4	5920	5921	5922	5923	
4	5924	5925	5926	5927	
4	5928	5929	5930	5931	
4	5932	5933	5934	5935	
4	5936	5937	5938	5939	
4	5940	5941	5942	5943	
4	5944	5945	5946	5947	
4	5948	5949	5950	5951	
4	5952	5953	5954	5955	
4	5956	5957	5958	5959	
4	5960	5961	5962	5963	
4	5964	5965	5966	5967	
4	5968	5969	5970	5971	
4	5972	5973	5974	5975	
4	5976	5977	5978	5979	
4	5980	5981	5982	5983	
4	5984	5985	5986	5987	
4	5988	5989	5990	5991	
4	5992	5993	5994	5995	
4	5996	5997	5998	5999	
4	6000	6001	6002	6003	
4	6004	6005	6006	6007	
4	6008	6009	6010	6011	
4	6012	6013	6014	6015	
4	6016	6017	6018	6019	
4	6020	6021	6022	6023	
4	6024	6025	6026	6027	
4	6028	6029	6030	6031	
4	6032	6033	6034	6035	
4	6036	6037	6038	6039	
4	6040	6041	6042	6043	
4	6044	6045	6046	6047	
4	6048	6049	6050	6051	
4	6052	6053	6054	6055	
4	6056	6057	6058	6059	
4	6060	6061	6062	6063	
4	6064	6065	6066	6067	
4	6068	6069	6070	6071	
4	6072	6073	6074	6075	
4	6076	6077	6078	6079	
4	6080	6081	6082	6083	
4	6084	6085	6086	6087	
4	6088	6089	6090	6091	
4	6092	6093	6094	6095	
4	6096	6097	6098	6099	
4	6100	6101	6102	6103	
4	6104	6105	6106	6107	
4	6108	6109	6110	6111	
4	6112	6113	6114	6115	
4	6116	6117	6118	6119	
4	6120	6121	6122	6123	
4	6124	6125	6126	6127	
4	6128	6129	6130	6131	
4	6132	6133	6134	6135	
4	6136	6137	6138	6139	
4	6140	6141	6142	6143	
4	6144	6145	6146	6147	
4	6148	6149	6150	6151	
4	6152	6153	6154	6155	
4	6156	6157	6158	6159	
4	6160	6161	6162	6163	
4	6164	6165	6166	6167	
4	6168	6169	6170	6171	
4	6172	6173	6174	6175	
4	6176	6177	6178	6179	
4	6180	6181	6182	6183	
4	6184	6185	6186	6187	
4	6188	6189	6190	6191	
4	6192	6193	6194	6195	
4	6196	6197	6198	6199	
4	6200	6201	6202	6203	
4	6204	6205	6206	6207	
4	6208	6209	6210	6211	
4	6212	6213	6214	6215	
4	6216	6217	6218	6219	
4	6220	6221	6222	6223	
4	6224	6225	6226	6227	
4	6228	6229	6230	6231	
4	6232	6233	6234	6235	
4	6236	6237	6238	6239	
4	6240	6241	6242	6243	
4	6244	6245	6246	6247	
4	6248	6249	6250	6251	
4	6252	6253	6254	6255	
4	6256	6257	6258	6259	
4	6260	6261	6262	6263	
4	6264	6265	6266	6267	
4	6268	6269	6270	6271	
4	6272	6273	6274	6275	
4	6276	6277	6278	6279	
4	6280	6281	6282	6283	
4	6284	6285	6286	6287	
4	6288	6289	6290	6291	
4	6292	6293	6294	6295	
4	6296	6297	6298	6299	
4	6300	6301	6302	6303	
4	6304	6305	6306	6307	
4	6308	6309	6310	6311	
4	6312	6313	6314	6315	
4	6316	6317	6318	6319	
4	6320	6321	6322	6323	
4	6324	6325	6326	6327	
4	6328	6329	6330	6331	
4	6332	6333	6334	6335	
4	6336	6337	6338	6339	
4	6340	6341	6342	6343	
4	6344	6345	6346	6347	
4	6348	6349	6350	6351	
4	6352	6353	6354	6355	
4	6356	6357	6358	6359	
4	6360	6361	6362	6363	
4	6364	6365	6366	6367	
4	6368	6369	6370	6371	
4	6372	6373	6374	6375	
4	6376	6377	6378	6379	
4	6380	6381	6382	6383	
4	6384	6385	6386	6387	
4	6388	6389	6390	6391	
4	6392	6393	6394	6395	
4	6396	6397	6398	6399	
4	6400	6401	6402	6403	
4	6404	6405	6406	6407	
4	6408	6409	6410	6411	
4	6412	6413	6414	6415	
4	6416	6417	6418	6419	
4	6420	6421	6422	6423	
4	6424	6425	6426	6427	
4	6428	6429	6430	6431	
4	6432	6433	6434	6435	
4	6436	6437	6438	6439	
4	6440	6441	6442	6443	
4	6444	6445	6446	6447	
4	6448	6449	6450	6451	
4	6452	6453	6454	6455	
4	6456	6457	6458	6459	
4	6460	6461	6462	6463	
4	6464	6465	6466	6467	
4	6468	6469	6470	6471	
4	6472	6473	6474	6475	
4	6476	6477	6478	6479	
4	6480	6481	6482	6483	
4	6484	6485	6486	6487	
4	6488	6489	6490	6491	
4	6492	6493	6494	6495	
4	6496	6497	6498	6499	
4	6500	6501	6502	6503	
4	6504	6505	6506	6507	
4	6508	6509	6510	6511	
4	6512	6513	6514	6515	
4	6516	6517	6518	6519	
4	6520	6521	6522	6523	
4	6524	6525	6526	6527	
4	6528	6529	6530	6531	
4	6532	6533	6534	6535	
4	6536	6537	6538	6539	
4	6540	6541	6542	6543	
4	6544	6545	6546	6547	
4	6548	6549	6550	6551	
4	6552	6553	6554	6555	
4	6556	6557	6558	6559	
4	6560	6561	6562	6563	
4	6564	6565	6566	6567	
4	6568	6569	6570	6571	
4	6572	6573	6574	6575	
4	6576	6577	6578	6579	
4	6580	6581	6582	6583	
4	6584	6585	6586	6587	
4	6588	6589	6590	6591	
4	6592	6593	6594	6595	
4	6596	6597	6598	6599	
4	6600	6601	6602	6603	
4	6604	6605	6606	6607	
4	6608	6609	6610	6611	
4	6612	6613	6614	6615	
4	6616	6617	6618	6619	
4	6620	6621	6622	6623	
4	6624	6625	6626	6627	
4	6628	6629	6630	6631	
4	6632	6633	6634	6635	
4	6636	6637	6638	6639	
4	6640	6641	6642	6643	
4	6644	6645	6646	6647	
4	6648	6649	6650	6651	
4	6652	6653	6654	6655	
4	6656	6657	6658	6659	
4	6660	6661	6662	6663	
4	6664	6665	6666	6667	
4	6668	6669	6670	6671	
4	6672	6673	6674	6675	
4	6676	6677	6678	6679	
4	6680	6681	6682	6683	
4	6684	6685	6686	6687	
4	6688	6689	6690	6691	
4	6692	6693	6694	6695	
4	6696	6697	6698	6699	
4	6700	6701	6702	6703	
4	6704	6705	6706	6707	
4	6708	6709	6710	6711	
4	6712	6713	6714	6715	
4	6716	6717	6718	6719	
4	6720	6721	6722	6723	
4	6724	6725	6726	6727	
4	6728	6729	6730	6731	
4	6732	6733	6734	6735	
4	6736	6737	6738	6739	
4	6740	6741	6742	6743	
4	6744	6745	6746	6747	
4	6748	6749	6750	6751	
4	6752	6753	6754	6755	
4	6756	6757	6758	6759	
4	6760	6761	6762	6763	
4	6764	6765	6766	6767	
4	6768	6769	6770	6771	
4	6772	6773	6774	6775	
4	6776	6777	6778	6779	
4	6780	6781	6782	6783	
4	6784	6785	6786	6787	
4	6788	6789	6790	6791	
4	6792	6793	6794	6795	
4	6796	6797	6798	6799	
4	6800	6801	6802	6803	
4	6804	6805	6806	6807	
4	6808	6809	6810	6811	
4	6812	6813	6814	6815	
4	6816	6817	6818	6819	
4	6820	6821	6822	6823	
4	6824	6825	6826	6827	
4	6828	6829	6830	6831	
4	6832	6833	6834	6835	
4	6836	6837	6838	6839	
4	6840	6841	6842	6843	
4	6844	6845	6846	6847	
4	6848	6849	6850	6851	
4	6852	6853	6854	6855	
4	6856	6857	6858	6859	
4	6860	6861	6862	6863	
4	6864	6865	6866	6867	
4	6868	6869	6870	6871	
4	6872	6873	6874	6875	
4	6876	6877	6878	6879	
4	6880	6881	6882	6883	
4	6884	6885	6886	6887	
4	6888	6889	6890	6891	
4	6892	6893	6894	6895	
4	6896	6897	6898	6899	
4	6900	6901	6902	6903	
4	6904	6905	6906	6907	
4	6908	6909	6910	6911	
4	6912	6913	6914	6915	
4	6916	6917	6918	6919	
4	6920	6921	6922	6923	
4	6924	6925	6926	6927	
4	6928	6929	6930	6931	
4	6932	6933	6934	6935	
4	6936	6937	6938	6939	
4	6940	6941	6942	6943	
4	6944	6945	6946	6947	
4	6948	6949	6950	6951	
4	6952	6953	6954	6955	
4	6956	6957	6958	6959	
4	6960	6961	6962	6963	
4	6964	6965	6966	6967	
4	6968	6969	6970	6971	
4	6972	6973	6974	6975	
4	6976	6977	6978	6979	
4	6980	6981	6982	6983	
4	6984	6985	6986	6987	
4	6988	6989	6990	6991	
4	6992	6993	6994	6995	
4	6996	6997	6998	6999	
4	7000	7001	7002	7003	
4	7004	7005	7006	7007	
4	7008	7009	7010	7011	
4	7012	7013	7014	7015	
4	7016	7017	7018	7019	
4	7020	7021	7022	7023	
4	7024	7025	7026	7027	
4	7028	7029	7030	7031	
4	7032	7033	7034	7035	
4	7036	7037	7038	7039	
4	7040	7041	7042	7043	
4	7044	7045	7046	7047	
4	7048	7049	7050	7051	
4	7052	7053	7054	7055	
4	7056	7057	7058	7059	
4	7060	7061	7062	7063	
4	7064	7065	7066	7067	
4	7068	7069	7070	7071	
4	7072	7073	7074	7075	
4	7076	7077	7078	7079	
4	7080	7081	7082	7083	
4	7084	7085	7086	7087	
4	7088	7089	7090	7091	
4	7092	7093	7094	7095	
4	7096	7097	7098	7099	
4	7100	7101	7102	7103	
4	7104	7105	7106	7107	
4	7108	7109	7110	7111	
4	7112	7113	7114	7115	
4	7116	7117	7118	7119	
4	7120	7121	7122	7123	
4	7124	7125	7126	7127	
4	7128	7129	7130	7131	
4	7132	7133	7134	7135	
4	7136	7137	7138	7139	
4	7140	7141	7142	7143	
4	7144	7145	7146	7147	
4	7148	7149	7150	7151	
4	7152	7153	7154	7155	
4	7156	7157	7158	7159	
4	7160	7161	7162	7163	
4	7164	7165	7166	7167	
4	7168	7169	7170	7171	
4	7172	7173	7174	7175	
4	7176	7177	7178	7179	
4	7180	7181	7182	7183	
4	7184	7185	7186	7187	
4	7188	7189	7190	7191	
4	7192	7193	7194	7195	
4	7196	7197	7198	7199	
4	7200	7201	7202	7203	
4	7204	7205	7206	7207	
4	7208	7209	7210	7211	
4	7212	7213	7214	7215	
4	7216	7217	7218	7219	
4	7220	7221	7222	7223	
4	7224	7225	7226	7227	
4	7228	7229	7230	7231	
4	7232	7233	7234	7235	
4	7236	7237	7238	7239	
4	7240	7241	7242	7243	
4	7244	7245	7246	7247	
4	7248	7249	7250	7251	
4	7252	7253	7254	7255	
4	7256	7257	7258	7259	
4	7260	7261	7262	7263	
4	7264	7265	7266	7267	
4	7268	7269	7270	7271	
4	7272	7273	7274	7275	
4	7276	7277	7278	7279	
4	7280	7281	7282	7283	
4	7284	7285	7286	7287	
4	7288	7289	7290	7291	
4	7292	7293	7294	7295	
4	7296	7297	7298	7299	
4	7300	7301	7302	7303	
4	7304	7305	7306	7307	
4	7308	7309	7310	7311	
4	7312	7313	7314	7315	
4	7316	7317	7318	7319	
4	7320	7321	7322	7323	
4	7324	7325	7326	7327	
4	7328	7329	7330	7331	
4	7332	7333	7334	7335	
4	7336	7337	7338	7339	
4	7340	7341	7342	7343	
4	7344	7345	7346	7347	
4	7348	7349	7350	7351	
4	7352	7353	7354	7355	
4	7356	7357	7358	7359	
4	7360	7361	7362	7363	
4	7364	7365	7366	7367	
4	7368	7369	7370	7371	
4	7372	7373	7374	7375	
4	7376	7377	7378	7379	
4	7380	7381	7382	7383	
4	7384	7385	7386	7387	
4	7388	7389	7390	7391	
4	7392	7393	7394	7395	
4	7396	7397	7398	7399	
4	7400	7401	7402	7403	
4	7404	7405	7406	7407	
4	7408	7409	7410	7411	
4	7412	7413	7414	7415	
4	7416	7417	7418	7419	
4	7420	7421	7422	7423	
4	7424	7425	7426	7427	
4	7428	7429	7430	7431	
4	7432	7433	7434	7435	
4	7436	7437	7438	7439	
4	7440	7441	7442	7443	
4	7444	7445	7446	7447	
4	7448	7449	7450	7451	
4	7452	7453	7454	7455	
4	7456	7457	7458	7459	
4	7460	7461	7462	7463	
4	7464	7465	7466	7467	
4	7468	7469	7470	7471	
4	7472	7473	7474	7475	
4	7476	7477	7478	7479	
4	7480	7481	7482	7483	
4	7484	7485	7486	7487	
4	7488	7489	7490	7491	
4	7492	7493	7494	7495	
4	7496	7497	7498	7499	
4	7500	7501	7502	7503	
4	7504	7505	7506	7507	
4	7508	7509	7510	7511	
4	7512	7513	7514	7515	
4	7516	7517	7518	7519	
4	7520	7521	7522	7523	
4	7524	7525	7526	7527	
4	7528	7529	7530	7531	
4	7532	7533	7534	7535	
4	7536	7537	7538	7539	
4	7540	7541	7542	7543	
4	7544	7545	7546	7547	
4	7548	7549	7550	7551	
4	7552	7553	7554	7555	
4	7556	7557	7558	7559	
4	7560	7561	7562	7563	
4	7564	7565	7566	7567	
4	7568	7569	7570	7571	
4	7572	7573	7574	7575	
4	7576	7577	7578	7579	
4	7580	7581	7582	7583	
4	7584	7585	7586	7587	
4	7588	7589	7590	7591	
4	7592	7593	7594	7595	
4	7596	7597	7598	7599	
4	7600	7601	7602	7603	
4	7604	7605	7606	7607	
4	7608	7609	7610	7611	
4	7612	7613	7614	7615	
4	7616	7617	7618	7619	
4	7620	7621	7622	7623	
4	7624	7625	7626	7627	
4	7628	7629	7630	7631	
4	7632	7633	7634	7635	
4	7636	7637	7638	7639	
4	7640	7641	7642	7643	
4	7644	7645	7646	7647	
4	7648	7649	7650	7651	
4	7652	7653	7654	7655	
4	7656	7657	7658	7659	
4	7660	7661	7662	7663	
4	7664	7665	7666	7667	
4	7668	7669	7670	7671	
4	7672	7673	7674	7675	
4	7676	7677	7678	7679	
4	7680	7681	7682	7683	
4	7684	7685	7686	7687	
4	7688	7689	7690	7691	
4	7692	7693	7694	7695	
4	7696	7697	7698	7699	
4	7700	7701	7702	7703	
4	7704	7705	7706	7707	
4	7708	7709	7710	7711	
4	7712	7713	7714	7715	
4	7716	7717	7718	7719	
4	7720	7721	7722	7723	
4	7724	7725	7726	7727	
4	7728	7729	7730	7731	
4	7732	7733	7734	7735	
4	7736	7737	7738	7739	
4	7740	7741	7742	7743	
4	7744	7745	7746	7747	
4	7748	7749	7750	7751	
4	7752	7753	7754	7755	
4	7756	7757	7758	7759	
4	7760	7761	7762	7763	
4	7764	7765	7766	7767	
4	7768	7769	7770	7771	
4	7772	7773	7774	7775	
4	7776	7777	7778	7779	
4	7780	7781	7782	7783	
4	7784	7785	7786	7787	
4	7788	7789	7790	7791	
4	7792	7793	7794	7795	
4	7796	7797	7798	7799	
4	7800	7801	7802	7803	
4	7804	7805	7806	7807	
4	7808	7809	7810	7811	
4	7812	7813	7814	7815	
4	7816	7817	7818	7819	
4	7820	7821	7822	7823	
4	7824	7825	7826	7827	
4	7828	7829	7830	7831	
4	7832	7833	7834	7835	
4	7836	7837	7838	7839	
4	7840	7841	7842	7843	
4	7844	7845	7846	7847	
4	7848	7849	7850	7851	
4	7852	7853	7854	7855	
4	7856	7857	7858	7859	
4	7860	7861	7862	7863	
4	7864	7865	7866	7867	
4	7868	7869	7870	7871	
4	7872	7873	7874	7875	
4	7876	7877	7878	7879	
4	7880	7881	7882	7883	
4	7884	7885	7886	7887	
4	7888	7889	7890	7891	
4	7892	7893	7894	7895	
4	7896	7897	7898	7899	
4	7900	7901	7902	7903	
4	7904	7905	7906	7907	
4	7908	7909	7910	7911	
4	7912	7913	7914	7915	
4	7916	7917	7918	7919	
4	7920	7921	7922	7923	
4	7924	7925	7926	7927	
4	7928	7929	7930	7931	
4	7932	7933	7934	7935	
4	7936	7937	7938	7939	
4	7940	7941	7942	7943	
4	7944	7945	7946	7947	
4	7948	7949	7950	7951	
4	7952	7953	7954	7955	
4	7956	7957	7958	7959	
4	7960	7961	7962	7963	
4	7964	7965	7966	7967	
4	7968	7969	7970	7971	
4	7972	7973	7974	7975	
4	7976	7977	7978	7979	
4	7980	7981	7982	7983	
4	7984	7985	7986	7987	
4	7988	7989	7990	7991	
4	7992	7993	7994	7995	
4	7996	7997	7998	7999	
4	8000	8001	8002	8003	
4	8004	8005	8006	8007	
4	8008	8009	8010	8011	
4	8012	8013	8014	8015	
4	8016	8017	8018	8019	
4	8020	8021	8022	8023	
4	8024	8025	8026	8027	
4	8028	8029	8030	8031	
4	8032	8033	8034	8035	
4	8036	8037	8038	8039	
4	8040	8041	8042	8043	
4	8044	8045	8046	8047	
4	8048	8049	8050	8051	
4	8052	8053	8054	8055	
4	8056	8057	8058	8059	
4	8060	8061	8062	8063	
4	8064	8065	8066	8067	
4	8068	8069	8070	8071	
4	8072	8073	8074	8075	
4	8076	8077	8078	8079	
4	8080	8081	8082	8083	
4	8084	8085	8086	8087	
4	8088	8089	8090	8091	
4	8092	8093	8094	8095	
4	8096	8097	8098	8099	
4	8100	8101	8102	8103	
4	8104	8105	8106	8107	
4	8108	8109	8110	8111	
4	8112	8113	8114	8115	
4	8116	8117	8118	8119	
4	8120	8121	8122	8123	
4	8124	8125	8126	8127	
4	8128	8129	8130	8131	
4	8132	8133	8134	8135	
4	8136	8137	8138	8139	
4	8140	8141	8142	8143	
4	8144	8145	8146	8147	
4	8148	8149	8150	8151	
4	8152	8153	8154	8155	
4	8156	8157	8158	8159	
4	8160	8161	8162	8163	
4	8164	8165	8166	8167	
4	8168	8169	8170	8171	
4	8172	8173	8174	8175	
4	8176	8177	8178	8179	
4	8180	8181	8182	8183	
4	8184	8185	8186	8187	
4	8188	8189	8190	8191	
4	8192	8193	8194	8195	
4	8196	8197	8198	8199	
4	8200	8201	8202	8203	
4	8204	8205	8206	8207	
4	8208	8209	8210	8211	
4	8212	8213	8214	8215	
4	8216	8217	8218	8219	
4	8220	8221	8222	8223	
4	8224	8225	8226	8227	
4	8228	8229	8230	8231	
4	8232	8233	8234	8235	
4	8236	8237	8238	8239	
4	8240	8241	8242	8243	
4	8244	8245	8246	8247	
4	8248	8249	8250	8251	
4	8252	8253	8254	8255	
4	8256	8257	8258	8259	
4	8260	8261	8262	8263	
4	8264	8265	8266	8267	
4	8268	8269	8270	8271	
4	8272	8273	8274	8275	
4	8276	8277	8278	8279	
4	8280	8281	8282	8283	
4	8284	8285	8286	8287	
4	8288	8289	8290	8291	
4	8292	8293	8294	8295	
4	8296	8297	8298	8299	
4	8300	8301	8302	8303	
4	8304	8305	8306	8307	
4	8308	8309	8310	8311	
4	8312	8313	8314	8315	
4	8316	8317	8318	8319	
4	8320	8321	8322	8323	
4	8324	8325	8326	8327	
4	8328	8329	8330	8331	
4	8332	8333	8334	8335	
4	8336	8337	8338	8339	
4	8340	8341	8342	8343	
4	8344	8345	8346	8347	
4	8348	8349	8350	8351	
4	8352	8353	8354	8355	
4	8356	8357	8358	8359	
4	8360	8361	8362	8363	
4	8364	8365	8366	8367	
4	8368	8369	8370	8371	
4	8372	8373	8374	8375	
4	8376	8377	8378	8379	
4	8380	8381	8382	8383	
4	8384	8385	8386	8387	
4	8388	8389	8390	8391	
4	8392	8393	8394	8395	
4	8396	8397	8398	8399	
4	8400	8401	8402	8403	
4	8404	8405	8406	8407	
4	8408	8409	8410	8411	
4	8412	8413	8414	8415	
4	8416	8417	8418	8419	
4	8420	8421	8422	8423	
4	8424	8425	8426	8427	
4	8428	8429	8430	8431	
4	8432	8433	8434	8435	
4	8436	8437	8438	8439	
4	8440	8441	8442	8443	
4	8444	8445	8446	8447	
4	8448	8449	8450	8451	
4	8452	8453	8454	8455	
4	8456	8457	8458	8459	
4	8460	8461	8462	8463	
4	8464	8465	8466	8467	
4	8468	8469	8470	8471	
4	8472	8473	8474	8475	
4	8476	8477	8478	8479	
4	8480	8481	8482	8483	
4	8484	8485	8486	8487	
4	8488	8489	8490	8491	
4	8492	8493	8494	8495	
4	8496	8497	8498	8499	
4	8500	8501	8502	8503	
4	8504	8505	8506	8507	
4	8508	8509	8510	8511	
4	8512	8513	8514	8515	
4	8516	8517	8518	8519	
4	8520	8521	8522	8523	
4	8524	8525	8526	8527	
4	8528	8529	8530	8531	
4	8532	8533	8534	8535	
4	8536	8537	8538	8539	
4	8540	8541	8542	8543	
4	8544	8545	8546	8547	
4	8548	8549	8550	8551	
4	8552	8553	8554	8555	
4	8556	8557	8558	8559	
4	8560	8561	8562	8563	
4	8564	8565	8566	8567	
4	8568	8569	8570	8571	
4	8572	8573	8574	8575	
CELL_TYPES 2144
10
10
10
10
10
10
10
10
10
10
10
10
10
10
10
10
10
10
10
10
10
10
10
10
10
10
10
10
10
10
10
10
10
10
10
10
10
10
10
10
10
10
10
10
10
10
10
10
10
10
10
10
10
10
10
10
10
10
10
10
10
10
10
10
10
10
10
10
10
10
10
10
10
10
10
10
10
10
10
10
10
10
10
10
10
10
10
10
10
10
10
10
10
10
10
10
10
10
10
10
10
10
10
10
10
10
10
10
10
10
10
10
10
10
10
10
10
10
10
10
10
10
10
10
10
10
10
10
10
10
10
10
10
10
10
10
10
10
10
10
10
10
10
10
10
10
10
10
10
10
10
10
10
10
10
10
10
10
10
10
10
10
10
10
10
10
10
10
10
10
10
10
10
10
10
10
10
10
10
10
10
10
10
10
10
10
10
10
10
10
10
10
10
10
10
10
10
10
10
10
10
10
10
10
10
10
10
10
10
10
10
10
10
10
10
10
10
10
10
10
10
10
10
10
10
10
10
10
10
10
10
10
10
10
10
10
10
10
10
10
10
10
10
10
10
10
10
10
10
10
10
10
10
10
10
10
10
10
10
10
10
10
10
10
10
10
10
10
10
10
10
10
10
10
10
10
10
10
10
10
10
10
10
10
10
10
10
10
10
10
10
10
10
10
10
10
10
10
10
10
10
10
10
10
10
10
10
10
10
10
10
10
10
10
10
10
10
10
10
10
10
10
10
10
10
10
10
10
10
10
10
10
10
10
10
10
10
10
10
10
10
10
10
10
10
10
10
10
10
10
10
10
10
10
10
10
10
10
10
10
10
10
10
10
10
10
10
10
10
10
10
10
10
10
10
10
10
10
10
10
10
10
10
10
10
10
10
10
10
10
10
10
10
10
10
10
10
10
10
10
10
10
10
10
10
10
10
10
10
10
10
10
10
10
10
10
10
10
10
10
10
10
10
10
10
10
10
10
10
10
10
10
10
10
10
10
10
10
10
10
10
10
10
10
10
10
10
10
10
10
10
10
10
10
10
10
10
10
10
10
10
10
10
10
10
10
10
10
10
10
10
10
10
10
10
10
10
10
10
10
10
10
10
10
10
10
10
10
10
10
10
10
10
10
10
10
10
10
10
10
10
10
10
10
10
10
10
10
10
10
10
10
10
10
10
10
10
10
10
10
10
10
10
10
10
10
10
10
10
10
10
10
10
10
10
10
10
10
10
10
10
10
10
10
10
10
10
10
10
10
10
10
10
10
10
10
10
10
10
10
10
10
10
10
10
10
10
10
10
10
10
10
10
10
10
10
10
10
10
10
10
10
10
10
10
10
10
10
10
10
10
10
10
10
10
10
10
10
10
10
10
10
10
10
10
10
10
10
10
10
10
10
10
10
10
10
10
10
10
10
10
10
10
10
10
10
10
10
10
10
10
10
10
10
10
10
10
10
10
10
10
10
10
10
10
10
10
10
10
10
10
10
10
10
10
10
10
10
10
10
10
10
10
10
10
10
10
10
10
10
10
10
10
10
10
10
10
10
10
10
10
10
10
10
10
10
10
10
10
10
10
10
10
10
10
10
10
10
10
10
10
10
10
10
10
10
10
10
10
10
10
10
10
10
10
10
10
10
10
10
10
10
10
10
10
10
10
10
10
10
10
10
10
10
10
10
10
10
10
10
10
10
10
10
10
10
10
10
10
10
10
10
10
10
10
10
10
10
10
10
10
10
10
10
10
10
10
10
10
10
10
10
10
10
10
10
10
10
10
10
10
10
10
10
10
10
10
10
10
10
10
10
10
10
10
10
10
10
10
10
10
10
10
10
10
10
10
10
10
10
10
10
10
10
10
10
10
10
10
10
10
10
10
10
10
10
10
10
10
10
10
10
10
10
10
10
10
10
10
10
10
10
10
10
10
10
10
10
10
10
10
10
10
10
10
10
10
10
10
10
10
10
10
10
10
10
10
10
10
10
10
10
10
10
10
10
10
10
10
10
10
10
10
10
10
10
10
10
10
10
10
10
10
10
10
10
10
10
10
10
10
10
10
10
10
10
10
10
10
10
10
10
10
10
10
10
10
10
10
10
10
10
10
10
10
10
10
10
10
10
10
10
10
10
10
10
10
10
10
10
10
10
10
10
10
10
10
10
10
10
10
10
10
10
10
10
10
10
10
10
10
10
10
10
10
10
10
10
10
10
10
10
10
10
10
10
10
10
10
10
10
10
10
10
10
10
10
10
10
10
10
10
10
10
10
10
10
10
10
10
10
10
10
10
10
10
10
10
10
10
10
10
10
10
10
10
10
10
10
10
10
10
10
10
10
10
10
10
10
10
10
10
10
10
10
10
10
10
10
10
10
10
10
10
10
10
10
10
10
10
10
10
10
10
10
10
10
10
10
10
10
10
10
10
10
10
10
10
10
10
10
10
10
10
10
10
10
10
10
10
10
10
10
10
10
10
10
10
10
10
10
10
10
10
10
10
10
10
10
10
10
10
10
10
10
10
10
10
10
10
10
10
10
10
10
10
10
10
10
10
10
10
10
10
10
10
10
10
10
10
10
10
10
10
10
10
10
10
10
10
10
10
10
10
10
10
10
10
10
10
10
10
10
10
10
10
10
10
10
10
10
10
10
10
10
10
10
10
10
10
10
10
10
10
10
10
10
10
10
10
10
10
10
10
10
10
10
10
10
10
10
10
10
10
10
10
10
10
10
10
10
10
10
10
10
10
10
10
10
10
10
10
10
10
10
10
10
10
10
10
10
10
10
10
10
10
10
10
10
10
10
10
10
10
10
10
10
10
10
10
10
10
10
10
10
10
10
10
10
10
10
10
10
10
10
10
10
10
10
10
10
10
10
10
10
10
10
10
10
10
10
10
10
10
10
10
10
10
10
10
10
10
10
10
10
10
10
10
10
10
10
10
10
10
10
10
10
10
10
10
10
10
10
10
10
10
10
10
10
10
10
10
10
10
10
10
10
10
10
10
10
10
10
10
10
10
10
10
10
10
10
10
10
10
10
10
10
10
10
10
10
10
10
10
10
10
10
10
10
10
10
10
10
10
10
10
10
10
10
10
10
10
10
10
10
10
10
10
10
10
10
10
10
10
10
10
10
10
10
10
10
10
10
10
10
10
10
10
10
10
10
10
10
10
10
10
10
10
10
10
10
10
10
10
10
10
10
10
10
10
10
10
10
10
10
10
10
10
10
10
10
10
10
10
10
10
10
10
10
10
10
10
10
10
10
10
10
10
10
10
10
10
10
10
10
10
10
10
10
10
10
10
10
10
10
10
10
10
10
10
10
10
10
10
10
10
10
10
10
10
10
10
10
10
10
10
10
10
10
10
10
10
10
10
10
10
10
10
10
10
10
10
10
10
10
10
10
10
10
10
10
10
10
10
10
10
10
10
10
10
10
10
10
10
10
10
10
10
10
10
10
10
10
10
10
10
10
10
10
10
10
10
10
10
10
10
10
10
10
10
10
10
10
10
10
10
10
10
10
10
10
10
10
10
10
10
10
10
10
10
10
10
10
10
10
10
10
10
10
10
10
10
10
10
10
10
10
10
10
10
10
10
10
10
10
10
10
10
10
10
10
10
10
10
10
10
10
10
10
10
10
10
10
10
10
10
10
10
10
10
10
10
10
10
10
10
10
10
10
10
10
10
10
10
10
10
10
10
10
10
10
10
10
10
10
10
10
10
10
10
10
10
10
10
10
10
10
10
10
10
10
10
10
10
10
10
10
10
10
10
10
10
10
10
10
10
10
10
10
10
10
10
10
10
10
10
10
10
10
10
10
10
10
10
10
10
10
10
10
10
10
10
10
10
10
10
10
10
10
10
10
10
10
10
10
10
10
10
10
10
10
10
10
10
10
10
10
10
10
10
10
10
10
10
10
10
10
10
10
10
10
10
10
10
10
10
10
10
10
10
10
10
10
10
10
10
10
10
10
10
10
10
10
10
10
10
10
10
10
10
10
10
10
10
10
10
10
10
10
10
10
10
10
10
10
10
10
10
10
10
10
10
10
10
10
10
10
10
10
10
10
10
10
10
10
10
10
10
10
10
10
10
10
10
10
10
10
10
10
10
10
10
10
10
10
10
10
10
10
10
10
10
10
10
10
10
10
10
10
10
10
10
10
10
10
10
10
10
10
10
10
10
10
10
10
10
10
10
10
10
10
10
10
10
10
10
10
10
10
10
10
10
10
10
10
10
10
10
10
10
10
10
10
10
10
10
10
10
10
10
10
10
10
10
10
10
10
10
10
10
10
10
10
10
10
10
10
10
10
10
10
10
10
10
10
10
10
10
10
10
10
10
10
10
10
10
10
10
10
10
10
10
10
10
10
10
10
10
10
10
10
10
10
10
10
10
10
10
10
10
10
10
10
10
10
10
10
10
10
10
10
10
10
10
10
10
10
10
10
10
10
10
10
10
10
10
10
10
10
10
10
10
10
10
10
10
10
10
10
10
10
10
10
10
10
10
10
10
10
10
10
10
10
10
10
10
10
10
10
10
10
10
10
10
10
10
10
10
10
10
10
10
10
10
10
10
10
10
10
10
10
10
10
10
10
10
10
10
10
10
10
10
10
10
10
10
10
10
10
10
10
10
10
10
10
10
10
10
10
10
10
10
10
10
10
10
10
10
10
10
10
10
10
10
10
10
10
10
10
10
10
10
10
10
10
10
10
10
10
10
10
10
10
10
10
10
10
10
10
10
10
10
10
10
10
10
10
10
10
10
10
10
10
10
10
10
10
10
10
10
10
10
10
10
10
10
10
10
10
10
10
10
10
10
10
10
10
10
10
10
10
10
10
10
10
10
10
10
10
10
10
10
10
10
CELL_DATA 2144
POINT_DATA 8576
SCALARS StressX float 
LOOKUP_TABLE default
-0.0195371 -0.0195371 -0.0195371 -0.0195371 -0.0308235 -0.0308235 -0.0308235 -0.0308235 -0.0139962 -0.0139962 -0.0139962 -0.0139962 -0.0165198 -0.0165198 -0.0165198 -0.0165198 -0.0171544 -0.0171544 -0.0171544 -0.0171544 -0.0200676 -0.0200676 -0.0200676 -0.0200676 -0.0257726 -0.0257726 -0.0257726 -0.0257726 -0.0267295 -0.0267295 -0.0267295 -0.0267295 -0.0147211 -0.0147211 -0.0147211 -0.0147211 -0.0203592 -0.0203592 -0.0203592 -0.0203592 -0.0118747 -0.0118747 -0.0118747 -0.0118747 -0.0194072 -0.0194072 -0.0194072 -0.0194072 -0.0142264 -0.0142264 -0.0142264 -0.0142264 -0.0165857 -0.0165857 -0.0165857 -0.0165857 -0.0244475 -0.0244475 -0.0244475 -0.0244475 -0.0126379 -0.0126379 -0.0126379 -0.0126379 -0.0211998 -0.0211998 -0.0211998 -0.0211998 -0.0154134 -0.0154134 -0.0154134 -0.0154134 -0.0639792 -0.0639792 -0.0639792 -0.0639792 -0.0132673 -0.0132673 -0.0132673 -0.0132673 -0.0274488 -0.0274488 -0.0274488 -0.0274488 -0.0168046 -0.0168046 -0.0168046 -0.0168046 -0.0176022 -0.0176022 -0.0176022 -0.0176022 -0.0228178 -0.0228178 -0.0228178 -0.0228178 -0.0668281 -0.0668281 -0.0668281 -0.0668281 -0.0354005 -0.0354005 -0.0354005 -0.0354005 -0.0158036 -0.0158036 -0.0158036 -0.0158036 -0.0200753 -0.0200753 -0.0200753 -0.0200753 -0.0146638 -0.0146638 -0.0146638 -0.0146638 -0.0223914 -0.0223914 -0.0223914 -0.0223914 -0.0198051 -0.0198051 -0.0198051 -0.0198051 -0.0689559 -0.0689559 -0.0689559 -0.0689559 -0.0161112 -0.0161112 -0.0161112 -0.0161112 -0.0247352 -0.0247352 -0.0247352 -0.0247352 -0.0578695 -0.0578695 -0.0578695 -0.0578695 -0.0320026 -0.0320026 -0.0320026 -0.0320026 -0.0514146 -0.0514146 -0.0514146 -0.0514146 -0.0539654 -0.0539654 -0.0539654 -0.0539654 -0.0138482 -0.0138482 -0.0138482 -0.0138482 -0.0175831 -0.0175831 -0.0175831 -0.0175831 -0.0504477 -0.0504477 -0.0504477 -0.0504477 -0.0230502 -0.0230502 -0.0230502 -0.0230502 -0.020906 -0.020906 -0.020906 -0.020906 -0.0145082 -0.0145082 -0.0145082 -0.0145082 -0.0193419 -0.0193419 -0.0193419 -0.0193419 -0.0284125 -0.0284125 -0.0284125 -0.0284125 -0.0412502 -0.0412502 -0.0412502 -0.0412502 -0.0160808 -0.0160808 -0.0160808 -0.0160808 -0.0132814 -0.0132814 -0.0132814 -0.0132814 -0.0167871 -0.0167871 -0.0167871 -0.0167871 -0.0151984 -0.0151984 -0.0151984 -0.0151984 -0.0229805 -0.0229805 -0.0229805 -0.0229805 -0.0226288 -0.0226288 -0.0226288 -0.0226288 -0.0252008 -0.0252008 -0.0252008 -0.0252008 -0.0190046 -0.0190046 -0.0190046 -0.0190046 -0.0236443 -0.0236443 -0.0236443 -0.0236443 -0.02025 -0.02025 -0.02025 -0.02025 -0.014637 -0.014637 -0.014637 -0.014637 -0.0361968 -0.0361968 -0.0361968 -0.0361968 -0.0199513 -0.0199513 -0.0199513 -0.0199513 -0.0269473 -0.0269473 -0.0269473 -0.0269473 -0.0251911 -0.0251911 -0.0251911 -0.0251911 -0.0271067 -0.0271067 -0.0271067 -0.0271067 -0.0254732 -0.0254732 -0.0254732 -0.0254732 -0.021604 -0.021604 -0.021604 -0.021604 -0.0181398 -0.0181398 -0.0181398 -0.0181398 -0.0116826 -0.0116826 -0.0116826 -0.0116826 -0.0319326 -0.0319326 -0.0319326 -0.0319326 -0.0178972 -0.0178972 -0.0178972 -0.0178972 -0.0370113 -0.0370113 -0.0370113 -0.0370113 -0.0240081 -0.0240081 -0.0240081 -0.0240081 -0.0209598 -0.0209598 -0.0209598 -0.0209598 -0.013872 -0.013872 -0.013872 -0.013872 -0.0257518 -0.0257518 -0.0257518 -0.0257518 -0.0107427 -0.0107427 -0.0107427 -0.0107427 -0.0217588 -0.0217588 -0.0217588 -0.0217588 -0.0380468 -0.0380468 -0.0380468 -0.0380468 -0.0577234 -0.0577234 -0.0577234 -0.0577234 -0.0135907 -0.0135907 -0.0135907 -0.0135907 -0.0159777 -0.0159777 -0.0159777 -0.0159777 -0.0365536 -0.0365536 -0.0365536 -0.0365536 -0.0186313 -0.0186313 -0.0186313 -0.0186313 -0.0623645 -0.0623645 -0.0623645 -0.0623645 -0.0133509 -0.0133509 -0.0133509 -0.0133509 -0.0169806 -0.0169806 -0.0169806 -0.0169806 -0.0213466 -0.0213466 -0.0213466 -0.0213466 -0.0144751 -0.0144751 -0.0144751 -0.0144751 -0.0120863 -0.0120863 -0.0120863 -0.0120863 -0.0844482 -0.0844482 -0.0844482 -0.0844482 -0.0143505 -0.0143505 -0.0143505 -0.0143505 -0.0292799 -0.0292799 -0.0292799 -0.0292799 -0.0133079 -0.0133079 -0.0133079 -0.0133079 -0.0194451 -0.0194451 -0.0194451 -0.0194451 -0.0169802 -0.0169802 -0.0169802 -0.0169802 -0.0158202 -0.0158202 -0.0158202 -0.0158202 -0.0163188 -0.0163188 -0.0163188 -0.0163188 -0.0229515 -0.0229515 -0.0229515 -0.0229515 -0.0228561 -0.0228561 -0.0228561 -0.0228561 -0.0170817 -0.0170817 -0.0170817 -0.0170817 -0.0324089 -0.0324089 -0.0324089 -0.0324089 -0.0133061 -0.0133061 -0.0133061 -0.0133061 -0.0391254 -0.0391254 -0.0391254 -0.0391254 -0.0151834 -0.0151834 -0.0151834 -0.0151834 -0.264068 -0.264068 -0.264068 -0.264068 -0.0227903 -0.0227903 -0.0227903 -0.0227903 -0.0415671 -0.0415671 -0.0415671 -0.0415671 -0.00386778 -0.00386778 -0.00386778 -0.00386778 -0.0176254 -0.0176254 -0.0176254 -0.0176254 0.0171474 0.0171474 0.0171474 0.0171474 -0.0178897 -0.0178897 -0.0178897 -0.0178897 -0.0127577 -0.0127577 -0.0127577 -0.0127577 -0.0248129 -0.0248129 -0.0248129 -0.0248129 -0.0154577 -0.0154577 -0.0154577 -0.0154577 -0.0363704 -0.0363704 -0.0363704 -0.0363704 -0.0797175 -0.0797175 -0.0797175 -0.0797175 -0.0291332 -0.0291332 -0.0291332 -0.0291332 -0.0228343 -0.0228343 -0.0228343 -0.0228343 -0.0185146 -0.0185146 -0.0185146 -0.0185146 -0.0148468 -0.0148468 -0.0148468 -0.0148468 -0.0163764 -0.0163764 -0.0163764 -0.0163764 -0.013119 -0.013119 -0.013119 -0.013119 -0.0194636 -0.0194636 -0.0194636 -0.0194636 -0.0256802 -0.0256802 -0.0256802 -0.0256802 -0.0225957 -0.0225957 -0.0225957 -0.0225957 -0.016652 -0.016652 -0.016652 -0.016652 -0.0193357 -0.0193357 -0.0193357 -0.0193357 -0.0239193 -0.0239193 -0.0239193 -0.0239193 -0.0264303 -0.0264303 -0.0264303 -0.0264303 -0.0540469 -0.0540469 -0.0540469 -0.0540469 -0.0274921 -0.0274921 -0.0274921 -0.0274921 -0.0149794 -0.0149794 -0.0149794 -0.0149794 -0.0207953 -0.0207953 -0.0207953 -0.0207953 -0.0368068 -0.0368068 -0.0368068 -0.0368068 -0.00173863 -0.00173863 -0.00173863 -0.00173863 -0.0233755 -0.0233755 -0.0233755 -0.0233755 -0.0256751 -0.0256751 -0.0256751 -0.0256751 -0.0143943 -0.0143943 -0.0143943 -0.0143943 -0.262842 -0.262842 -0.262842 -0.262842 -0.062843 -0.062843 -0.062843 -0.062843 -0.0173677 -0.0173677 -0.0173677 -0.0173677 -0.0140952 -0.0140952 -0.0140952 -0.0140952 -0.0231504 -0.0231504 -0.0231504 -0.0231504 -0.0202212 -0.0202212 -0.0202212 -0.0202212 -0.14628 -0.14628 -0.14628 -0.14628 -0.0194897 -0.0194897 -0.0194897 -0.0194897 -0.051566 -0.051566 -0.051566 -0.051566 -0.0275001 -0.0275001 -0.0275001 -0.0275001 -0.0560399 -0.0560399 -0.0560399 -0.0560399 -0.291455 -0.291455 -0.291455 -0.291455 -0.0543332 -0.0543332 -0.0543332 -0.0543332 -0.0147153 -0.0147153 -0.0147153 -0.0147153 -0.0122646 -0.0122646 -0.0122646 -0.0122646 -0.0330224 -0.0330224 -0.0330224 -0.0330224 -0.0160167 -0.0160167 -0.0160167 -0.0160167 -0.0226233 -0.0226233 -0.0226233 -0.0226233 -0.00890011 -0.00890011 -0.00890011 -0.00890011 -0.0358486 -0.0358486 -0.0358486 -0.0358486 -0.0342691 -0.0342691 -0.0342691 -0.0342691 -0.0262084 -0.0262084 -0.0262084 -0.0262084 -0.0252586 -0.0252586 -0.0252586 -0.0252586 -0.0652902 -0.0652902 -0.0652902 -0.0652902 -0.0175658 -0.0175658 -0.0175658 -0.0175658 -0.0174979 -0.0174979 -0.0174979 -0.0174979 -0.0593113 -0.0593113 -0.0593113 -0.0593113 -0.0353716 -0.0353716 -0.0353716 -0.0353716 -0.00318524 -0.00318524 -0.00318524 -0.00318524 -0.0201016 -0.0201016 -0.0201016 -0.0201016 -0.0504376 -0.0504376 -0.0504376 -0.0504376 -0.0135708 -0.0135708 -0.0135708 -0.0135708 -0.0239091 -0.0239091 -0.0239091 -0.0239091 -0.0671771 -0.0671771 -0.0671771 -0.0671771 -0.0624571 -0.0624571 -0.0624571 -0.0624571 -0.0229665 -0.0229665 -0.0229665 -0.0229665 -0.0406589 -0.0406589 -0.0406589 -0.0406589 -0.0162372 -0.0162372 -0.0162372 -0.0162372 -0.0101677 -0.0101677 -0.0101677 -0.0101677 -0.021357 -0.021357 -0.021357 -0.021357 -0.0247719 -0.0247719 -0.0247719 -0.0247719 -0.0145439 -0.0145439 -0.0145439 -0.0145439 -0.0223386 -0.0223386 -0.0223386 -0.0223386 -0.0212492 -0.0212492 -0.0212492 -0.0212492 -0.0264074 -0.0264074 -0.0264074 -0.0264074 -0.0362339 -0.0362339 -0.0362339 -0.0362339 -0.0512634 -0.0512634 -0.0512634 -0.0512634 -0.083593 -0.083593 -0.083593 -0.083593 -0.0230848 -0.0230848 -0.0230848 -0.0230848 -0.0811028 -0.0811028 -0.0811028 -0.0811028 -0.0466825 -0.0466825 -0.0466825 -0.0466825 -0.0196408 -0.0196408 -0.0196408 -0.0196408 -0.0791436 -0.0791436 -0.0791436 -0.0791436 -0.0123907 -0.0123907 -0.0123907 -0.0123907 -0.0638571 -0.0638571 -0.0638571 -0.0638571 -0.024351 -0.024351 -0.024351 -0.024351 -0.0526944 -0.0526944 -0.0526944 -0.0526944 0.00154442 0.00154442 0.00154442 0.00154442 -0.0183873 -0.0183873 -0.0183873 -0.0183873 -0.014106 -0.014106 -0.014106 -0.014106 -0.0151943 -0.0151943 -0.0151943 -0.0151943 -0.0161619 -0.0161619 -0.0161619 -0.0161619 -0.00123193 -0.00123193 -0.00123193 -0.00123193 -0.0401482 -0.0401482 -0.0401482 -0.0401482 -0.0219919 -0.0219919 -0.0219919 -0.0219919 -0.021131 -0.021131 -0.021131 -0.021131 -0.0136085 -0.0136085 -0.0136085 -0.0136085 0.0237152 0.0237152 0.0237152 0.0237152 -0.031249 -0.031249 -0.031249 -0.031249 -0.0130318 -0.0130318 -0.0130318 -0.0130318 -0.0185845 -0.0185845 -0.0185845 -0.0185845 -0.0103068 -0.0103068 -0.0103068 -0.0103068 -0.0201969 -0.0201969 -0.0201969 -0.0201969 -0.0482462 -0.0482462 -0.0482462 -0.0482462 -0.0150747 -0.0150747 -0.0150747 -0.0150747 -0.0215674 -0.0215674 -0.0215674 -0.0215674 -0.0347098 -0.0347098 -0.0347098 -0.0347098 -0.0253465 -0.0253465 -0.0253465 -0.0253465 -0.021325 -0.021325 -0.021325 -0.021325 -0.0666848 -0.0666848 -0.0666848 -0.0666848 -0.0154302 -0.0154302 -0.0154302 -0.0154302 -0.0361146 -0.0361146 -0.0361146 -0.0361146 -0.0728821 -0.0728821 -0.0728821 -0.0728821 -0.0108841 -0.0108841 -0.0108841 -0.0108841 -0.0397453 -0.0397453 -0.0397453 -0.0397453 -0.0935721 -0.0935721 -0.0935721 -0.0935721 -0.018533 -0.018533 -0.018533 -0.018533 0.0148239 0.0148239 0.0148239 0.0148239 -0.0199437 -0.0199437 -0.0199437 -0.0199437 -0.0140953 -0.0140953 -0.0140953 -0.0140953 -0.00995317 -0.00995317 -0.00995317 -0.00995317 -0.028983 -0.028983 -0.028983 -0.028983 -0.0382585 -0.0382585 -0.0382585 -0.0382585 -0.02572 -0.02572 -0.02572 -0.02572 -0.0220118 -0.0220118 -0.0220118 -0.0220118 -0.0719749 -0.0719749 -0.0719749 -0.0719749 -0.012823 -0.012823 -0.012823 -0.012823 -0.0667128 -0.0667128 -0.0667128 -0.0667128 -0.015184 -0.015184 -0.015184 -0.015184 -0.0102871 -0.0102871 -0.0102871 -0.0102871 -0.0217694 -0.0217694 -0.0217694 -0.0217694 -0.0164143 -0.0164143 -0.0164143 -0.0164143 -0.0250972 -0.0250972 -0.0250972 -0.0250972 -0.0211406 -0.0211406 -0.0211406 -0.0211406 -0.0208753 -0.0208753 -0.0208753 -0.0208753 -0.0106294 -0.0106294 -0.0106294 -0.0106294 -0.0386058 -0.0386058 -0.0386058 -0.0386058 -0.0186781 -0.0186781 -0.0186781 -0.0186781 -0.0636027 -0.0636027 -0.0636027 -0.0636027 -0.0206302 -0.0206302 -0.0206302 -0.0206302 -0.0121859 -0.0121859 -0.0121859 -0.0121859 -0.00904649 -0.00904649 -0.00904649 -0.00904649 -0.0221889 -0.0221889 -0.0221889 -0.0221889 -0.0238715 -0.0238715 -0.0238715 -0.0238715 -0.0249288 -0.0249288 -0.0249288 -0.0249288 -0.0189571 -0.0189571 -0.0189571 -0.0189571 -0.0254738 -0.0254738 -0.0254738 -0.0254738 -0.0490587 -0.0490587 -0.0490587 -0.0490587 -0.0575432 -0.0575432 -0.0575432 -0.0575432 -0.0165177 -0.0165177 -0.0165177 -0.0165177 -0.022873 -0.022873 -0.022873 -0.022873 -0.00774725 -0.00774725 -0.00774725 -0.00774725 -0.0234948 -0.0234948 -0.0234948 -0.0234948 -0.013769 -0.013769 -0.013769 -0.013769 -0.18444 -0.18444 -0.18444 -0.18444 -0.0447096 -0.0447096 -0.0447096 -0.0447096 -0.0248266 -0.0248266 -0.0248266 -0.0248266 -0.177471 -0.177471 -0.177471 -0.177471 -0.0425744 -0.0425744 -0.0425744 -0.0425744 -0.0127461 -0.0127461 -0.0127461 -0.0127461 0.0421961 0.0421961 0.0421961 0.0421961 -0.0517347 -0.0517347 -0.0517347 -0.0517347 -0.039634 -0.039634 -0.039634 -0.039634 -0.0236449 -0.0236449 -0.0236449 -0.0236449 -0.0608852 -0.0608852 -0.0608852 -0.0608852 -0.0446649 -0.0446649 -0.0446649 -0.0446649 -0.0387382 -0.0387382 -0.0387382 -0.0387382 -0.0262186 -0.0262186 -0.0262186 -0.0262186 -0.0172139 -0.0172139 -0.0172139 -0.0172139 -0.0360785 -0.0360785 -0.0360785 -0.0360785 0.0145463 0.0145463 0.0145463 0.0145463 -0.286171 -0.286171 -0.286171 -0.286171 -0.030632 -0.030632 -0.030632 -0.030632 -0.000831163 -0.000831163 -0.000831163 -0.000831163 -0.0992575 -0.0992575 -0.0992575 -0.0992575 -0.0450544 -0.0450544 -0.0450544 -0.0450544 -0.0182545 -0.0182545 -0.0182545 -0.0182545 -0.0170675 -0.0170675 -0.0170675 -0.0170675 -0.140914 -0.140914 -0.140914 -0.140914 -0.0328563 -0.0328563 -0.0328563 -0.0328563 -0.0395856 -0.0395856 -0.0395856 -0.0395856 -0.0632105 -0.0632105 -0.0632105 -0.0632105 -0.0352377 -0.0352377 -0.0352377 -0.0352377 0.0156348 0.0156348 0.0156348 0.0156348 -0.0154901 -0.0154901 -0.0154901 -0.0154901 0.00698457 0.00698457 0.00698457 0.00698457 -0.00378853 -0.00378853 -0.00378853 -0.00378853 0.0770237 0.0770237 0.0770237 0.0770237 -0.017312 -0.017312 -0.017312 -0.017312 -0.0832199 -0.0832199 -0.0832199 -0.0832199 -0.0232528 -0.0232528 -0.0232528 -0.0232528 -0.00658082 -0.00658082 -0.00658082 -0.00658082 -0.020811 -0.020811 -0.020811 -0.020811 -0.0176991 -0.0176991 -0.0176991 -0.0176991 -0.00908912 -0.00908912 -0.00908912 -0.00908912 -0.0207828 -0.0207828 -0.0207828 -0.0207828 -0.197352 -0.197352 -0.197352 -0.197352 -0.0786131 -0.0786131 -0.0786131 -0.0786131 -0.0350557 -0.0350557 -0.0350557 -0.0350557 0.00500507 0.00500507 0.00500507 0.00500507 -0.0607832 -0.0607832 -0.0607832 -0.0607832 -0.13257 -0.13257 -0.13257 -0.13257 -0.0203782 -0.0203782 -0.0203782 -0.0203782 -0.0277738 -0.0277738 -0.0277738 -0.0277738 -0.0234149 -0.0234149 -0.0234149 -0.0234149 -0.0330031 -0.0330031 -0.0330031 -0.0330031 -0.0189841 -0.0189841 -0.0189841 -0.0189841 -0.019282 -0.019282 -0.019282 -0.019282 -0.0802294 -0.0802294 -0.0802294 -0.0802294 -0.0647795 -0.0647795 -0.0647795 -0.0647795 -0.197453 -0.197453 -0.197453 -0.197453 -0.158751 -0.158751 -0.158751 -0.158751 -0.102865 -0.102865 -0.102865 -0.102865 -0.110348 -0.110348 -0.110348 -0.110348 -0.215355 -0.215355 -0.215355 -0.215355 -0.0205867 -0.0205867 -0.0205867 -0.0205867 -0.0254147 -0.0254147 -0.0254147 -0.0254147 -0.0295635 -0.0295635 -0.0295635 -0.0295635 -0.0158806 -0.0158806 -0.0158806 -0.0158806 -0.0661636 -0.0661636 -0.0661636 -0.0661636 0.0144853 0.0144853 0.0144853 0.0144853 -0.00240784 -0.00240784 -0.00240784 -0.00240784 -0.0459133 -0.0459133 -0.0459133 -0.0459133 -0.0247937 -0.0247937 -0.0247937 -0.0247937 0.057061 0.057061 0.057061 0.057061 -0.0202378 -0.0202378 -0.0202378 -0.0202378 -0.100198 -0.100198 -0.100198 -0.100198 -0.0236062 -0.0236062 -0.0236062 -0.0236062 -0.0975185 -0.0975185 -0.0975185 -0.0975185 0.0546981 0.0546981 0.0546981 0.0546981 -0.0889395 -0.0889395 -0.0889395 -0.0889395 -0.0204547 -0.0204547 -0.0204547 -0.0204547 -0.0451211 -0.0451211 -0.0451211 -0.0451211 -0.0127963 -0.0127963 -0.0127963 -0.0127963 -0.0329543 -0.0329543 -0.0329543 -0.0329543 -0.00347729 -0.00347729 -0.00347729 -0.00347729 0.0115113 0.0115113 0.0115113 0.0115113 0.010529 0.010529 0.010529 0.010529 -0.0125537 -0.0125537 -0.0125537 -0.0125537 -0.0293874 -0.0293874 -0.0293874 -0.0293874 0.0498745 0.0498745 0.0498745 0.0498745 -0.0769467 -0.0769467 -0.0769467 -0.0769467 0.0109365 0.0109365 0.0109365 0.0109365 -0.0146044 -0.0146044 -0.0146044 -0.0146044 -0.017424 -0.017424 -0.017424 -0.017424 -0.0284009 -0.0284009 -0.0284009 -0.0284009 -0.0191475 -0.0191475 -0.0191475 -0.0191475 -0.0250422 -0.0250422 -0.0250422 -0.0250422 -0.0792684 -0.0792684 -0.0792684 -0.0792684 -0.0251948 -0.0251948 -0.0251948 -0.0251948 -0.0909089 -0.0909089 -0.0909089 -0.0909089 -0.0362987 -0.0362987 -0.0362987 -0.0362987 -0.0344404 -0.0344404 -0.0344404 -0.0344404 -0.0613021 -0.0613021 -0.0613021 -0.0613021 -0.128122 -0.128122 -0.128122 -0.128122 -0.0545382 -0.0545382 -0.0545382 -0.0545382 -0.0129 -0.0129 -0.0129 -0.0129 -0.0393758 -0.0393758 -0.0393758 -0.0393758 -0.0326767 -0.0326767 -0.0326767 -0.0326767 0.00261041 0.00261041 0.00261041 0.00261041 -0.0583176 -0.0583176 -0.0583176 -0.0583176 -0.018745 -0.018745 -0.018745 -0.018745 -0.0737103 -0.0737103 -0.0737103 -0.0737103 -0.0438022 -0.0438022 -0.0438022 -0.0438022 0.0211369 0.0211369 0.0211369 0.0211369 -0.0398581 -0.0398581 -0.0398581 -0.0398581 -0.0204743 -0.0204743 -0.0204743 -0.0204743 -0.020157 -0.020157 -0.020157 -0.020157 -0.0547468 -0.0547468 -0.0547468 -0.0547468 -0.0175255 -0.0175255 -0.0175255 -0.0175255 -0.0515215 -0.0515215 -0.0515215 -0.0515215 -0.0192615 -0.0192615 -0.0192615 -0.0192615 -0.0129905 -0.0129905 -0.0129905 -0.0129905 -0.0417543 -0.0417543 -0.0417543 -0.0417543 -0.0607737 -0.0607737 -0.0607737 -0.0607737 -0.023011 -0.023011 -0.023011 -0.023011 0.0269834 0.0269834 0.0269834 0.0269834 -0.00720745 -0.00720745 -0.00720745 -0.00720745 -0.0819117 -0.0819117 -0.0819117 -0.0819117 -0.0589151 -0.0589151 -0.0589151 -0.0589151 -0.0104508 -0.0104508 -0.0104508 -0.0104508 -0.0908952 -0.0908952 -0.0908952 -0.0908952 -0.0924303 -0.0924303 -0.0924303 -0.0924303 0.0312713 0.0312713 0.0312713 0.0312713 0.00882563 0.00882563 0.00882563 0.00882563 -0.0555119 -0.0555119 -0.0555119 -0.0555119 -0.0137982 -0.0137982 -0.0137982 -0.0137982 0.0325315 0.0325315 0.0325315 0.0325315 -0.05415 -0.05415 -0.05415 -0.05415 0.0294284 0.0294284 0.0294284 0.0294284 -0.0222973 -0.0222973 -0.0222973 -0.0222973 -0.0118107 -0.0118107 -0.0118107 -0.0118107 -0.0669615 -0.0669615 -0.0669615 -0.0669615 0.0304331 0.0304331 0.0304331 0.0304331 0.0120008 0.0120008 0.0120008 0.0120008 -0.0097216 -0.0097216 -0.0097216 -0.0097216 0.0235262 0.0235262 0.0235262 0.0235262 -0.0102637 -0.0102637 -0.0102637 -0.0102637 -0.0497842 -0.0497842 -0.0497842 -0.0497842 -0.0188317 -0.0188317 -0.0188317 -0.0188317 -0.03385 -0.03385 -0.03385 -0.03385 -0.0172091 -0.0172091 -0.0172091 -0.0172091 -0.0351367 -0.0351367 -0.0351367 -0.0351367 -0.0586947 -0.0586947 -0.0586947 -0.0586947 -0.221217 -0.221217 -0.221217 -0.221217 -0.00966308 -0.00966308 -0.00966308 -0.00966308 -0.0989062 -0.0989062 -0.0989062 -0.0989062 -0.101062 -0.101062 -0.101062 -0.101062 -0.0612796 -0.0612796 -0.0612796 -0.0612796 -0.025434 -0.025434 -0.025434 -0.025434 -0.0198013 -0.0198013 -0.0198013 -0.0198013 -0.173226 -0.173226 -0.173226 -0.173226 -0.0111126 -0.0111126 -0.0111126 -0.0111126 -0.021917 -0.021917 -0.021917 -0.021917 -0.121037 -0.121037 -0.121037 -0.121037 -0.0163705 -0.0163705 -0.0163705 -0.0163705 -0.015616 -0.015616 -0.015616 -0.015616 -0.0390168 -0.0390168 -0.0390168 -0.0390168 -0.150841 -0.150841 -0.150841 -0.150841 -0.0128895 -0.0128895 -0.0128895 -0.0128895 -0.0139727 -0.0139727 -0.0139727 -0.0139727 -0.0459153 -0.0459153 -0.0459153 -0.0459153 -0.0113347 -0.0113347 -0.0113347 -0.0113347 0.00301864 0.00301864 0.00301864 0.00301864 -0.0546191 -0.0546191 -0.0546191 -0.0546191 0.0268623 0.0268623 0.0268623 0.0268623 -0.0226048 -0.0226048 -0.0226048 -0.0226048 -0.00696319 -0.00696319 -0.00696319 -0.00696319 -0.0629341 -0.0629341 -0.0629341 -0.0629341 -0.0180279 -0.0180279 -0.0180279 -0.0180279 0.0015679 0.0015679 0.0015679 0.0015679 -0.0262053 -0.0262053 -0.0262053 -0.0262053 -0.130097 -0.130097 -0.130097 -0.130097 0.0245024 0.0245024 0.0245024 0.0245024 -0.0526306 -0.0526306 -0.0526306 -0.0526306 -0.0136129 -0.0136129 -0.0136129 -0.0136129 -0.151501 -0.151501 -0.151501 -0.151501 -0.128156 -0.128156 -0.128156 -0.128156 -0.0162967 -0.0162967 -0.0162967 -0.0162967 0.00231824 0.00231824 0.00231824 0.00231824 -0.0266574 -0.0266574 -0.0266574 -0.0266574 -0.0216306 -0.0216306 -0.0216306 -0.0216306 0.00969421 0.00969421 0.00969421 0.00969421 -0.0019188 -0.0019188 -0.0019188 -0.0019188 0.0340452 0.0340452 0.0340452 0.0340452 0.088195 0.088195 0.088195 0.088195 0.00471429 0.00471429 0.00471429 0.00471429 -0.0175402 -0.0175402 -0.0175402 -0.0175402 -0.0490253 -0.0490253 -0.0490253 -0.0490253 -0.0659286 -0.0659286 -0.0659286 -0.0659286 0.0754349 0.0754349 0.0754349 0.0754349 0.0233608 0.0233608 0.0233608 0.0233608 -0.0186195 -0.0186195 -0.0186195 -0.0186195 -0.0196386 -0.0196386 -0.0196386 -0.0196386 -0.0222382 -0.0222382 -0.0222382 -0.0222382 0.0369245 0.0369245 0.0369245 0.0369245 -0.022061 -0.022061 -0.022061 -0.022061 -0.016572 -0.016572 -0.016572 -0.016572 -0.0653532 -0.0653532 -0.0653532 -0.0653532 -0.0499066 -0.0499066 -0.0499066 -0.0499066 0.0693399 0.0693399 0.0693399 0.0693399 0.0129661 0.0129661 0.0129661 0.0129661 -0.0152047 -0.0152047 -0.0152047 -0.0152047 -0.0135223 -0.0135223 -0.0135223 -0.0135223 0.0305163 0.0305163 0.0305163 0.0305163 -0.00415844 -0.00415844 -0.00415844 -0.00415844 -0.0696103 -0.0696103 -0.0696103 -0.0696103 -0.0165228 -0.0165228 -0.0165228 -0.0165228 -0.0628042 -0.0628042 -0.0628042 -0.0628042 -0.0508345 -0.0508345 -0.0508345 -0.0508345 -0.058034 -0.058034 -0.058034 -0.058034 -0.0922712 -0.0922712 -0.0922712 -0.0922712 -0.0627875 -0.0627875 -0.0627875 -0.0627875 -0.0975544 -0.0975544 -0.0975544 -0.0975544 -0.0309389 -0.0309389 -0.0309389 -0.0309389 -0.0787232 -0.0787232 -0.0787232 -0.0787232 -0.0720012 -0.0720012 -0.0720012 -0.0720012 0.0255275 0.0255275 0.0255275 0.0255275 -0.197699 -0.197699 -0.197699 -0.197699 -0.0179431 -0.0179431 -0.0179431 -0.0179431 -0.0200445 -0.0200445 -0.0200445 -0.0200445 -0.00150171 -0.00150171 -0.00150171 -0.00150171 -0.0168977 -0.0168977 -0.0168977 -0.0168977 -0.220038 -0.220038 -0.220038 -0.220038 -0.185717 -0.185717 -0.185717 -0.185717 0.0123371 0.0123371 0.0123371 0.0123371 -0.0740224 -0.0740224 -0.0740224 -0.0740224 -0.00783547 -0.00783547 -0.00783547 -0.00783547 0.0227572 0.0227572 0.0227572 0.0227572 -0.0106271 -0.0106271 -0.0106271 -0.0106271 -0.0725681 -0.0725681 -0.0725681 -0.0725681 0.0463714 0.0463714 0.0463714 0.0463714 0.0172321 0.0172321 0.0172321 0.0172321 -0.033937 -0.033937 -0.033937 -0.033937 0.0186376 0.0186376 0.0186376 0.0186376 0.00518413 0.00518413 0.00518413 0.00518413 -0.0331904 -0.0331904 -0.0331904 -0.0331904 0.022468 0.022468 0.022468 0.022468 -0.111834 -0.111834 -0.111834 -0.111834 -0.00437133 -0.00437133 -0.00437133 -0.00437133 -0.049889 -0.049889 -0.049889 -0.049889 -0.107729 -0.107729 -0.107729 -0.107729 -0.0978235 -0.0978235 -0.0978235 -0.0978235 -0.00709249 -0.00709249 -0.00709249 -0.00709249 -0.0206708 -0.0206708 -0.0206708 -0.0206708 -0.0130532 -0.0130532 -0.0130532 -0.0130532 -0.0324542 -0.0324542 -0.0324542 -0.0324542 -0.164291 -0.164291 -0.164291 -0.164291 -0.0295345 -0.0295345 -0.0295345 -0.0295345 -0.0398787 -0.0398787 -0.0398787 -0.0398787 0.00207063 0.00207063 0.00207063 0.00207063 -0.0550551 -0.0550551 -0.0550551 -0.0550551 -0.10395 -0.10395 -0.10395 -0.10395 -0.00832429 -0.00832429 -0.00832429 -0.00832429 -0.0182845 -0.0182845 -0.0182845 -0.0182845 -0.0505677 -0.0505677 -0.0505677 -0.0505677 0.0917396 0.0917396 0.0917396 0.0917396 0.015525 0.015525 0.015525 0.015525 -0.00795607 -0.00795607 -0.00795607 -0.00795607 0.0204626 0.0204626 0.0204626 0.0204626 0.02801 0.02801 0.02801 0.02801 -0.0598923 -0.0598923 -0.0598923 -0.0598923 -0.152763 -0.152763 -0.152763 -0.152763 0.0139933 0.0139933 0.0139933 0.0139933 -0.27914 -0.27914 -0.27914 -0.27914 -0.0071767 -0.0071767 -0.0071767 -0.0071767 -0.0523823 -0.0523823 -0.0523823 -0.0523823 -0.0985991 -0.0985991 -0.0985991 -0.0985991 -0.101752 -0.101752 -0.101752 -0.101752 -0.0942171 -0.0942171 -0.0942171 -0.0942171 -0.0344725 -0.0344725 -0.0344725 -0.0344725 0.0485743 0.0485743 0.0485743 0.0485743 0.0150926 0.0150926 0.0150926 0.0150926 -0.0869469 -0.0869469 -0.0869469 -0.0869469 -0.00446497 -0.00446497 -0.00446497 -0.00446497 0.00686998 0.00686998 0.00686998 0.00686998 -0.0338495 -0.0338495 -0.0338495 -0.0338495 -0.00636568 -0.00636568 -0.00636568 -0.00636568 -0.0294103 -0.0294103 -0.0294103 -0.0294103 -0.201084 -0.201084 -0.201084 -0.201084 0.057544 0.057544 0.057544 0.057544 -0.0141531 -0.0141531 -0.0141531 -0.0141531 0.00299218 0.00299218 0.00299218 0.00299218 -0.0203821 -0.0203821 -0.0203821 -0.0203821 -0.00912651 -0.00912651 -0.00912651 -0.00912651 0.0217764 0.0217764 0.0217764 0.0217764 0.0447461 0.0447461 0.0447461 0.0447461 -0.0413741 -0.0413741 -0.0413741 -0.0413741 0.0173869 0.0173869 0.0173869 0.0173869 -0.019057 -0.019057 -0.019057 -0.019057 -0.0516214 -0.0516214 -0.0516214 -0.0516214 -0.0450339 -0.0450339 -0.0450339 -0.0450339 -0.0772494 -0.0772494 -0.0772494 -0.0772494 -0.000517946 -0.000517946 -0.000517946 -0.000517946 0.00749486 0.00749486 0.00749486 0.00749486 0.0302542 0.0302542 0.0302542 0.0302542 -0.17446 -0.17446 -0.17446 -0.17446 -0.00916162 -0.00916162 -0.00916162 -0.00916162 -0.0172618 -0.0172618 -0.0172618 -0.0172618 -0.00783573 -0.00783573 -0.00783573 -0.00783573 -0.138181 -0.138181 -0.138181 -0.138181 0.00859439 0.00859439 0.00859439 0.00859439 -0.00836552 -0.00836552 -0.00836552 -0.00836552 -0.0595747 -0.0595747 -0.0595747 -0.0595747 0.0475594 0.0475594 0.0475594 0.0475594 -0.0172252 -0.0172252 -0.0172252 -0.0172252 0.0233583 0.0233583 0.0233583 0.0233583 0.070184 0.070184 0.070184 0.070184 -0.0190494 -0.0190494 -0.0190494 -0.0190494 0.0614613 0.0614613 0.0614613 0.0614613 -0.011754 -0.011754 -0.011754 -0.011754 -0.106632 -0.106632 -0.106632 -0.106632 -0.0140178 -0.0140178 -0.0140178 -0.0140178 -0.0148063 -0.0148063 -0.0148063 -0.0148063 -0.0148516 -0.0148516 -0.0148516 -0.0148516 -0.000703386 -0.000703386 -0.000703386 -0.000703386 0.0192825 0.0192825 0.0192825 0.0192825 0.00960264 0.00960264 0.00960264 0.00960264 -0.0786801 -0.0786801 -0.0786801 -0.0786801 -0.0554021 -0.0554021 -0.0554021 -0.0554021 0.0420635 0.0420635 0.0420635 0.0420635 -0.0599929 -0.0599929 -0.0599929 -0.0599929 -0.0192861 -0.0192861 -0.0192861 -0.0192861 -0.0100027 -0.0100027 -0.0100027 -0.0100027 -0.0225531 -0.0225531 -0.0225531 -0.0225531 -0.0146965 -0.0146965 -0.0146965 -0.0146965 -0.0847852 -0.0847852 -0.0847852 -0.0847852 -0.078702 -0.078702 -0.078702 -0.078702 -0.192476 -0.192476 -0.192476 -0.192476 -0.0172028 -0.0172028 -0.0172028 -0.0172028 -0.0679575 -0.0679575 -0.0679575 -0.0679575 -0.0490124 -0.0490124 -0.0490124 -0.0490124 0.0184067 0.0184067 0.0184067 0.0184067 -0.0362862 -0.0362862 -0.0362862 -0.0362862 -0.0108396 -0.0108396 -0.0108396 -0.0108396 -0.0167763 -0.0167763 -0.0167763 -0.0167763 -0.00625912 -0.00625912 -0.00625912 -0.00625912 0.026125 0.026125 0.026125 0.026125 -0.0688848 -0.0688848 -0.0688848 -0.0688848 -0.0248956 -0.0248956 -0.0248956 -0.0248956 0.0282141 0.0282141 0.0282141 0.0282141 -0.0163476 -0.0163476 -0.0163476 -0.0163476 -0.0208127 -0.0208127 -0.0208127 -0.0208127 0.0301109 0.0301109 0.0301109 0.0301109 -0.0481207 -0.0481207 -0.0481207 -0.0481207 -0.0450619 -0.0450619 -0.0450619 -0.0450619 -0.0887291 -0.0887291 -0.0887291 -0.0887291 0.0189242 0.0189242 0.0189242 0.0189242 -0.180828 -0.180828 -0.180828 -0.180828 0.013707 0.013707 0.013707 0.013707 0.0699085 0.0699085 0.0699085 0.0699085 -0.0841745 -0.0841745 -0.0841745 -0.0841745 0.000822392 0.000822392 0.000822392 0.000822392 0.0215 0.0215 0.0215 0.0215 -0.005602 -0.005602 -0.005602 -0.005602 -0.0513862 -0.0513862 -0.0513862 -0.0513862 -0.0181727 -0.0181727 -0.0181727 -0.0181727 -0.133472 -0.133472 -0.133472 -0.133472 -0.00226066 -0.00226066 -0.00226066 -0.00226066 -0.0505636 -0.0505636 -0.0505636 -0.0505636 -0.00166419 -0.00166419 -0.00166419 -0.00166419 -0.0253491 -0.0253491 -0.0253491 -0.0253491 0.0145228 0.0145228 0.0145228 0.0145228 -0.0218862 -0.0218862 -0.0218862 -0.0218862 0.0160555 0.0160555 0.0160555 0.0160555 -0.0337955 -0.0337955 -0.0337955 -0.0337955 0.0476879 0.0476879 0.0476879 0.0476879 -0.0181711 -0.0181711 -0.0181711 -0.0181711 -0.0236342 -0.0236342 -0.0236342 -0.0236342 -0.0725993 -0.0725993 -0.0725993 -0.0725993 -0.0760137 -0.0760137 -0.0760137 -0.0760137 -0.0261803 -0.0261803 -0.0261803 -0.0261803 0.00461636 0.00461636 0.00461636 0.00461636 0.0321953 0.0321953 0.0321953 0.0321953 -0.0926297 -0.0926297 -0.0926297 -0.0926297 0.00512722 0.00512722 0.00512722 0.00512722 -0.05603 -0.05603 -0.05603 -0.05603 -0.0272826 -0.0272826 -0.0272826 -0.0272826 -0.0282316 -0.0282316 -0.0282316 -0.0282316 -0.0041884 -0.0041884 -0.0041884 -0.0041884 -0.0662902 -0.0662902 -0.0662902 -0.0662902 -0.0184383 -0.0184383 -0.0184383 -0.0184383 0.031751 0.031751 0.031751 0.031751 0.0140051 0.0140051 0.0140051 0.0140051 -0.0935717 -0.0935717 -0.0935717 -0.0935717 -0.0129891 -0.0129891 -0.0129891 -0.0129891 0.0627872 0.0627872 0.0627872 0.0627872 -0.0901087 -0.0901087 -0.0901087 -0.0901087 -0.0187582 -0.0187582 -0.0187582 -0.0187582 -0.110441 -0.110441 -0.110441 -0.110441 0.00695081 0.00695081 0.00695081 0.00695081 -0.0807117 -0.0807117 -0.0807117 -0.0807117 -0.078297 -0.078297 -0.078297 -0.078297 -0.00991845 -0.00991845 -0.00991845 -0.00991845 -0.140743 -0.140743 -0.140743 -0.140743 -0.0167165 -0.0167165 -0.0167165 -0.0167165 0.146406 0.146406 0.146406 0.146406 0.0640988 0.0640988 0.0640988 0.0640988 0.0226459 0.0226459 0.0226459 0.0226459 -0.0155124 -0.0155124 -0.0155124 -0.0155124 -0.0199646 -0.0199646 -0.0199646 -0.0199646 0.0657105 0.0657105 0.0657105 0.0657105 0.0111387 0.0111387 0.0111387 0.0111387 0.0133706 0.0133706 0.0133706 0.0133706 -0.044935 -0.044935 -0.044935 -0.044935 -0.0225001 -0.0225001 -0.0225001 -0.0225001 0.031799 0.031799 0.031799 0.031799 0.23928 0.23928 0.23928 0.23928 -0.0158773 -0.0158773 -0.0158773 -0.0158773 0.0177862 0.0177862 0.0177862 0.0177862 0.0487379 0.0487379 0.0487379 0.0487379 -0.0302876 -0.0302876 -0.0302876 -0.0302876 0.0918096 0.0918096 0.0918096 0.0918096 0.0167274 0.0167274 0.0167274 0.0167274 0.0063355 0.0063355 0.0063355 0.0063355 0.0035855 0.0035855 0.0035855 0.0035855 0.176765 0.176765 0.176765 0.176765 -0.0133947 -0.0133947 -0.0133947 -0.0133947 0.018519 0.018519 0.018519 0.018519 -0.0443293 -0.0443293 -0.0443293 -0.0443293 -0.0231879 -0.0231879 -0.0231879 -0.0231879 -0.0152949 -0.0152949 -0.0152949 -0.0152949 -0.0158322 -0.0158322 -0.0158322 -0.0158322 -0.14347 -0.14347 -0.14347 -0.14347 -0.0358726 -0.0358726 -0.0358726 -0.0358726 -0.0137183 -0.0137183 -0.0137183 -0.0137183 -0.0378987 -0.0378987 -0.0378987 -0.0378987 0.011754 0.011754 0.011754 0.011754 -0.0228193 -0.0228193 -0.0228193 -0.0228193 -0.05521 -0.05521 -0.05521 -0.05521 -0.0500099 -0.0500099 -0.0500099 -0.0500099 0.025352 0.025352 0.025352 0.025352 -0.00580663 -0.00580663 -0.00580663 -0.00580663 -0.0218555 -0.0218555 -0.0218555 -0.0218555 0.0164558 0.0164558 0.0164558 0.0164558 -0.0547919 -0.0547919 -0.0547919 -0.0547919 -0.0204783 -0.0204783 -0.0204783 -0.0204783 0.0688604 0.0688604 0.0688604 0.0688604 0.152504 0.152504 0.152504 0.152504 -0.0405528 -0.0405528 -0.0405528 -0.0405528 -0.0103732 -0.0103732 -0.0103732 -0.0103732 0.0132455 0.0132455 0.0132455 0.0132455 0.097236 0.097236 0.097236 0.097236 0.18042 0.18042 0.18042 0.18042 -0.019609 -0.019609 -0.019609 -0.019609 -0.0272079 -0.0272079 -0.0272079 -0.0272079 -0.106556 -0.106556 -0.106556 -0.106556 0.0184203 0.0184203 0.0184203 0.0184203 0.167517 0.167517 0.167517 0.167517 -0.217371 -0.217371 -0.217371 -0.217371 0.2045 0.2045 0.2045 0.2045 0.00377363 0.00377363 0.00377363 0.00377363 -0.192844 -0.192844 -0.192844 -0.192844 0.147807 0.147807 0.147807 0.147807 0.021752 0.021752 0.021752 0.021752 0.0515602 0.0515602 0.0515602 0.0515602 0.0111657 0.0111657 0.0111657 0.0111657 0.0206973 0.0206973 0.0206973 0.0206973 0.0495344 0.0495344 0.0495344 0.0495344 -0.0533334 -0.0533334 -0.0533334 -0.0533334 -0.02358 -0.02358 -0.02358 -0.02358 -0.200309 -0.200309 -0.200309 -0.200309 0.182359 0.182359 0.182359 0.182359 -0.0664431 -0.0664431 -0.0664431 -0.0664431 -0.164258 -0.164258 -0.164258 -0.164258 0.0520753 0.0520753 0.0520753 0.0520753 -0.062501 -0.062501 -0.062501 -0.062501 -0.0341959 -0.0341959 -0.0341959 -0.0341959 0.0111553 0.0111553 0.0111553 0.0111553 -0.121298 -0.121298 -0.121298 -0.121298 -0.0179259 -0.0179259 -0.0179259 -0.0179259 0.00261139 0.00261139 0.00261139 0.00261139 -0.0207375 -0.0207375 -0.0207375 -0.0207375 0.0715535 0.0715535 0.0715535 0.0715535 0.0521503 0.0521503 0.0521503 0.0521503 -0.0573349 -0.0573349 -0.0573349 -0.0573349 0.00956321 0.00956321 0.00956321 0.00956321 0.0424799 0.0424799 0.0424799 0.0424799 -0.155108 -0.155108 -0.155108 -0.155108 0.0327015 0.0327015 0.0327015 0.0327015 0.0468652 0.0468652 0.0468652 0.0468652 -0.0485421 -0.0485421 -0.0485421 -0.0485421 0.00519459 0.00519459 0.00519459 0.00519459 -0.00564681 -0.00564681 -0.00564681 -0.00564681 0.14031 0.14031 0.14031 0.14031 0.0322973 0.0322973 0.0322973 0.0322973 -0.0112719 -0.0112719 -0.0112719 -0.0112719 -0.0013671 -0.0013671 -0.0013671 -0.0013671 -0.01971 -0.01971 -0.01971 -0.01971 -0.0598714 -0.0598714 -0.0598714 -0.0598714 -0.0137454 -0.0137454 -0.0137454 -0.0137454 -0.0184691 -0.0184691 -0.0184691 -0.0184691 -0.057511 -0.057511 -0.057511 -0.057511 -0.00567058 -0.00567058 -0.00567058 -0.00567058 0.0275758 0.0275758 0.0275758 0.0275758 0.173067 0.173067 0.173067 0.173067 0.00781584 0.00781584 0.00781584 0.00781584 0.1708 0.1708 0.1708 0.1708 0.0960533 0.0960533 0.0960533 0.0960533 -0.0407025 -0.0407025 -0.0407025 -0.0407025 0.036189 0.036189 0.036189 0.036189 0.046006 0.046006 0.046006 0.046006 -0.0201688 -0.0201688 -0.0201688 -0.0201688 0.0619877 0.0619877 0.0619877 0.0619877 -0.0133484 -0.0133484 -0.0133484 -0.0133484 0.149309 0.149309 0.149309 0.149309 0.0454733 0.0454733 0.0454733 0.0454733 -0.00834568 -0.00834568 -0.00834568 -0.00834568 -0.0591035 -0.0591035 -0.0591035 -0.0591035 0.00280421 0.00280421 0.00280421 0.00280421 0.157847 0.157847 0.157847 0.157847 -0.0215299 -0.0215299 -0.0215299 -0.0215299 0.0209049 0.0209049 0.0209049 0.0209049 -0.00395579 -0.00395579 -0.00395579 -0.00395579 -0.0141482 -0.0141482 -0.0141482 -0.0141482 -0.00661062 -0.00661062 -0.00661062 -0.00661062 0.0477181 0.0477181 0.0477181 0.0477181 -0.0917344 -0.0917344 -0.0917344 -0.0917344 0.00579435 0.00579435 0.00579435 0.00579435 0.208232 0.208232 0.208232 0.208232 0.0483527 0.0483527 0.0483527 0.0483527 -0.0222283 -0.0222283 -0.0222283 -0.0222283 0.162482 0.162482 0.162482 0.162482 -0.0260965 -0.0260965 -0.0260965 -0.0260965 0.0779915 0.0779915 0.0779915 0.0779915 -0.0127931 -0.0127931 -0.0127931 -0.0127931 0.0622194 0.0622194 0.0622194 0.0622194 0.0244241 0.0244241 0.0244241 0.0244241 -0.124515 -0.124515 -0.124515 -0.124515 -0.0206592 -0.0206592 -0.0206592 -0.0206592 0.0119772 0.0119772 0.0119772 0.0119772 0.255093 0.255093 0.255093 0.255093 -0.0165512 -0.0165512 -0.0165512 -0.0165512 -0.00431341 -0.00431341 -0.00431341 -0.00431341 0.0240113 0.0240113 0.0240113 0.0240113 0.0195987 0.0195987 0.0195987 0.0195987 -0.011342 -0.011342 -0.011342 -0.011342 0.305938 0.305938 0.305938 0.305938 0.16956 0.16956 0.16956 0.16956 -0.0186912 -0.0186912 -0.0186912 -0.0186912 -0.0029652 -0.0029652 -0.0029652 -0.0029652 0.0359627 0.0359627 0.0359627 0.0359627 -0.0140225 -0.0140225 -0.0140225 -0.0140225 0.0510405 0.0510405 0.0510405 0.0510405 -0.029141 -0.029141 -0.029141 -0.029141 0.0398551 0.0398551 0.0398551 0.0398551 -0.0232508 -0.0232508 -0.0232508 -0.0232508 -0.0172766 -0.0172766 -0.0172766 -0.0172766 -0.0226753 -0.0226753 -0.0226753 -0.0226753 -0.0241905 -0.0241905 -0.0241905 -0.0241905 0.083971 0.083971 0.083971 0.083971 -0.0215939 -0.0215939 -0.0215939 -0.0215939 -0.00358017 -0.00358017 -0.00358017 -0.00358017 0.227829 0.227829 0.227829 0.227829 -0.0100296 -0.0100296 -0.0100296 -0.0100296 -0.021679 -0.021679 -0.021679 -0.021679 -0.0215533 -0.0215533 -0.0215533 -0.0215533 -0.0127548 -0.0127548 -0.0127548 -0.0127548 0.176231 0.176231 0.176231 0.176231 0.319128 0.319128 0.319128 0.319128 0.0418911 0.0418911 0.0418911 0.0418911 -0.0214632 -0.0214632 -0.0214632 -0.0214632 0.28633 0.28633 0.28633 0.28633 0.0276172 0.0276172 0.0276172 0.0276172 -0.0196327 -0.0196327 -0.0196327 -0.0196327 0.000439336 0.000439336 0.000439336 0.000439336 0.0140794 0.0140794 0.0140794 0.0140794 -0.0159048 -0.0159048 -0.0159048 -0.0159048 -0.0141131 -0.0141131 -0.0141131 -0.0141131 -0.0135297 -0.0135297 -0.0135297 -0.0135297 -0.0215069 -0.0215069 -0.0215069 -0.0215069 -0.0220817 -0.0220817 -0.0220817 -0.0220817 -0.0384357 -0.0384357 -0.0384357 -0.0384357 0.196793 0.196793 0.196793 0.196793 -0.00753705 -0.00753705 -0.00753705 -0.00753705 -0.0215811 -0.0215811 -0.0215811 -0.0215811 -0.0144138 -0.0144138 -0.0144138 -0.0144138 -0.0195919 -0.0195919 -0.0195919 -0.0195919 -0.0368164 -0.0368164 -0.0368164 -0.0368164 0.0206082 0.0206082 0.0206082 0.0206082 0.015063 0.015063 0.015063 0.015063 0.0779279 0.0779279 0.0779279 0.0779279 0.243045 0.243045 0.243045 0.243045 -0.0169635 -0.0169635 -0.0169635 -0.0169635 0.0819655 0.0819655 0.0819655 0.0819655 0.0107008 0.0107008 0.0107008 0.0107008 -0.0237567 -0.0237567 -0.0237567 -0.0237567 0.11091 0.11091 0.11091 0.11091 0.0287677 0.0287677 0.0287677 0.0287677 -0.0535456 -0.0535456 -0.0535456 -0.0535456 0.0266336 0.0266336 0.0266336 0.0266336 0.296301 0.296301 0.296301 0.296301 0.00569405 0.00569405 0.00569405 0.00569405 0.00117007 0.00117007 0.00117007 0.00117007 -0.0240477 -0.0240477 -0.0240477 -0.0240477 0.0233897 0.0233897 0.0233897 0.0233897 0.00812448 0.00812448 0.00812448 0.00812448 -0.0185965 -0.0185965 -0.0185965 -0.0185965 0.103569 0.103569 0.103569 0.103569 -0.014385 -0.014385 -0.014385 -0.014385 -0.0173143 -0.0173143 -0.0173143 -0.0173143 0.0460787 0.0460787 0.0460787 0.0460787 -0.0174288 -0.0174288 -0.0174288 -0.0174288 -0.0136817 -0.0136817 -0.0136817 -0.0136817 -0.0544735 -0.0544735 -0.0544735 -0.0544735 -0.023823 -0.023823 -0.023823 -0.023823 0.099868 0.099868 0.099868 0.099868 -0.0178633 -0.0178633 -0.0178633 -0.0178633 0.00266406 0.00266406 0.00266406 0.00266406 -0.0142699 -0.0142699 -0.0142699 -0.0142699 -0.0205173 -0.0205173 -0.0205173 -0.0205173 0.0457646 0.0457646 0.0457646 0.0457646 -0.0262491 -0.0262491 -0.0262491 -0.0262491 -0.00916977 -0.00916977 -0.00916977 -0.00916977 -0.0225593 -0.0225593 -0.0225593 -0.0225593 0.0558641 0.0558641 0.0558641 0.0558641 -0.0136855 -0.0136855 -0.0136855 -0.0136855 -0.0282805 -0.0282805 -0.0282805 -0.0282805 -0.0280002 -0.0280002 -0.0280002 -0.0280002 -0.0331773 -0.0331773 -0.0331773 -0.0331773 -0.0226195 -0.0226195 -0.0226195 -0.0226195 0.114621 0.114621 0.114621 0.114621 -0.0167704 -0.0167704 -0.0167704 -0.0167704 -0.0224807 -0.0224807 -0.0224807 -0.0224807 -0.0149326 -0.0149326 -0.0149326 -0.0149326 -0.0226409 -0.0226409 -0.0226409 -0.0226409 -0.0182618 -0.0182618 -0.0182618 -0.0182618 -0.027941 -0.027941 -0.027941 -0.027941 -0.0308958 -0.0308958 -0.0308958 -0.0308958 -0.0285693 -0.0285693 -0.0285693 -0.0285693 -0.0234063 -0.0234063 -0.0234063 -0.0234063 -0.0214765 -0.0214765 -0.0214765 -0.0214765 -0.0275459 -0.0275459 -0.0275459 -0.0275459 -0.0283459 -0.0283459 -0.0283459 -0.0283459 -0.0309181 -0.0309181 -0.0309181 -0.0309181 -0.0239887 -0.0239887 -0.0239887 -0.0239887 -0.0259295 -0.0259295 -0.0259295 -0.0259295 -0.010588 -0.010588 -0.010588 -0.010588 -0.0208181 -0.0208181 -0.0208181 -0.0208181 -0.0342875 -0.0342875 -0.0342875 -0.0342875 -0.0200378 -0.0200378 -0.0200378 -0.0200378 -0.0271369 -0.0271369 -0.0271369 -0.0271369 -0.0266935 -0.0266935 -0.0266935 -0.0266935 -0.0164924 -0.0164924 -0.0164924 -0.0164924 -0.0250204 -0.0250204 -0.0250204 -0.0250204 -0.0207772 -0.0207772 -0.0207772 -0.0207772 -0.0219178 -0.0219178 -0.0219178 -0.0219178 -0.024038 -0.024038 -0.024038 -0.024038 0.00663975 0.00663975 0.00663975 0.00663975 -0.0170581 -0.0170581 -0.0170581 -0.0170581 -0.0242327 -0.0242327 -0.0242327 -0.0242327 -0.0276098 -0.0276098 -0.0276098 -0.0276098 -0.0232259 -0.0232259 -0.0232259 -0.0232259 -0.0423622 -0.0423622 -0.0423622 -0.0423622 -0.0264136 -0.0264136 -0.0264136 -0.0264136 -0.0197141 -0.0197141 -0.0197141 -0.0197141 -0.0232174 -0.0232174 -0.0232174 -0.0232174 -0.023126 -0.023126 -0.023126 -0.023126 0.0444748 0.0444748 0.0444748 0.0444748 -0.0272032 -0.0272032 -0.0272032 -0.0272032 0.124279 0.124279 0.124279 0.124279 -0.0246862 -0.0246862 -0.0246862 -0.0246862 -0.0275368 -0.0275368 -0.0275368 -0.0275368 0.110203 0.110203 0.110203 0.110203 -0.020692 -0.020692 -0.020692 -0.020692 0.0661684 0.0661684 0.0661684 0.0661684 0.0276883 0.0276883 0.0276883 0.0276883 -0.0090134 -0.0090134 -0.0090134 -0.0090134 -0.0211502 -0.0211502 -0.0211502 -0.0211502 -0.0225005 -0.0225005 -0.0225005 -0.0225005 -0.0105208 -0.0105208 -0.0105208 -0.0105208 -0.0418546 -0.0418546 -0.0418546 -0.0418546 -0.0194643 -0.0194643 -0.0194643 -0.0194643 -0.0267092 -0.0267092 -0.0267092 -0.0267092 -0.0212041 -0.0212041 -0.0212041 -0.0212041 0.0200459 0.0200459 0.0200459 0.0200459 0.0296712 0.0296712 0.0296712 0.0296712 0.2081 0.2081 0.2081 0.2081 -0.0202183 -0.0202183 -0.0202183 -0.0202183 0.0130864 0.0130864 0.0130864 0.0130864 -0.0459881 -0.0459881 -0.0459881 -0.0459881 -0.00514545 -0.00514545 -0.00514545 -0.00514545 0.0110665 0.0110665 0.0110665 0.0110665 0.0447487 0.0447487 0.0447487 0.0447487 0.0280615 0.0280615 0.0280615 0.0280615 -0.0242174 -0.0242174 -0.0242174 -0.0242174 0.173436 0.173436 0.173436 0.173436 0.00663523 0.00663523 0.00663523 0.00663523 0.171064 0.171064 0.171064 0.171064 -0.047429 -0.047429 -0.047429 -0.047429 -0.0206139 -0.0206139 -0.0206139 -0.0206139 -0.0170929 -0.0170929 -0.0170929 -0.0170929 -0.0112671 -0.0112671 -0.0112671 -0.0112671 0.0137882 0.0137882 0.0137882 0.0137882 0.0770895 0.0770895 0.0770895 0.0770895 0.181645 0.181645 0.181645 0.181645 0.0309616 0.0309616 0.0309616 0.0309616 -0.031876 -0.031876 -0.031876 -0.031876 -0.0284607 -0.0284607 -0.0284607 -0.0284607 -0.0248431 -0.0248431 -0.0248431 -0.0248431 -0.0196951 -0.0196951 -0.0196951 -0.0196951 -0.0489964 -0.0489964 -0.0489964 -0.0489964 -0.0168544 -0.0168544 -0.0168544 -0.0168544 -0.00125597 -0.00125597 -0.00125597 -0.00125597 0.0907738 0.0907738 0.0907738 0.0907738 0.22204 0.22204 0.22204 0.22204 -0.0185171 -0.0185171 -0.0185171 -0.0185171 0.0835223 0.0835223 0.0835223 0.0835223 0.0883438 0.0883438 0.0883438 0.0883438 -0.035776 -0.035776 -0.035776 -0.035776 0.158874 0.158874 0.158874 0.158874 -0.00450829 -0.00450829 -0.00450829 -0.00450829 0.271582 0.271582 0.271582 0.271582 -0.0206112 -0.0206112 -0.0206112 -0.0206112 -0.0368585 -0.0368585 -0.0368585 -0.0368585 0.0489103 0.0489103 0.0489103 0.0489103 0.00122239 0.00122239 0.00122239 0.00122239 0.14077 0.14077 0.14077 0.14077 0.0266066 0.0266066 0.0266066 0.0266066 0.0965519 0.0965519 0.0965519 0.0965519 -0.0331375 -0.0331375 -0.0331375 -0.0331375 -0.0161421 -0.0161421 -0.0161421 -0.0161421 -0.0217412 -0.0217412 -0.0217412 -0.0217412 0.000772453 0.000772453 0.000772453 0.000772453 0.00481238 0.00481238 0.00481238 0.00481238 0.175291 0.175291 0.175291 0.175291 0.227081 0.227081 0.227081 0.227081 0.136721 0.136721 0.136721 0.136721 0.108491 0.108491 0.108491 0.108491 0.105062 0.105062 0.105062 0.105062 0.276487 0.276487 0.276487 0.276487 -0.0227088 -0.0227088 -0.0227088 -0.0227088 0.0889531 0.0889531 0.0889531 0.0889531 -0.00437246 -0.00437246 -0.00437246 -0.00437246 -0.0124988 -0.0124988 -0.0124988 -0.0124988 0.205372 0.205372 0.205372 0.205372 0.176921 0.176921 0.176921 0.176921 0.0440115 0.0440115 0.0440115 0.0440115 0.161546 0.161546 0.161546 0.161546 0.0342115 0.0342115 0.0342115 0.0342115 0.182506 0.182506 0.182506 0.182506 0.114657 0.114657 0.114657 0.114657 -0.00670442 -0.00670442 -0.00670442 -0.00670442 0.122129 0.122129 0.122129 0.122129 -0.0247896 -0.0247896 -0.0247896 -0.0247896 -0.0158345 -0.0158345 -0.0158345 -0.0158345 0.01174 0.01174 0.01174 0.01174 -0.0339085 -0.0339085 -0.0339085 -0.0339085 -0.015087 -0.015087 -0.015087 -0.015087 -0.00310239 -0.00310239 -0.00310239 -0.00310239 -0.0211358 -0.0211358 -0.0211358 -0.0211358 -0.0136089 -0.0136089 -0.0136089 -0.0136089 -0.0278039 -0.0278039 -0.0278039 -0.0278039 -0.0270694 -0.0270694 -0.0270694 -0.0270694 -0.0355768 -0.0355768 -0.0355768 -0.0355768 -0.0394491 -0.0394491 -0.0394491 -0.0394491 0.0447303 0.0447303 0.0447303 0.0447303 0.049849 0.049849 0.049849 0.049849 -0.0481669 -0.0481669 -0.0481669 -0.0481669 -0.000325266 -0.000325266 -0.000325266 -0.000325266 -0.0112897 -0.0112897 -0.0112897 -0.0112897 -0.00804069 -0.00804069 -0.00804069 -0.00804069 -0.0169861 -0.0169861 -0.0169861 -0.0169861 -0.0162742 -0.0162742 -0.0162742 -0.0162742 -0.0136493 -0.0136493 -0.0136493 -0.0136493 -0.0201589 -0.0201589 -0.0201589 -0.0201589 -0.0305917 -0.0305917 -0.0305917 -0.0305917 0.0151235 0.0151235 0.0151235 0.0151235 -0.00458438 -0.00458438 -0.00458438 -0.00458438 -0.0051798 -0.0051798 -0.0051798 -0.0051798 -0.0217066 -0.0217066 -0.0217066 -0.0217066 -0.0168637 -0.0168637 -0.0168637 -0.0168637 -0.0235584 -0.0235584 -0.0235584 -0.0235584 -0.0156716 -0.0156716 -0.0156716 -0.0156716 -0.0213205 -0.0213205 -0.0213205 -0.0213205 0.0138095 0.0138095 0.0138095 0.0138095 -0.0242627 -0.0242627 -0.0242627 -0.0242627 -0.0398152 -0.0398152 -0.0398152 -0.0398152 0.00359016 0.00359016 0.00359016 0.00359016 -0.0710135 -0.0710135 -0.0710135 -0.0710135 -0.137169 -0.137169 -0.137169 -0.137169 -0.0349981 -0.0349981 -0.0349981 -0.0349981 -0.0452657 -0.0452657 -0.0452657 -0.0452657 0.0589249 0.0589249 0.0589249 0.0589249 -0.064274 -0.064274 -0.064274 -0.064274 0.0208906 0.0208906 0.0208906 0.0208906 -0.0383078 -0.0383078 -0.0383078 -0.0383078 -0.0224892 -0.0224892 -0.0224892 -0.0224892 -0.0070613 -0.0070613 -0.0070613 -0.0070613 0.0109179 0.0109179 0.0109179 0.0109179 0.0112829 0.0112829 0.0112829 0.0112829 -0.0666092 -0.0666092 -0.0666092 -0.0666092 -0.075096 -0.075096 -0.075096 -0.075096 -0.00354761 -0.00354761 -0.00354761 -0.00354761 0.0290295 0.0290295 0.0290295 0.0290295 -0.094222 -0.094222 -0.094222 -0.094222 -0.135325 -0.135325 -0.135325 -0.135325 -0.104239 -0.104239 -0.104239 -0.104239 -0.104141 -0.104141 -0.104141 -0.104141 -0.0138896 -0.0138896 -0.0138896 -0.0138896 -0.0193143 -0.0193143 -0.0193143 -0.0193143 0.0321938 0.0321938 0.0321938 0.0321938 0.0386617 0.0386617 0.0386617 0.0386617 -0.133923 -0.133923 -0.133923 -0.133923 -0.217404 -0.217404 -0.217404 -0.217404 -0.0195371 -0.0195371 -0.0195371 -0.0195371 -0.0308235 -0.0308235 -0.0308235 -0.0308235 -0.0139962 -0.0139962 -0.0139962 -0.0139962 -0.0165198 -0.0165198 -0.0165198 -0.0165198 -0.0171544 -0.0171544 -0.0171544 -0.0171544 -0.00606445 -0.00606445 -0.00606445 -0.00606445 -0.0267295 -0.0267295 -0.0267295 -0.0267295 -0.0147211 -0.0147211 -0.0147211 -0.0147211 -0.0203592 -0.0203592 -0.0203592 -0.0203592 -0.0118747 -0.0118747 -0.0118747 -0.0118747 -0.0194072 -0.0194072 -0.0194072 -0.0194072 -0.0142264 -0.0142264 -0.0142264 -0.0142264 -0.00926735 -0.00926735 -0.00926735 -0.00926735 -0.0244475 -0.0244475 -0.0244475 -0.0244475 -0.0126379 -0.0126379 -0.0126379 -0.0126379 -0.0211998 -0.0211998 -0.0211998 -0.0211998 -0.0154134 -0.0154134 -0.0154134 -0.0154134 -0.0639792 -0.0639792 -0.0639792 -0.0639792 -0.0132673 -0.0132673 -0.0132673 -0.0132673 -0.0274488 -0.0274488 -0.0274488 -0.0274488 -0.007858 -0.007858 -0.007858 -0.007858 -0.0180015 -0.0180015 -0.0180015 -0.0180015 -0.0152667 -0.0152667 -0.0152667 -0.0152667 -0.0668281 -0.0668281 -0.0668281 -0.0668281 -0.0354005 -0.0354005 -0.0354005 -0.0354005 -0.0158036 -0.0158036 -0.0158036 -0.0158036 -0.0200753 -0.0200753 -0.0200753 -0.0200753 -0.0146638 -0.0146638 -0.0146638 -0.0146638 -0.0223914 -0.0223914 -0.0223914 -0.0223914 -0.0122683 -0.0122683 -0.0122683 -0.0122683 -0.0689559 -0.0689559 -0.0689559 -0.0689559 -0.0161112 -0.0161112 -0.0161112 -0.0161112 -0.0247352 -0.0247352 -0.0247352 -0.0247352 -0.0578695 -0.0578695 -0.0578695 -0.0578695 -0.0275977 -0.0275977 -0.0275977 -0.0275977 -0.0514146 -0.0514146 -0.0514146 -0.0514146 -0.0539654 -0.0539654 -0.0539654 -0.0539654 -0.0138482 -0.0138482 -0.0138482 -0.0138482 -0.0089103 -0.0089103 -0.0089103 -0.0089103 -0.0504477 -0.0504477 -0.0504477 -0.0504477 -0.0230502 -0.0230502 -0.0230502 -0.0230502 -0.020906 -0.020906 -0.020906 -0.020906 -0.0145082 -0.0145082 -0.0145082 -0.0145082 -0.0072248 -0.0072248 -0.0072248 -0.0072248 -0.0284125 -0.0284125 -0.0284125 -0.0284125 -0.0412502 -0.0412502 -0.0412502 -0.0412502 -0.0160808 -0.0160808 -0.0160808 -0.0160808 -0.0132814 -0.0132814 -0.0132814 -0.0132814 -0.0167871 -0.0167871 -0.0167871 -0.0167871 -0.0151984 -0.0151984 -0.0151984 -0.0151984 -0.0229805 -0.0229805 -0.0229805 -0.0229805 0.0093753 0.0093753 0.0093753 0.0093753 -0.0252008 -0.0252008 -0.0252008 -0.0252008 -0.0190046 -0.0190046 -0.0190046 -0.0190046 0.00326054 0.00326054 0.00326054 0.00326054 -0.02025 -0.02025 -0.02025 -0.02025 -0.014637 -0.014637 -0.014637 -0.014637 -0.0361968 -0.0361968 -0.0361968 -0.0361968 -0.0143592 -0.0143592 -0.0143592 -0.0143592 -0.0269473 -0.0269473 -0.0269473 -0.0269473 -0.0251911 -0.0251911 -0.0251911 -0.0251911 -0.0164273 -0.0164273 -0.0164273 -0.0164273 -0.0254732 -0.0254732 -0.0254732 -0.0254732 -0.00152644 -0.00152644 -0.00152644 -0.00152644 -0.0181398 -0.0181398 -0.0181398 -0.0181398 -0.0116826 -0.0116826 -0.0116826 -0.0116826 -0.0319326 -0.0319326 -0.0319326 -0.0319326 0.0159226 0.0159226 0.0159226 0.0159226 -0.0370113 -0.0370113 -0.0370113 -0.0370113 -0.0240081 -0.0240081 -0.0240081 -0.0240081 -0.00431997 -0.00431997 -0.00431997 -0.00431997 -0.013872 -0.013872 -0.013872 -0.013872 -0.0257518 -0.0257518 -0.0257518 -0.0257518 -0.0107427 -0.0107427 -0.0107427 -0.0107427 -0.0217588 -0.0217588 -0.0217588 -0.0217588 -0.0380468 -0.0380468 -0.0380468 -0.0380468 -0.0135907 -0.0135907 -0.0135907 -0.0135907 -0.0159777 -0.0159777 -0.0159777 -0.0159777 -0.0365536 -0.0365536 -0.0365536 -0.0365536 -0.0186313 -0.0186313 -0.0186313 -0.0186313 -0.0623645 -0.0623645 -0.0623645 -0.0623645 -0.0133509 -0.0133509 -0.0133509 -0.0133509 -0.00380357 -0.00380357 -0.00380357 -0.00380357 -0.0213466 -0.0213466 -0.0213466 -0.0213466 -0.000881873 -0.000881873 -0.000881873 -0.000881873 -0.0120863 -0.0120863 -0.0120863 -0.0120863 -0.0844482 -0.0844482 -0.0844482 -0.0844482 -0.0143505 -0.0143505 -0.0143505 -0.0143505 -0.0292799 -0.0292799 -0.0292799 -0.0292799 -0.010746 -0.010746 -0.010746 -0.010746 -0.016572 -0.016572 -0.016572 -0.016572 -0.0194451 -0.0194451 -0.0194451 -0.0194451 -0.0158202 -0.0158202 -0.0158202 -0.0158202 -0.0163188 -0.0163188 -0.0163188 -0.0163188 -0.00195509 -0.00195509 -0.00195509 -0.00195509 -0.000992874 -0.000992874 -0.000992874 -0.000992874 -0.0170817 -0.0170817 -0.0170817 -0.0170817 -0.0324089 -0.0324089 -0.0324089 -0.0324089 -0.0133061 -0.0133061 -0.0133061 -0.0133061 -0.0151834 -0.0151834 -0.0151834 -0.0151834 -0.169219 -0.169219 -0.169219 -0.169219 -0.0227903 -0.0227903 -0.0227903 -0.0227903 -0.0415671 -0.0415671 -0.0415671 -0.0415671 0.0223249 0.0223249 0.0223249 0.0223249 0.00244639 0.00244639 0.00244639 0.00244639 -0.021665 -0.021665 -0.021665 -0.021665 0.012765 0.012765 0.012765 0.012765 0.00471239 0.00471239 0.00471239 0.00471239 0.0199238 0.0199238 0.0199238 0.0199238 -0.028171 -0.028171 -0.028171 -0.028171 -0.0797175 -0.0797175 -0.0797175 -0.0797175 -0.0291332 -0.0291332 -0.0291332 -0.0291332 0.014783 0.014783 0.014783 0.014783 -0.0185146 -0.0185146 -0.0185146 -0.0185146 -0.0148468 -0.0148468 -0.0148468 -0.0148468 -0.0060984 -0.0060984 -0.0060984 -0.0060984 0.0115473 0.0115473 0.0115473 0.0115473 -0.0194636 -0.0194636 -0.0194636 -0.0194636 -0.0122974 -0.0122974 -0.0122974 -0.0122974 0.00314339 0.00314339 0.00314339 0.00314339 -0.016652 -0.016652 -0.016652 -0.016652 -0.0193357 -0.0193357 -0.0193357 -0.0193357 -0.0274987 -0.0274987 -0.0274987 -0.0274987 -0.0540469 -0.0540469 -0.0540469 -0.0540469 -0.0274921 -0.0274921 -0.0274921 -0.0274921 0.0107742 0.0107742 0.0107742 0.0107742 -0.0237878 -0.0237878 -0.0237878 -0.0237878 -0.0368068 -0.0368068 -0.0368068 -0.0368068 0.0499458 0.0499458 0.0499458 0.0499458 -0.010511 -0.010511 -0.010511 -0.010511 -0.00525427 -0.00525427 -0.00525427 -0.00525427 -0.0143943 -0.0143943 -0.0143943 -0.0143943 -0.168168 -0.168168 -0.168168 -0.168168 -0.0555557 -0.0555557 -0.0555557 -0.0555557 -0.0134442 -0.0134442 -0.0134442 -0.0134442 -0.0140952 -0.0140952 -0.0140952 -0.0140952 -0.0231504 -0.0231504 -0.0231504 -0.0231504 0.00993459 0.00993459 0.00993459 0.00993459 -0.14628 -0.14628 -0.14628 -0.14628 -0.0194897 -0.0194897 -0.0194897 -0.0194897 -0.0509222 -0.0509222 -0.0509222 -0.0509222 -0.0241229 -0.0241229 -0.0241229 -0.0241229 -0.0560399 -0.0560399 -0.0560399 -0.0560399 -0.211187 -0.211187 -0.211187 -0.211187 -0.0543332 -0.0543332 -0.0543332 -0.0543332 -0.0147153 -0.0147153 -0.0147153 -0.0147153 -0.0122646 -0.0122646 -0.0122646 -0.0122646 -0.0330224 -0.0330224 -0.0330224 -0.0330224 0.0190734 0.0190734 0.0190734 0.0190734 -0.00276291 -0.00276291 -0.00276291 -0.00276291 -0.00890011 -0.00890011 -0.00890011 -0.00890011 -0.0401158 -0.0401158 -0.0401158 -0.0401158 -0.0342691 -0.0342691 -0.0342691 -0.0342691 -0.0262084 -0.0262084 -0.0262084 -0.0262084 -0.0161463 -0.0161463 -0.0161463 -0.0161463 -0.0652902 -0.0652902 -0.0652902 -0.0652902 0.0193351 0.0193351 0.0193351 0.0193351 0.00375559 0.00375559 0.00375559 0.00375559 -0.0402838 -0.0402838 -0.0402838 -0.0402838 -0.0353716 -0.0353716 -0.0353716 -0.0353716 0.0490801 0.0490801 0.0490801 0.0490801 0.00862915 0.00862915 0.00862915 0.00862915 -0.0504376 -0.0504376 -0.0504376 -0.0504376 -0.0135708 -0.0135708 -0.0135708 -0.0135708 -0.00463682 -0.00463682 -0.00463682 -0.00463682 -0.0671771 -0.0671771 -0.0671771 -0.0671771 -0.0624571 -0.0624571 -0.0624571 -0.0624571 -0.000292868 -0.000292868 -0.000292868 -0.000292868 -0.0406589 -0.0406589 -0.0406589 -0.0406589 -0.0162372 -0.0162372 -0.0162372 -0.0162372 0.0191525 0.0191525 0.0191525 0.0191525 -0.0194791 -0.0194791 -0.0194791 -0.0194791 -0.0292896 -0.0292896 -0.0292896 -0.0292896 -0.0145439 -0.0145439 -0.0145439 -0.0145439 0.0104029 0.0104029 0.0104029 0.0104029 0.00632464 0.00632464 0.00632464 0.00632464 -0.0212991 -0.0212991 -0.0212991 -0.0212991 -0.0264074 -0.0264074 -0.0264074 -0.0264074 -0.0362339 -0.0362339 -0.0362339 -0.0362339 -0.0512634 -0.0512634 -0.0512634 -0.0512634 -0.083593 -0.083593 -0.083593 -0.083593 -0.00133841 -0.00133841 -0.00133841 -0.00133841 -0.0811028 -0.0811028 -0.0811028 -0.0811028 -0.034143 -0.034143 -0.034143 -0.034143 0.0159798 0.0159798 0.0159798 0.0159798 -0.0791436 -0.0791436 -0.0791436 -0.0791436 -0.015691 -0.015691 -0.015691 -0.015691 -0.0638571 -0.0638571 -0.0638571 -0.0638571 0.00615404 0.00615404 0.00615404 0.00615404 -0.0526944 -0.0526944 -0.0526944 -0.0526944 0.0238463 0.0238463 0.0238463 0.0238463 -0.0183873 -0.0183873 -0.0183873 -0.0183873 -0.014106 -0.014106 -0.014106 -0.014106 -0.0151943 -0.0151943 -0.0151943 -0.0151943 -0.0146364 -0.0146364 -0.0146364 -0.0146364 0.0168121 0.0168121 0.0168121 0.0168121 -0.0401482 -0.0401482 -0.0401482 -0.0401482 -0.0219919 -0.0219919 -0.0219919 -0.0219919 -0.0165462 -0.0165462 -0.0165462 -0.0165462 -0.0136085 -0.0136085 -0.0136085 -0.0136085 0.0528223 0.0528223 0.0528223 0.0528223 0.00302189 0.00302189 0.00302189 0.00302189 -0.0130318 -0.0130318 -0.0130318 -0.0130318 -0.0185845 -0.0185845 -0.0185845 -0.0185845 0.0217398 0.0217398 0.0217398 0.0217398 0.0105506 0.0105506 0.0105506 0.0105506 -0.0482462 -0.0482462 -0.0482462 -0.0482462 0.0310617 0.0310617 0.0310617 0.0310617 -0.0158292 -0.0158292 -0.0158292 -0.0158292 -0.0347098 -0.0347098 -0.0347098 -0.0347098 -0.0253465 -0.0253465 -0.0253465 -0.0253465 -0.00506582 -0.00506582 -0.00506582 -0.00506582 -0.0631576 -0.0631576 -0.0631576 -0.0631576 -0.0154302 -0.0154302 -0.0154302 -0.0154302 0.0282224 0.0282224 0.0282224 0.0282224 -0.0361146 -0.0361146 -0.0361146 -0.0361146 -0.0728821 -0.0728821 -0.0728821 -0.0728821 -0.0260644 -0.0260644 -0.0260644 -0.0260644 -0.0935721 -0.0935721 -0.0935721 -0.0935721 -0.018533 -0.018533 -0.018533 -0.018533 0.0389601 0.0389601 0.0389601 0.0389601 0.00138807 0.00138807 0.00138807 0.00138807 -0.0140953 -0.0140953 -0.0140953 -0.0140953 0.0125826 0.0125826 0.0125826 0.0125826 -0.0279164 -0.0279164 -0.0279164 -0.0279164 -0.0382585 -0.0382585 -0.0382585 -0.0382585 -0.00538027 -0.00538027 -0.00538027 -0.00538027 -0.000564398 -0.000564398 -0.000564398 -0.000564398 -0.0719749 -0.0719749 -0.0719749 -0.0719749 0.0126654 0.0126654 0.0126654 0.0126654 -0.0667128 -0.0667128 -0.0667128 -0.0667128 -0.0118262 -0.0118262 -0.0118262 -0.0118262 -0.0102871 -0.0102871 -0.0102871 -0.0102871 -0.0014445 -0.0014445 -0.0014445 -0.0014445 0.0186016 0.0186016 0.0186016 0.0186016 -0.0247685 -0.0247685 -0.0247685 -0.0247685 0.0209333 0.0209333 0.0209333 0.0209333 0.0039115 0.0039115 0.0039115 0.0039115 -0.0106294 -0.0106294 -0.0106294 -0.0106294 -0.0386058 -0.0386058 -0.0386058 -0.0386058 -0.0186781 -0.0186781 -0.0186781 -0.0186781 -0.0568497 -0.0568497 -0.0568497 -0.0568497 -0.00682628 -0.00682628 -0.00682628 -0.00682628 -0.0121859 -0.0121859 -0.0121859 -0.0121859 -0.00153051 -0.00153051 -0.00153051 -0.00153051 0.000306319 0.000306319 0.000306319 0.000306319 -0.0238715 -0.0238715 -0.0238715 -0.0238715 0.00955844 0.00955844 0.00955844 0.00955844 -0.0189571 -0.0189571 -0.0189571 -0.0189571 -0.00379419 -0.00379419 -0.00379419 -0.00379419 -0.0490587 -0.0490587 -0.0490587 -0.0490587 -0.0619676 -0.0619676 -0.0619676 -0.0619676 -0.0120668 -0.0120668 -0.0120668 -0.0120668 -0.022873 -0.022873 -0.022873 -0.022873 -0.00181292 -0.00181292 -0.00181292 -0.00181292 0.000196031 0.000196031 0.000196031 0.000196031 0.0135163 0.0135163 0.0135163 0.0135163 -0.0242627 -0.0242627 -0.0242627 -0.0242627 -0.19876 -0.19876 -0.19876 -0.19876 -0.0447096 -0.0447096 -0.0447096 -0.0447096 -0.0248266 -0.0248266 -0.0248266 -0.0248266 -0.150704 -0.150704 -0.150704 -0.150704 -0.0323904 -0.0323904 -0.0323904 -0.0323904 0.0355722 0.0355722 0.0355722 0.0355722 0.0596495 0.0596495 0.0596495 0.0596495 0.0164981 0.0164981 0.0164981 0.0164981 -0.0517347 -0.0517347 -0.0517347 -0.0517347 -0.000825874 -0.000825874 -0.000825874 -0.000825874 0.0032188 0.0032188 0.0032188 0.0032188 -0.0757048 -0.0757048 -0.0757048 -0.0757048 -0.0446649 -0.0446649 -0.0446649 -0.0446649 -0.041686 -0.041686 -0.041686 -0.041686 -0.0257118 -0.0257118 -0.0257118 -0.0257118 0.00455258 0.00455258 0.00455258 0.00455258 -0.0172139 -0.0172139 -0.0172139 -0.0172139 -0.0360785 -0.0360785 -0.0360785 -0.0360785 0.0450741 0.0450741 0.0450741 0.0450741 0.0150065 0.0150065 0.0150065 0.0150065 -0.204513 -0.204513 -0.204513 -0.204513 -0.0137122 -0.0137122 -0.0137122 -0.0137122 0.0261255 0.0261255 0.0261255 0.0261255 -0.0992575 -0.0992575 -0.0992575 -0.0992575 -0.0393625 -0.0393625 -0.0393625 -0.0393625 0.0171997 0.0171997 0.0171997 0.0171997 0.00463212 0.00463212 0.00463212 0.00463212 -0.140914 -0.140914 -0.140914 -0.140914 -0.0329108 -0.0329108 -0.0329108 -0.0329108 -0.0256728 -0.0256728 -0.0256728 -0.0256728 -0.0405423 -0.0405423 -0.0405423 -0.0405423 -0.0253464 -0.0253464 -0.0253464 -0.0253464 0.0203047 0.0203047 0.0203047 0.0203047 0.0359189 0.0359189 0.0359189 0.0359189 0.0275572 0.0275572 0.0275572 0.0275572 -0.0159964 -0.0159964 -0.0159964 -0.0159964 -0.0832199 -0.0832199 -0.0832199 -0.0832199 0.00171012 0.00171012 0.00171012 0.00171012 0.00676024 0.00676024 0.00676024 0.00676024 -0.00492499 -0.00492499 -0.00492499 -0.00492499 -0.0176991 -0.0176991 -0.0176991 -0.0176991 -0.00908912 -0.00908912 -0.00908912 -0.00908912 -0.016788 -0.016788 -0.016788 -0.016788 -0.201331 -0.201331 -0.201331 -0.201331 -0.0722519 -0.0722519 -0.0722519 -0.0722519 -0.0350557 -0.0350557 -0.0350557 -0.0350557 0.0397026 0.0397026 0.0397026 0.0397026 -0.0607832 -0.0607832 -0.0607832 -0.0607832 -0.127415 -0.127415 -0.127415 -0.127415 -0.011611 -0.011611 -0.011611 -0.011611 -0.00814253 -0.00814253 -0.00814253 -0.00814253 -0.00223411 -0.00223411 -0.00223411 -0.00223411 -0.0330031 -0.0330031 -0.0330031 -0.0330031 -0.0155767 -0.0155767 -0.0155767 -0.0155767 -0.00488331 -0.00488331 -0.00488331 -0.00488331 -0.0814793 -0.0814793 -0.0814793 -0.0814793 -0.0647795 -0.0647795 -0.0647795 -0.0647795 -0.149889 -0.149889 -0.149889 -0.149889 -0.162737 -0.162737 -0.162737 -0.162737 -0.0665923 -0.0665923 -0.0665923 -0.0665923 -0.1949 -0.1949 -0.1949 -0.1949 -0.112485 -0.112485 -0.112485 -0.112485 -0.0110461 -0.0110461 -0.0110461 -0.0110461 -0.0150574 -0.0150574 -0.0150574 -0.0150574 -0.0378719 -0.0378719 -0.0378719 -0.0378719 -0.0679458 -0.0679458 -0.0679458 -0.0679458 -0.0102492 -0.0102492 -0.0102492 -0.0102492 0.0430845 0.0430845 0.0430845 0.0430845 0.0309017 0.0309017 0.0309017 0.0309017 -0.0395157 -0.0395157 -0.0395157 -0.0395157 -0.0247937 -0.0247937 -0.0247937 -0.0247937 0.0864782 0.0864782 0.0864782 0.0864782 -0.00253025 -0.00253025 -0.00253025 -0.00253025 -0.100198 -0.100198 -0.100198 -0.100198 -0.00242261 -0.00242261 -0.00242261 -0.00242261 -0.0975185 -0.0975185 -0.0975185 -0.0975185 -0.0800148 -0.0800148 -0.0800148 -0.0800148 -0.00689774 -0.00689774 -0.00689774 -0.00689774 -0.0472118 -0.0472118 -0.0472118 -0.0472118 -0.0116521 -0.0116521 -0.0116521 -0.0116521 -0.0329543 -0.0329543 -0.0329543 -0.0329543 0.0219716 0.0219716 0.0219716 0.0219716 0.0315595 0.0315595 0.0315595 0.0315595 0.038763 0.038763 0.038763 0.038763 -0.0122517 -0.0122517 -0.0122517 -0.0122517 0.012269 0.012269 0.012269 0.012269 0.0801046 0.0801046 0.0801046 0.0801046 -0.0769467 -0.0769467 -0.0769467 -0.0769467 0.0461696 0.0461696 0.0461696 0.0461696 -0.0146044 -0.0146044 -0.0146044 -0.0146044 -0.0080296 -0.0080296 -0.0080296 -0.0080296 -0.0086462 -0.0086462 -0.0086462 -0.0086462 0.00131778 0.00131778 0.00131778 0.00131778 -0.0788662 -0.0788662 -0.0788662 -0.0788662 0.00572948 0.00572948 0.00572948 0.00572948 -0.0300589 -0.0300589 -0.0300589 -0.0300589 -0.0803938 -0.0803938 -0.0803938 -0.0803938 -0.0355771 -0.0355771 -0.0355771 -0.0355771 -0.0344404 -0.0344404 -0.0344404 -0.0344404 -0.054107 -0.054107 -0.054107 -0.054107 -0.126052 -0.126052 -0.126052 -0.126052 -0.0576944 -0.0576944 -0.0576944 -0.0576944 0.0179246 0.0179246 0.0179246 0.0179246 -0.0198753 -0.0198753 -0.0198753 -0.0198753 -0.0329618 -0.0329618 -0.0329618 -0.0329618 0.0272138 0.0272138 0.0272138 0.0272138 -0.0583176 -0.0583176 -0.0583176 -0.0583176 -0.018745 -0.018745 -0.018745 -0.018745 -0.0737103 -0.0737103 -0.0737103 -0.0737103 -0.0409339 -0.0409339 -0.0409339 -0.0409339 0.0501669 0.0501669 0.0501669 0.0501669 -0.0398581 -0.0398581 -0.0398581 -0.0398581 -0.00317782 -0.00317782 -0.00317782 -0.00317782 0.0131306 0.0131306 0.0131306 0.0131306 -0.0547896 -0.0547896 -0.0547896 -0.0547896 -0.0175255 -0.0175255 -0.0175255 -0.0175255 -0.0515215 -0.0515215 -0.0515215 -0.0515215 -0.0192615 -0.0192615 -0.0192615 -0.0192615 0.0213222 0.0213222 0.0213222 0.0213222 -0.0442363 -0.0442363 -0.0442363 -0.0442363 -0.0607737 -0.0607737 -0.0607737 -0.0607737 0.000997196 0.000997196 0.000997196 0.000997196 0.0652626 0.0652626 0.0652626 0.0652626 0.0397603 0.0397603 0.0397603 0.0397603 -0.0802421 -0.0802421 -0.0802421 -0.0802421 -0.0372972 -0.0372972 -0.0372972 -0.0372972 0.00118291 0.00118291 0.00118291 0.00118291 -0.0804085 -0.0804085 -0.0804085 -0.0804085 -0.137169 -0.137169 -0.137169 -0.137169 -0.0924303 -0.0924303 -0.0924303 -0.0924303 0.0588821 0.0588821 0.0588821 0.0588821 0.0296036 0.0296036 0.0296036 0.0296036 0.00711292 0.00711292 0.00711292 0.00711292 0.0179872 0.0179872 0.0179872 0.0179872 0.0971931 0.0971931 0.0971931 0.0971931 -0.0445113 -0.0445113 -0.0445113 -0.0445113 0.0338671 0.0338671 0.0338671 0.0338671 0.00395412 0.00395412 0.00395412 0.00395412 0.0239501 0.0239501 0.0239501 0.0239501 -0.0669615 -0.0669615 -0.0669615 -0.0669615 0.0537424 0.0537424 0.0537424 0.0537424 0.0169492 0.0169492 0.0169492 0.0169492 0.000774954 0.000774954 0.000774954 0.000774954 0.0547246 0.0547246 0.0547246 0.0547246 -0.0179344 -0.0179344 -0.0179344 -0.0179344 -0.0503581 -0.0503581 -0.0503581 -0.0503581 -0.0161527 -0.0161527 -0.0161527 -0.0161527 -0.03385 -0.03385 -0.03385 -0.03385 0.0135002 0.0135002 0.0135002 0.0135002 -0.016646 -0.016646 -0.016646 -0.016646 -0.00749969 -0.00749969 -0.00749969 -0.00749969 -0.20674 -0.20674 -0.20674 -0.20674 -0.00966308 -0.00966308 -0.00966308 -0.00966308 -0.0989062 -0.0989062 -0.0989062 -0.0989062 -0.111957 -0.111957 -0.111957 -0.111957 -0.0612796 -0.0612796 -0.0612796 -0.0612796 0.00370534 0.00370534 0.00370534 0.00370534 -0.0192521 -0.0192521 -0.0192521 -0.0192521 -0.131178 -0.131178 -0.131178 -0.131178 0.0228368 0.0228368 0.0228368 0.0228368 -0.021917 -0.021917 -0.021917 -0.021917 -0.122882 -0.122882 -0.122882 -0.122882 -0.0163705 -0.0163705 -0.0163705 -0.0163705 0.0198171 0.0198171 0.0198171 0.0198171 -0.0390168 -0.0390168 -0.0390168 -0.0390168 -0.150841 -0.150841 -0.150841 -0.150841 -0.00188342 -0.00188342 -0.00188342 -0.00188342 -0.0139727 -0.0139727 -0.0139727 -0.0139727 -0.0346563 -0.0346563 -0.0346563 -0.0346563 0.00824782 0.00824782 0.00824782 0.00824782 0.0301095 0.0301095 0.0301095 0.0301095 -0.0553597 -0.0553597 -0.0553597 -0.0553597 0.101374 0.101374 0.101374 0.101374 0.0105398 0.0105398 0.0105398 0.0105398 0.0203049 0.0203049 0.0203049 0.0203049 -0.0611155 -0.0611155 -0.0611155 -0.0611155 -0.0180279 -0.0180279 -0.0180279 -0.0180279 0.0561335 0.0561335 0.0561335 0.0561335 -0.0262053 -0.0262053 -0.0262053 -0.0262053 -0.109894 -0.109894 -0.109894 -0.109894 0.0416281 0.0416281 0.0416281 0.0416281 -0.0369615 -0.0369615 -0.0369615 -0.0369615 -0.0136129 -0.0136129 -0.0136129 -0.0136129 -0.151501 -0.151501 -0.151501 -0.151501 -0.129912 -0.129912 -0.129912 -0.129912 0.0173833 0.0173833 0.0173833 0.0173833 0.0237753 0.0237753 0.0237753 0.0237753 -0.0266574 -0.0266574 -0.0266574 -0.0266574 -0.0261987 -0.0261987 -0.0261987 -0.0261987 0.0371035 0.0371035 0.0371035 0.0371035 0.00423203 0.00423203 0.00423203 0.00423203 0.0615661 0.0615661 0.0615661 0.0615661 0.237942 0.237942 0.237942 0.237942 0.0281065 0.0281065 0.0281065 0.0281065 0.0211142 0.0211142 0.0211142 0.0211142 -0.0490253 -0.0490253 -0.0490253 -0.0490253 -0.0659286 -0.0659286 -0.0659286 -0.0659286 0.131897 0.131897 0.131897 0.131897 0.0394066 0.0394066 0.0394066 0.0394066 0.021342 0.021342 0.021342 0.021342 -0.00392438 -0.00392438 -0.00392438 -0.00392438 -0.0023436 -0.0023436 -0.0023436 -0.0023436 0.040114 0.040114 0.040114 0.040114 -0.0154174 -0.0154174 -0.0154174 -0.0154174 -0.013903 -0.013903 -0.013903 -0.013903 -0.0593792 -0.0593792 -0.0593792 -0.0593792 -0.0466558 -0.0466558 -0.0466558 -0.0466558 0.125541 0.125541 0.125541 0.125541 0.0368443 0.0368443 0.0368443 0.0368443 -0.0152047 -0.0152047 -0.0152047 -0.0152047 0.00437549 0.00437549 0.00437549 0.00437549 0.060956 0.060956 0.060956 0.060956 0.0403866 0.0403866 0.0403866 0.0403866 -0.0705626 -0.0705626 -0.0705626 -0.0705626 -0.0165228 -0.0165228 -0.0165228 -0.0165228 -0.0732282 -0.0732282 -0.0732282 -0.0732282 -0.0428438 -0.0428438 -0.0428438 -0.0428438 -0.0590469 -0.0590469 -0.0590469 -0.0590469 -0.0850299 -0.0850299 -0.0850299 -0.0850299 -0.0950903 -0.0950903 -0.0950903 -0.0950903 -0.0665081 -0.0665081 -0.0665081 -0.0665081 -0.0322645 -0.0322645 -0.0322645 -0.0322645 -0.109476 -0.109476 -0.109476 -0.109476 -0.074995 -0.074995 -0.074995 -0.074995 0.050154 0.050154 0.050154 0.050154 -0.155734 -0.155734 -0.155734 -0.155734 -0.0190921 -0.0190921 -0.0190921 -0.0190921 -0.0200445 -0.0200445 -0.0200445 -0.0200445 0.0130397 0.0130397 0.0130397 0.0130397 -0.0168977 -0.0168977 -0.0168977 -0.0168977 -0.192131 -0.192131 -0.192131 -0.192131 -0.173708 -0.173708 -0.173708 -0.173708 0.047531 0.047531 0.047531 0.047531 -0.070289 -0.070289 -0.070289 -0.070289 -0.0238558 -0.0238558 -0.0238558 -0.0238558 0.047334 0.047334 0.047334 0.047334 0.0191516 0.0191516 0.0191516 0.0191516 -0.0535801 -0.0535801 -0.0535801 -0.0535801 0.166934 0.166934 0.166934 0.166934 0.050399 0.050399 0.050399 0.050399 -0.0038104 -0.0038104 -0.0038104 -0.0038104 0.0914739 0.0914739 0.0914739 0.0914739 0.0368447 0.0368447 0.0368447 0.0368447 -0.0331904 -0.0331904 -0.0331904 -0.0331904 0.0873985 0.0873985 0.0873985 0.0873985 -0.116555 -0.116555 -0.116555 -0.116555 0.0267651 0.0267651 0.0267651 0.0267651 -0.049889 -0.049889 -0.049889 -0.049889 -0.100329 -0.100329 -0.100329 -0.100329 -0.0978235 -0.0978235 -0.0978235 -0.0978235 -0.00709249 -0.00709249 -0.00709249 -0.00709249 -0.00102354 -0.00102354 -0.00102354 -0.00102354 -0.0130532 -0.0130532 -0.0130532 -0.0130532 -0.0154407 -0.0154407 -0.0154407 -0.0154407 -0.161849 -0.161849 -0.161849 -0.161849 0.0210664 0.0210664 0.0210664 0.0210664 -0.0193909 -0.0193909 -0.0193909 -0.0193909 0.0461594 0.0461594 0.0461594 0.0461594 -0.0550551 -0.0550551 -0.0550551 -0.0550551 -0.10395 -0.10395 -0.10395 -0.10395 -0.00832429 -0.00832429 -0.00832429 -0.00832429 -0.0182845 -0.0182845 -0.0182845 -0.0182845 -0.0251007 -0.0251007 -0.0251007 -0.0251007 0.221154 0.221154 0.221154 0.221154 0.0438178 0.0438178 0.0438178 0.0438178 0.0254783 0.0254783 0.0254783 0.0254783 0.0483412 0.0483412 0.0483412 0.0483412 0.0520809 0.0520809 0.0520809 0.0520809 -0.0439279 -0.0439279 -0.0439279 -0.0439279 -0.152763 -0.152763 -0.152763 -0.152763 0.053281 0.053281 0.053281 0.053281 -0.264995 -0.264995 -0.264995 -0.264995 0.0268889 0.0268889 0.0268889 0.0268889 -0.0364557 -0.0364557 -0.0364557 -0.0364557 -0.0988283 -0.0988283 -0.0988283 -0.0988283 -0.0301402 -0.0301402 -0.0301402 -0.0301402 -0.0959345 -0.0959345 -0.0959345 -0.0959345 -0.00374036 -0.00374036 -0.00374036 -0.00374036 0.0845221 0.0845221 0.0845221 0.0845221 0.048267 0.048267 0.048267 0.048267 -0.0705183 -0.0705183 -0.0705183 -0.0705183 0.0322518 0.0322518 0.0322518 0.0322518 0.0179007 0.0179007 0.0179007 0.0179007 -0.0338495 -0.0338495 -0.0338495 -0.0338495 0.0256089 0.0256089 0.0256089 0.0256089 -0.0294103 -0.0294103 -0.0294103 -0.0294103 -0.193932 -0.193932 -0.193932 -0.193932 0.0909911 0.0909911 0.0909911 0.0909911 -0.0141531 -0.0141531 -0.0141531 -0.0141531 0.0341957 0.0341957 0.0341957 0.0341957 0.0124332 0.0124332 0.0124332 0.0124332 0.0254805 0.0254805 0.0254805 0.0254805 0.0463701 0.0463701 0.0463701 0.0463701 0.0764372 0.0764372 0.0764372 0.0764372 -0.0413741 -0.0413741 -0.0413741 -0.0413741 0.0449872 0.0449872 0.0449872 0.0449872 0.0101584 0.0101584 0.0101584 0.0101584 0.0114139 0.0114139 0.0114139 0.0114139 -0.0450339 -0.0450339 -0.0450339 -0.0450339 -0.0755681 -0.0755681 -0.0755681 -0.0755681 0.0391664 0.0391664 0.0391664 0.0391664 0.0827428 0.0827428 0.0827428 0.0827428 0.0525557 0.0525557 0.0525557 0.0525557 -0.164502 -0.164502 -0.164502 -0.164502 0.0177681 0.0177681 0.0177681 0.0177681 0.00460808 0.00460808 0.00460808 0.00460808 0.0294501 0.0294501 0.0294501 0.0294501 -0.138181 -0.138181 -0.138181 -0.138181 0.0193432 0.0193432 0.0193432 0.0193432 0.00851741 0.00851741 0.00851741 0.00851741 -0.0507438 -0.0507438 -0.0507438 -0.0507438 0.134265 0.134265 0.134265 0.134265 0.0324697 0.0324697 0.0324697 0.0324697 0.0542383 0.0542383 0.0542383 0.0542383 0.131408 0.131408 0.131408 0.131408 0.00114446 0.00114446 0.00114446 0.00114446 0.0954645 0.0954645 0.0954645 0.0954645 0.031456 0.031456 0.031456 0.031456 -0.106632 -0.106632 -0.106632 -0.106632 0.0169214 0.0169214 0.0169214 0.0169214 -0.0110871 -0.0110871 -0.0110871 -0.0110871 -0.0148516 -0.0148516 -0.0148516 -0.0148516 0.0313362 0.0313362 0.0313362 0.0313362 0.0442249 0.0442249 0.0442249 0.0442249 0.0328219 0.0328219 0.0328219 0.0328219 -0.0496544 -0.0496544 -0.0496544 -0.0496544 -0.043451 -0.043451 -0.043451 -0.043451 0.0653117 0.0653117 0.0653117 0.0653117 -0.0599929 -0.0599929 -0.0599929 -0.0599929 -0.0192861 -0.0192861 -0.0192861 -0.0192861 0.0258619 0.0258619 0.0258619 0.0258619 -0.00308842 -0.00308842 -0.00308842 -0.00308842 -0.0147944 -0.0147944 -0.0147944 -0.0147944 -0.0768641 -0.0768641 -0.0768641 -0.0768641 -0.078702 -0.078702 -0.078702 -0.078702 -0.170861 -0.170861 -0.170861 -0.170861 -0.0172028 -0.0172028 -0.0172028 -0.0172028 -0.155175 -0.155175 -0.155175 -0.155175 -0.0490124 -0.0490124 -0.0490124 -0.0490124 0.0499905 0.0499905 0.0499905 0.0499905 -0.0362862 -0.0362862 -0.0362862 -0.0362862 0.0189075 0.0189075 0.0189075 0.0189075 -0.0107987 -0.0107987 -0.0107987 -0.0107987 0.0185385 0.0185385 0.0185385 0.0185385 0.0732007 0.0732007 0.0732007 0.0732007 -0.0688848 -0.0688848 -0.0688848 -0.0688848 -0.00153429 -0.00153429 -0.00153429 -0.00153429 0.0656251 0.0656251 0.0656251 0.0656251 0.00963149 0.00963149 0.00963149 0.00963149 -0.00536728 -0.00536728 -0.00536728 -0.00536728 -0.030092 -0.030092 -0.030092 -0.030092 -0.055619 -0.055619 -0.055619 -0.055619 0.0344638 0.0344638 0.0344638 0.0344638 -0.0603984 -0.0603984 -0.0603984 -0.0603984 0.11104 0.11104 0.11104 0.11104 -0.178385 -0.178385 -0.178385 -0.178385 0.106026 0.106026 0.106026 0.106026 0.0125825 0.0125825 0.0125825 0.0125825 -0.0731333 -0.0731333 -0.0731333 -0.0731333 0.0355793 0.0355793 0.0355793 0.0355793 0.0215 0.0215 0.0215 0.0215 -0.0513862 -0.0513862 -0.0513862 -0.0513862 0.0033331 0.0033331 0.0033331 0.0033331 -0.0181727 -0.0181727 -0.0181727 -0.0181727 -0.118448 -0.118448 -0.118448 -0.118448 0.0220347 0.0220347 0.0220347 0.0220347 -0.0575482 -0.0575482 -0.0575482 -0.0575482 0.0159267 0.0159267 0.0159267 0.0159267 -0.0253491 -0.0253491 -0.0253491 -0.0253491 0.0408051 0.0408051 0.0408051 0.0408051 -0.000285886 -0.000285886 -0.000285886 -0.000285886 -0.0337955 -0.0337955 -0.0337955 -0.0337955 0.0160555 0.0160555 0.0160555 0.0160555 0.0780915 0.0780915 0.0780915 0.0780915 -0.0174532 -0.0174532 -0.0174532 -0.0174532 -0.0159087 -0.0159087 -0.0159087 -0.0159087 -0.0725993 -0.0725993 -0.0725993 -0.0725993 -0.0760137 -0.0760137 -0.0760137 -0.0760137 -0.0220454 -0.0220454 -0.0220454 -0.0220454 0.00775275 0.00775275 0.00775275 0.00775275 0.0927433 0.0927433 0.0927433 0.0927433 -0.0895446 -0.0895446 -0.0895446 -0.0895446 0.0524784 0.0524784 0.0524784 0.0524784 -0.05603 -0.05603 -0.05603 -0.05603 -0.0272826 -0.0272826 -0.0272826 -0.0272826 -0.0282316 -0.0282316 -0.0282316 -0.0282316 0.0132238 0.0132238 0.0132238 0.0132238 -0.0662902 -0.0662902 -0.0662902 -0.0662902 0.0169535 0.0169535 0.0169535 0.0169535 0.0591 0.0591 0.0591 0.0591 -0.0841244 -0.0841244 -0.0841244 -0.0841244 0.0248672 0.0248672 0.0248672 0.0248672 -0.0129891 -0.0129891 -0.0129891 -0.0129891 0.0918362 0.0918362 0.0918362 0.0918362 -0.0901087 -0.0901087 -0.0901087 -0.0901087 -0.0187582 -0.0187582 -0.0187582 -0.0187582 -0.110441 -0.110441 -0.110441 -0.110441 0.0396316 0.0396316 0.0396316 0.0396316 -0.0807117 -0.0807117 -0.0807117 -0.0807117 -0.078297 -0.078297 -0.078297 -0.078297 0.00122741 0.00122741 0.00122741 0.00122741 -0.140743 -0.140743 -0.140743 -0.140743 -0.0167165 -0.0167165 -0.0167165 -0.0167165 0.146599 0.146599 0.146599 0.146599 0.164791 0.164791 0.164791 0.164791 0.0349962 0.0349962 0.0349962 0.0349962 -0.0155124 -0.0155124 -0.0155124 -0.0155124 -0.00702901 -0.00702901 -0.00702901 -0.00702901 0.0929403 0.0929403 0.0929403 0.0929403 0.0575509 0.0575509 0.0575509 0.0575509 0.0392847 0.0392847 0.0392847 0.0392847 -0.044935 -0.044935 -0.044935 -0.044935 0.216306 0.216306 0.216306 0.216306 -0.00129141 -0.00129141 -0.00129141 -0.00129141 0.0591009 0.0591009 0.0591009 0.0591009 -0.0126633 -0.0126633 -0.0126633 -0.0126633 0.0366057 0.0366057 0.0366057 0.0366057 0.0715629 0.0715629 0.0715629 0.0715629 -0.0302876 -0.0302876 -0.0302876 -0.0302876 0.142658 0.142658 0.142658 0.142658 0.0434023 0.0434023 0.0434023 0.0434023 0.0352909 0.0352909 0.0352909 0.0352909 0.0605135 0.0605135 0.0605135 0.0605135 0.0035855 0.0035855 0.0035855 0.0035855 0.192641 0.192641 0.192641 0.192641 -0.0133947 -0.0133947 -0.0133947 -0.0133947 0.0459341 0.0459341 0.0459341 0.0459341 -0.0338514 -0.0338514 -0.0338514 -0.0338514 -0.0235509 -0.0235509 -0.0235509 -0.0235509 -0.0152949 -0.0152949 -0.0152949 -0.0152949 0.0106636 0.0106636 0.0106636 0.0106636 -0.14347 -0.14347 -0.14347 -0.14347 -0.0315964 -0.0315964 -0.0315964 -0.0315964 -0.00512743 -0.00512743 -0.00512743 -0.00512743 -0.0378987 -0.0378987 -0.0378987 -0.0378987 0.0368613 0.0368613 0.0368613 0.0368613 -0.0239589 -0.0239589 -0.0239589 -0.0239589 -0.0805101 -0.0805101 -0.0805101 -0.0805101 -0.0500099 -0.0500099 -0.0500099 -0.0500099 0.0566598 0.0566598 0.0566598 0.0566598 0.019504 0.019504 0.019504 0.019504 -0.00151046 -0.00151046 -0.00151046 -0.00151046 0.0533838 0.0533838 0.0533838 0.0533838 -0.0547919 -0.0547919 -0.0547919 -0.0547919 -0.0204783 -0.0204783 -0.0204783 -0.0204783 0.12514 0.12514 0.12514 0.12514 0.167032 0.167032 0.167032 0.167032 -0.0420515 -0.0420515 -0.0420515 -0.0420515 0.0384557 0.0384557 0.0384557 0.0384557 0.0287271 0.0287271 0.0287271 0.0287271 0.00146424 0.00146424 0.00146424 0.00146424 0.143816 0.143816 0.143816 0.143816 0.197922 0.197922 0.197922 0.197922 0.000552574 0.000552574 0.000552574 0.000552574 -0.0272079 -0.0272079 -0.0272079 -0.0272079 -0.0829667 -0.0829667 -0.0829667 -0.0829667 0.182534 0.182534 0.182534 0.182534 0.0440327 0.0440327 0.0440327 0.0440327 -0.217371 -0.217371 -0.217371 -0.217371 0.221096 0.221096 0.221096 0.221096 0.0383441 0.0383441 0.0383441 0.0383441 -0.197346 -0.197346 -0.197346 -0.197346 0.149235 0.149235 0.149235 0.149235 0.0557491 0.0557491 0.0557491 0.0557491 0.0120886 0.0120886 0.0120886 0.0120886 0.0396218 0.0396218 0.0396218 0.0396218 0.0206973 0.0206973 0.0206973 0.0206973 0.0741058 0.0741058 0.0741058 0.0741058 -0.0533334 -0.0533334 -0.0533334 -0.0533334 -0.00542087 -0.00542087 -0.00542087 -0.00542087 -0.200309 -0.200309 -0.200309 -0.200309 0.204271 0.204271 0.204271 0.204271 -0.0664431 -0.0664431 -0.0664431 -0.0664431 -0.164258 -0.164258 -0.164258 -0.164258 0.0951276 0.0951276 0.0951276 0.0951276 -0.062501 -0.062501 -0.062501 -0.062501 -0.0341959 -0.0341959 -0.0341959 -0.0341959 0.0111553 0.0111553 0.0111553 0.0111553 -0.121298 -0.121298 -0.121298 -0.121298 -0.0179259 -0.0179259 -0.0179259 -0.0179259 0.0334298 0.0334298 0.0334298 0.0334298 -0.0207375 -0.0207375 -0.0207375 -0.0207375 0.0925753 0.0925753 0.0925753 0.0925753 -0.0573349 -0.0573349 -0.0573349 -0.0573349 0.0760376 0.0760376 0.0760376 0.0760376 0.0531696 0.0531696 0.0531696 0.0531696 0.0715258 0.0715258 0.0715258 0.0715258 -0.155108 -0.155108 -0.155108 -0.155108 0.0539395 0.0539395 0.0539395 0.0539395 0.0657973 0.0657973 0.0657973 0.0657973 -0.0485421 -0.0485421 -0.0485421 -0.0485421 0.00519459 0.00519459 0.00519459 0.00519459 0.0152761 0.0152761 0.0152761 0.0152761 0.0382721 0.0382721 0.0382721 0.0382721 0.139428 0.139428 0.139428 0.139428 -0.0158147 -0.0158147 -0.0158147 -0.0158147 0.0218422 0.0218422 0.0218422 0.0218422 0.000371982 0.000371982 0.000371982 0.000371982 -0.0598714 -0.0598714 -0.0598714 -0.0598714 -0.0137454 -0.0137454 -0.0137454 -0.0137454 0.0168727 0.0168727 0.0168727 0.0168727 -0.057511 -0.057511 -0.057511 -0.057511 -7.88817e-05 -7.88817e-05 -7.88817e-05 -7.88817e-05 0.194023 0.194023 0.194023 0.194023 0.064543 0.064543 0.064543 0.064543 0.040086 0.040086 0.040086 0.040086 0.183723 0.183723 0.183723 0.183723 0.107473 0.107473 0.107473 0.107473 -0.0344754 -0.0344754 -0.0344754 -0.0344754 0.0587133 0.0587133 0.0587133 0.0587133 0.0994156 0.0994156 0.0994156 0.0994156 -0.0110003 -0.0110003 -0.0110003 -0.0110003 -0.0017634 -0.0017634 -0.0017634 -0.0017634 0.0960516 0.0960516 0.0960516 0.0960516 0.164708 0.164708 0.164708 0.164708 0.0404073 0.0404073 0.0404073 0.0404073 0.0009702 0.0009702 0.0009702 0.0009702 -0.0591035 -0.0591035 -0.0591035 -0.0591035 0.00280421 0.00280421 0.00280421 0.00280421 0.176628 0.176628 0.176628 0.176628 -0.0215299 -0.0215299 -0.0215299 -0.0215299 0.0831822 0.0831822 0.0831822 0.0831822 -0.00395579 -0.00395579 -0.00395579 -0.00395579 -0.00471143 -0.00471143 -0.00471143 -0.00471143 -0.0043202 -0.0043202 -0.0043202 -0.0043202 0.0408728 0.0408728 0.0408728 0.0408728 -0.0904002 -0.0904002 -0.0904002 -0.0904002 0.0343943 0.0343943 0.0343943 0.0343943 0.239814 0.239814 0.239814 0.239814 0.0736049 0.0736049 0.0736049 0.0736049 0.180937 0.180937 0.180937 0.180937 -0.0222283 -0.0222283 -0.0222283 -0.0222283 -0.0260965 -0.0260965 -0.0260965 -0.0260965 0.0876035 0.0876035 0.0876035 0.0876035 0.366426 0.366426 0.366426 0.366426 0.09955 0.09955 0.09955 0.09955 0.0244241 0.0244241 0.0244241 0.0244241 -0.12119 -0.12119 -0.12119 -0.12119 -0.0206592 -0.0206592 -0.0206592 -0.0206592 0.00353236 0.00353236 0.00353236 0.00353236 0.279457 0.279457 0.279457 0.279457 -0.0165512 -0.0165512 -0.0165512 -0.0165512 0.0543944 0.0543944 0.0543944 0.0543944 0.00164866 0.00164866 0.00164866 0.00164866 0.0506547 0.0506547 0.0506547 0.0506547 0.00825164 0.00825164 0.00825164 0.00825164 0.186253 0.186253 0.186253 0.186253 0.298156 0.298156 0.298156 0.298156 -0.0186912 -0.0186912 -0.0186912 -0.0186912 -0.0029652 -0.0029652 -0.0029652 -0.0029652 0.0661679 0.0661679 0.0661679 0.0661679 0.0747633 0.0747633 0.0747633 0.0747633 -0.0140225 -0.0140225 -0.0140225 -0.0140225 -0.029141 -0.029141 -0.029141 -0.029141 0.0446533 0.0446533 0.0446533 0.0446533 -0.0232508 -0.0232508 -0.0232508 -0.0232508 -0.0172766 -0.0172766 -0.0172766 -0.0172766 0.0101173 0.0101173 0.0101173 0.0101173 -0.0241905 -0.0241905 -0.0241905 -0.0241905 0.0953637 0.0953637 0.0953637 0.0953637 -0.00085582 -0.00085582 -0.00085582 -0.00085582 -0.00358017 -0.00358017 -0.00358017 -0.00358017 0.245912 0.245912 0.245912 0.245912 -0.00796944 -0.00796944 -0.00796944 -0.00796944 -0.0125024 -0.0125024 -0.0125024 -0.0125024 0.0154789 0.0154789 0.0154789 0.0154789 0.191758 0.191758 0.191758 0.191758 -0.0127548 -0.0127548 -0.0127548 -0.0127548 0.325001 0.325001 0.325001 0.325001 0.346424 0.346424 0.346424 0.346424 -0.000917049 -0.000917049 -0.000917049 -0.000917049 0.0518509 0.0518509 0.0518509 0.0518509 0.288734 0.288734 0.288734 0.288734 0.0174368 0.0174368 0.0174368 0.0174368 0.000439336 0.000439336 0.000439336 0.000439336 0.0427757 0.0427757 0.0427757 0.0427757 -0.0159048 -0.0159048 -0.0159048 -0.0159048 -0.0211916 -0.0211916 -0.0211916 -0.0211916 -0.0135297 -0.0135297 -0.0135297 -0.0135297 -0.0215069 -0.0215069 -0.0215069 -0.0215069 -0.0011441 -0.0011441 -0.0011441 -0.0011441 -0.0192372 -0.0192372 -0.0192372 -0.0192372 0.210502 0.210502 0.210502 0.210502 -0.00753705 -0.00753705 -0.00753705 -0.00753705 -0.0215811 -0.0215811 -0.0215811 -0.0215811 -0.0144138 -0.0144138 -0.0144138 -0.0144138 -0.0116507 -0.0116507 -0.0116507 -0.0116507 -0.0236785 -0.0236785 -0.0236785 -0.0236785 0.0195066 0.0195066 0.0195066 0.0195066 0.466103 0.466103 0.466103 0.466103 0.104309 0.104309 0.104309 0.104309 0.262126 0.262126 0.262126 0.262126 -0.0169635 -0.0169635 -0.0169635 -0.0169635 0.0061979 0.0061979 0.0061979 0.0061979 0.014329 0.014329 0.014329 0.014329 0.0165998 0.0165998 0.0165998 0.0165998 0.0983668 0.0983668 0.0983668 0.0983668 0.129329 0.129329 0.129329 0.129329 -0.0457381 -0.0457381 -0.0457381 -0.0457381 0.0266336 0.0266336 0.0266336 0.0266336 0.316502 0.316502 0.316502 0.316502 0.0163037 0.0163037 0.0163037 0.0163037 0.0262326 0.0262326 0.0262326 0.0262326 -0.000748923 -0.000748923 -0.000748923 -0.000748923 0.0233897 0.0233897 0.0233897 0.0233897 0.0196417 0.0196417 0.0196417 0.0196417 -0.0185965 -0.0185965 -0.0185965 -0.0185965 0.119715 0.119715 0.119715 0.119715 -0.014385 -0.014385 -0.014385 -0.014385 0.0223546 0.0223546 0.0223546 0.0223546 0.0652046 0.0652046 0.0652046 0.0652046 -0.0174288 -0.0174288 -0.0174288 -0.0174288 -0.0136817 -0.0136817 -0.0136817 -0.0136817 -0.0544735 -0.0544735 -0.0544735 -0.0544735 0.00129154 0.00129154 0.00129154 0.00129154 0.116608 0.116608 0.116608 0.116608 -0.00262313 -0.00262313 -0.00262313 -0.00262313 0.00852437 0.00852437 0.00852437 0.00852437 -0.0142699 -0.0142699 -0.0142699 -0.0142699 -0.0205173 -0.0205173 -0.0205173 -0.0205173 -0.00678554 -0.00678554 -0.00678554 -0.00678554 0.0103144 0.0103144 0.0103144 0.0103144 0.000835412 0.000835412 0.000835412 0.000835412 -0.0225593 -0.0225593 -0.0225593 -0.0225593 0.00999715 0.00999715 0.00999715 0.00999715 -0.0136855 -0.0136855 -0.0136855 -0.0136855 -0.0282805 -0.0282805 -0.0282805 -0.0282805 0.00613369 0.00613369 0.00613369 0.00613369 -0.00281403 -0.00281403 -0.00281403 -0.00281403 0.0010069 0.0010069 0.0010069 0.0010069 0.50168 0.50168 0.50168 0.50168 -0.0167704 -0.0167704 -0.0167704 -0.0167704 0.00018451 0.00018451 0.00018451 0.00018451 -0.0149326 -0.0149326 -0.0149326 -0.0149326 -0.00854208 -0.00854208 -0.00854208 -0.00854208 -0.0182618 -0.0182618 -0.0182618 -0.0182618 0.0140428 0.0140428 0.0140428 0.0140428 0.00829249 0.00829249 0.00829249 0.00829249 0.0106302 0.0106302 0.0106302 0.0106302 -0.00223102 -0.00223102 -0.00223102 -0.00223102 0.0200535 0.0200535 0.0200535 0.0200535 0.0115821 0.0115821 0.0115821 0.0115821 0.0109918 0.0109918 0.0109918 0.0109918 0.00900491 0.00900491 0.00900491 0.00900491 -0.000372762 -0.000372762 -0.000372762 -0.000372762 0.0134594 0.0134594 0.0134594 0.0134594 0.00035862 0.00035862 0.00035862 0.00035862 0.0204957 0.0204957 0.0204957 0.0204957 -0.00321707 -0.00321707 -0.00321707 -0.00321707 0.0231959 0.0231959 0.0231959 0.0231959 0.0135942 0.0135942 0.0135942 0.0135942 0.0128547 0.0128547 0.0128547 0.0128547 -0.0164924 -0.0164924 -0.0164924 -0.0164924 0.0127801 0.0127801 0.0127801 0.0127801 -0.00348033 -0.00348033 -0.00348033 -0.00348033 -0.00304813 -0.00304813 -0.00304813 -0.00304813 0.0141778 0.0141778 0.0141778 0.0141778 -0.0170581 -0.0170581 -0.0170581 -0.0170581 0.00663975 0.00663975 0.00663975 0.00663975 0.0180277 0.0180277 0.0180277 0.0180277 -0.00123455 -0.00123455 -0.00123455 -0.00123455 0.0170029 0.0170029 0.0170029 0.0170029 -0.0224277 -0.0224277 -0.0224277 -0.0224277 0.0102485 0.0102485 0.0102485 0.0102485 0.0225117 0.0225117 0.0225117 0.0225117 0.0108362 0.0108362 0.0108362 0.0108362 0.000271137 0.000271137 0.000271137 0.000271137 0.410145 0.410145 0.410145 0.410145 0.0111895 0.0111895 0.0111895 0.0111895 0.0560439 0.0560439 0.0560439 0.0560439 0.00561118 0.00561118 0.00561118 0.00561118 0.00439467 0.00439467 0.00439467 0.00439467 0.310905 0.310905 0.310905 0.310905 -0.020692 -0.020692 -0.020692 -0.020692 0.479425 0.479425 0.479425 0.479425 0.0537448 0.0537448 0.0537448 0.0537448 -0.0090134 -0.0090134 -0.0090134 -0.0090134 -0.00154206 -0.00154206 -0.00154206 -0.00154206 -0.00129146 -0.00129146 -0.00129146 -0.00129146 0.035664 0.035664 0.035664 0.035664 -0.0418546 -0.0418546 -0.0418546 -0.0418546 -0.0194643 -0.0194643 -0.0194643 -0.0194643 0.0102305 0.0102305 0.0102305 0.0102305 -0.00123502 -0.00123502 -0.00123502 -0.00123502 0.0200459 0.0200459 0.0200459 0.0200459 0.0296712 0.0296712 0.0296712 0.0296712 0.240332 0.240332 0.240332 0.240332 -0.000189194 -0.000189194 -0.000189194 -0.000189194 0.0130864 0.0130864 0.0130864 0.0130864 -0.0111549 -0.0111549 -0.0111549 -0.0111549 -0.00514545 -0.00514545 -0.00514545 -0.00514545 0.0648544 0.0648544 0.0648544 0.0648544 0.0110665 0.0110665 0.0110665 0.0110665 0.0280615 0.0280615 0.0280615 0.0280615 -0.000640004 -0.000640004 -0.000640004 -0.000640004 0.413978 0.413978 0.413978 0.413978 0.00663523 0.00663523 0.00663523 0.00663523 0.18666 0.18666 0.18666 0.18666 -0.047429 -0.047429 -0.047429 -0.047429 -0.0206139 -0.0206139 -0.0206139 -0.0206139 -0.0170929 -0.0170929 -0.0170929 -0.0170929 0.014439 0.014439 0.014439 0.014439 0.0137882 0.0137882 0.0137882 0.0137882 0.101466 0.101466 0.101466 0.101466 0.203694 0.203694 0.203694 0.203694 0.0365426 0.0365426 0.0365426 0.0365426 -0.031876 -0.031876 -0.031876 -0.031876 -0.0248431 -0.0248431 -0.0248431 -0.0248431 -0.0284607 -0.0284607 -0.0284607 -0.0284607 0.000398899 0.000398899 0.000398899 0.000398899 -0.0489964 -0.0489964 -0.0489964 -0.0489964 -0.0168544 -0.0168544 -0.0168544 -0.0168544 -0.00125597 -0.00125597 -0.00125597 -0.00125597 0.115446 0.115446 0.115446 0.115446 0.249098 0.249098 0.249098 0.249098 -0.0185171 -0.0185171 -0.0185171 -0.0185171 0.10717 0.10717 0.10717 0.10717 0.112985 0.112985 0.112985 0.112985 -0.035776 -0.035776 -0.035776 -0.035776 -0.00450829 -0.00450829 -0.00450829 -0.00450829 0.17527 0.17527 0.17527 0.17527 0.288899 0.288899 0.288899 0.288899 0.000472013 0.000472013 0.000472013 0.000472013 -0.0368585 -0.0368585 -0.0368585 -0.0368585 0.0816256 0.0816256 0.0816256 0.0816256 0.00122239 0.00122239 0.00122239 0.00122239 0.393428 0.393428 0.393428 0.393428 0.0266066 0.0266066 0.0266066 0.0266066 0.0965519 0.0965519 0.0965519 0.0965519 -0.0331375 -0.0331375 -0.0331375 -0.0331375 -0.0161421 -0.0161421 -0.0161421 -0.0161421 -0.0217412 -0.0217412 -0.0217412 -0.0217412 0.000772453 0.000772453 0.000772453 0.000772453 0.00481238 0.00481238 0.00481238 0.00481238 0.196413 0.196413 0.196413 0.196413 0.248204 0.248204 0.248204 0.248204 0.366309 0.366309 0.366309 0.366309 0.122264 0.122264 0.122264 0.122264 0.1225 0.1225 0.1225 0.1225 0.282188 0.282188 0.282188 0.282188 -0.000373825 -0.000373825 -0.000373825 -0.000373825 0.100155 0.100155 0.100155 0.100155 -0.00437246 -0.00437246 -0.00437246 -0.00437246 -0.0124988 -0.0124988 -0.0124988 -0.0124988 0.221004 0.221004 0.221004 0.221004 0.190847 0.190847 0.190847 0.190847 0.0440115 0.0440115 0.0440115 0.0440115 0.177744 0.177744 0.177744 0.177744 0.0342115 0.0342115 0.0342115 0.0342115 0.198776 0.198776 0.198776 0.198776 0.130563 0.130563 0.130563 0.130563 -0.00670442 -0.00670442 -0.00670442 -0.00670442 0.133112 0.133112 0.133112 0.133112 -0.0257726 -0.0257726 -0.0257726 -0.0257726 0.0036614 0.0036614 0.0036614 0.0036614 -0.0577234 -0.0577234 -0.0577234 -0.0577234 -0.0227033 -0.0227033 -0.0227033 -0.0227033 0.0297665 0.0297665 0.0297665 0.0297665 -0.0121289 -0.0121289 -0.0121289 -0.0121289 -0.0136089 -0.0136089 -0.0136089 -0.0136089 -0.0160424 -0.0160424 -0.0160424 -0.0160424 -0.00971567 -0.00971567 -0.00971567 -0.00971567 -0.0278039 -0.0278039 -0.0278039 -0.0278039 -0.0394491 -0.0394491 -0.0394491 -0.0394491 -0.0317337 -0.0317337 -0.0317337 -0.0317337 0.0682292 0.0682292 0.0682292 0.0682292 0.0730917 0.0730917 0.0730917 0.0730917 0.00937297 0.00937297 0.00937297 0.00937297 -0.0391254 -0.0391254 -0.0391254 -0.0391254 0.0083917 0.0083917 0.0083917 0.0083917 0.0214453 0.0214453 0.0214453 0.0214453 -0.0162742 -0.0162742 -0.0162742 -0.0162742 -0.013655 -0.013655 -0.013655 -0.013655 -0.0136493 -0.0136493 -0.0136493 -0.0136493 -0.00317471 -0.00317471 -0.00317471 -0.00317471 -0.0305917 -0.0305917 -0.0305917 -0.0305917 0.0440894 0.0440894 0.0440894 0.0440894 0.0235861 0.0235861 0.0235861 0.0235861 0.0126293 0.0126293 0.0126293 0.0126293 -0.000743137 -0.000743137 -0.000743137 -0.000743137 -0.0168637 -0.0168637 -0.0168637 -0.0168637 -0.00913542 -0.00913542 -0.00913542 -0.00913542 -0.00138618 -0.00138618 -0.00138618 -0.00138618 -0.0111633 -0.0111633 -0.0111633 -0.0111633 0.0135889 0.0135889 0.0135889 0.0135889 -0.0204266 -0.0204266 -0.0204266 -0.0204266 0.0292188 0.0292188 0.0292188 0.0292188 -0.0355367 -0.0355367 -0.0355367 -0.0355367 0.139956 0.139956 0.139956 0.139956 -0.0133095 -0.0133095 -0.0133095 -0.0133095 -0.0273266 -0.0273266 -0.0273266 -0.0273266 -0.0452657 -0.0452657 -0.0452657 -0.0452657 0.0821368 0.0821368 0.0821368 0.0821368 -0.064274 -0.064274 -0.064274 -0.064274 -0.0293892 -0.0293892 -0.0293892 -0.0293892 0.0550096 0.0550096 0.0550096 0.0550096 0.0358354 0.0358354 0.0358354 0.0358354 0.0392112 0.0392112 0.0392112 0.0392112 -0.0070613 -0.0070613 -0.0070613 -0.0070613 -0.0136141 -0.0136141 -0.0136141 -0.0136141 -0.0783196 -0.0783196 -0.0783196 -0.0783196 -0.0666092 -0.0666092 -0.0666092 -0.0666092 0.0543706 0.0543706 0.0543706 0.0543706 -0.00964376 -0.00964376 -0.00964376 -0.00964376 -0.135325 -0.135325 -0.135325 -0.135325 -0.071829 -0.071829 -0.071829 -0.071829 -0.104291 -0.104291 -0.104291 -0.104291 -0.107842 -0.107842 -0.107842 -0.107842 -0.00447931 -0.00447931 -0.00447931 -0.00447931 -0.0138896 -0.0138896 -0.0138896 -0.0138896 0.137437 0.137437 0.137437 0.137437 0.116521 0.116521 0.116521 0.116521 -0.19289 -0.19289 -0.19289 -0.19289 -0.133923 -0.133923 -0.133923 -0.133923 
SCALARS StressY float 
LOOKUP_TABLE default
-0.00457042 -0.00457042 -0.00457042 -0.00457042 -0.00838687 -0.00838687 -0.00838687 -0.00838687 -0.00673198 -0.00673198 -0.00673198 -0.00673198 -0.0168988 -0.0168988 -0.0168988 -0.0168988 -0.0144042 -0.0144042 -0.0144042 -0.0144042 -0.00616113 -0.00616113 -0.00616113 -0.00616113 -0.0048545 -0.0048545 -0.0048545 -0.0048545 -0.00529252 -0.00529252 -0.00529252 -0.00529252 -0.00599961 -0.00599961 -0.00599961 -0.00599961 -0.00369859 -0.00369859 -0.00369859 -0.00369859 -0.0187912 -0.0187912 -0.0187912 -0.0187912 -0.0103304 -0.0103304 -0.0103304 -0.0103304 -0.0107019 -0.0107019 -0.0107019 -0.0107019 -0.00695802 -0.00695802 -0.00695802 -0.00695802 -0.00588102 -0.00588102 -0.00588102 -0.00588102 -0.0102729 -0.0102729 -0.0102729 -0.0102729 -0.0025 -0.0025 -0.0025 -0.0025 -0.0120465 -0.0120465 -0.0120465 -0.0120465 -0.00612396 -0.00612396 -0.00612396 -0.00612396 -0.0269709 -0.0269709 -0.0269709 -0.0269709 -0.0124454 -0.0124454 -0.0124454 -0.0124454 -0.00133083 -0.00133083 -0.00133083 -0.00133083 -0.0063898 -0.0063898 -0.0063898 -0.0063898 -0.00555694 -0.00555694 -0.00555694 -0.00555694 -0.0179361 -0.0179361 -0.0179361 -0.0179361 -0.0195874 -0.0195874 -0.0195874 -0.0195874 -0.0436067 -0.0436067 -0.0436067 -0.0436067 -0.0172708 -0.0172708 -0.0172708 -0.0172708 -0.0259018 -0.0259018 -0.0259018 -0.0259018 -0.00661146 -0.00661146 -0.00661146 -0.00661146 -0.0157058 -0.0157058 -0.0157058 -0.0157058 -0.0228516 -0.0228516 -0.0228516 -0.0228516 -0.0075962 -0.0075962 -0.0075962 -0.0075962 -0.0213242 -0.0213242 -0.0213242 -0.0213242 -0.00590444 -0.00590444 -0.00590444 -0.00590444 -0.0019241 -0.0019241 -0.0019241 -0.0019241 -0.0173767 -0.0173767 -0.0173767 -0.0173767 -0.0128209 -0.0128209 -0.0128209 -0.0128209 -0.0034498 -0.0034498 -0.0034498 -0.0034498 -0.0068805 -0.0068805 -0.0068805 -0.0068805 -0.00585694 -0.00585694 -0.00585694 -0.00585694 -0.0936601 -0.0936601 -0.0936601 -0.0936601 -0.0169826 -0.0169826 -0.0169826 -0.0169826 -0.002353 -0.002353 -0.002353 -0.002353 -0.00369925 -0.00369925 -0.00369925 -0.00369925 -0.014071 -0.014071 -0.014071 -0.014071 -0.0329915 -0.0329915 -0.0329915 -0.0329915 -0.0134688 -0.0134688 -0.0134688 -0.0134688 -0.00339951 -0.00339951 -0.00339951 -0.00339951 -0.0219806 -0.0219806 -0.0219806 -0.0219806 -0.0280039 -0.0280039 -0.0280039 -0.0280039 -0.0437842 -0.0437842 -0.0437842 -0.0437842 -0.0140227 -0.0140227 -0.0140227 -0.0140227 -0.0201362 -0.0201362 -0.0201362 -0.0201362 -0.00657881 -0.00657881 -0.00657881 -0.00657881 -0.00192465 -0.00192465 -0.00192465 -0.00192465 -0.00523332 -0.00523332 -0.00523332 -0.00523332 -0.0213384 -0.0213384 -0.0213384 -0.0213384 -0.0141133 -0.0141133 -0.0141133 -0.0141133 -0.00405175 -0.00405175 -0.00405175 -0.00405175 -0.00762412 -0.00762412 -0.00762412 -0.00762412 -0.0178423 -0.0178423 -0.0178423 -0.0178423 -0.0025047 -0.0025047 -0.0025047 -0.0025047 -0.00241193 -0.00241193 -0.00241193 -0.00241193 -0.0105819 -0.0105819 -0.0105819 -0.0105819 -0.0053907 -0.0053907 -0.0053907 -0.0053907 -0.0177982 -0.0177982 -0.0177982 -0.0177982 -0.0103827 -0.0103827 -0.0103827 -0.0103827 -0.0173324 -0.0173324 -0.0173324 -0.0173324 -0.00636537 -0.00636537 -0.00636537 -0.00636537 -0.014338 -0.014338 -0.014338 -0.014338 -0.0141278 -0.0141278 -0.0141278 -0.0141278 -0.0195212 -0.0195212 -0.0195212 -0.0195212 -0.0038337 -0.0038337 -0.0038337 -0.0038337 -0.0858521 -0.0858521 -0.0858521 -0.0858521 -0.0413473 -0.0413473 -0.0413473 -0.0413473 -0.0173009 -0.0173009 -0.0173009 -0.0173009 -0.00835639 -0.00835639 -0.00835639 -0.00835639 -0.00219367 -0.00219367 -0.00219367 -0.00219367 -0.0165747 -0.0165747 -0.0165747 -0.0165747 -0.0103598 -0.0103598 -0.0103598 -0.0103598 -0.00683835 -0.00683835 -0.00683835 -0.00683835 -0.010156 -0.010156 -0.010156 -0.010156 -0.00279586 -0.00279586 -0.00279586 -0.00279586 -0.00873813 -0.00873813 -0.00873813 -0.00873813 -0.0302398 -0.0302398 -0.0302398 -0.0302398 -0.00505744 -0.00505744 -0.00505744 -0.00505744 -0.0258404 -0.0258404 -0.0258404 -0.0258404 -0.0216557 -0.0216557 -0.0216557 -0.0216557 -0.00261284 -0.00261284 -0.00261284 -0.00261284 -0.00536342 -0.00536342 -0.00536342 -0.00536342 0.0088292 0.0088292 0.0088292 0.0088292 -0.0964425 -0.0964425 -0.0964425 -0.0964425 -0.00468403 -0.00468403 -0.00468403 -0.00468403 -0.00344686 -0.00344686 -0.00344686 -0.00344686 -0.04224 -0.04224 -0.04224 -0.04224 -0.00710131 -0.00710131 -0.00710131 -0.00710131 -0.0168895 -0.0168895 -0.0168895 -0.0168895 -0.00231713 -0.00231713 -0.00231713 -0.00231713 -0.0119402 -0.0119402 -0.0119402 -0.0119402 -0.0116389 -0.0116389 -0.0116389 -0.0116389 -0.0201188 -0.0201188 -0.0201188 -0.0201188 -0.0391997 -0.0391997 -0.0391997 -0.0391997 -0.0233411 -0.0233411 -0.0233411 -0.0233411 -0.00231741 -0.00231741 -0.00231741 -0.00231741 -0.048812 -0.048812 -0.048812 -0.048812 -0.0209263 -0.0209263 -0.0209263 -0.0209263 -0.00255418 -0.00255418 -0.00255418 -0.00255418 -0.268292 -0.268292 -0.268292 -0.268292 -0.00301745 -0.00301745 -0.00301745 -0.00301745 -0.0261737 -0.0261737 -0.0261737 -0.0261737 4.6708e-05 4.6708e-05 4.6708e-05 4.6708e-05 -0.0212732 -0.0212732 -0.0212732 -0.0212732 0.00195962 0.00195962 0.00195962 0.00195962 -0.0412281 -0.0412281 -0.0412281 -0.0412281 -0.0186064 -0.0186064 -0.0186064 -0.0186064 -0.00683624 -0.00683624 -0.00683624 -0.00683624 -0.0206542 -0.0206542 -0.0206542 -0.0206542 -0.0012567 -0.0012567 -0.0012567 -0.0012567 -0.00866496 -0.00866496 -0.00866496 -0.00866496 -0.0110061 -0.0110061 -0.0110061 -0.0110061 -0.002695 -0.002695 -0.002695 -0.002695 -0.00370753 -0.00370753 -0.00370753 -0.00370753 -0.0122113 -0.0122113 -0.0122113 -0.0122113 -0.00377697 -0.00377697 -0.00377697 -0.00377697 -0.00353821 -0.00353821 -0.00353821 -0.00353821 -0.269141 -0.269141 -0.269141 -0.269141 -0.00246434 -0.00246434 -0.00246434 -0.00246434 -0.0343866 -0.0343866 -0.0343866 -0.0343866 -0.0053484 -0.0053484 -0.0053484 -0.0053484 -0.00550206 -0.00550206 -0.00550206 -0.00550206 -0.00340406 -0.00340406 -0.00340406 -0.00340406 -0.0240657 -0.0240657 -0.0240657 -0.0240657 -0.0182281 -0.0182281 -0.0182281 -0.0182281 -0.0119691 -0.0119691 -0.0119691 -0.0119691 -0.00313401 -0.00313401 -0.00313401 -0.00313401 -0.00255313 -0.00255313 -0.00255313 -0.00255313 0.0365681 0.0365681 0.0365681 0.0365681 0.0359938 0.0359938 0.0359938 0.0359938 0.00186025 0.00186025 0.00186025 0.00186025 -0.00282339 -0.00282339 -0.00282339 -0.00282339 -0.00785405 -0.00785405 -0.00785405 -0.00785405 -0.00199183 -0.00199183 -0.00199183 -0.00199183 -0.0248648 -0.0248648 -0.0248648 -0.0248648 -0.0283385 -0.0283385 -0.0283385 -0.0283385 0.00482057 0.00482057 0.00482057 0.00482057 -0.00530106 -0.00530106 -0.00530106 -0.00530106 -0.00859767 -0.00859767 -0.00859767 -0.00859767 0.0331083 0.0331083 0.0331083 0.0331083 -0.0357516 -0.0357516 -0.0357516 -0.0357516 -0.00164024 -0.00164024 -0.00164024 -0.00164024 -0.0124718 -0.0124718 -0.0124718 -0.0124718 -0.0115768 -0.0115768 -0.0115768 -0.0115768 -0.00305656 -0.00305656 -0.00305656 -0.00305656 -0.0107235 -0.0107235 -0.0107235 -0.0107235 -0.0548121 -0.0548121 -0.0548121 -0.0548121 0.000757011 0.000757011 0.000757011 0.000757011 -0.0109018 -0.0109018 -0.0109018 -0.0109018 -0.0712667 -0.0712667 -0.0712667 -0.0712667 -0.00287876 -0.00287876 -0.00287876 -0.00287876 -0.00877509 -0.00877509 -0.00877509 -0.00877509 0.00373787 0.00373787 0.00373787 0.00373787 -0.00490817 -0.00490817 -0.00490817 -0.00490817 0.0131658 0.0131658 0.0131658 0.0131658 -0.0313449 -0.0313449 -0.0313449 -0.0313449 -0.0138967 -0.0138967 -0.0138967 -0.0138967 -0.0199756 -0.0199756 -0.0199756 -0.0199756 -0.00819391 -0.00819391 -0.00819391 -0.00819391 -0.0597607 -0.0597607 -0.0597607 -0.0597607 -0.00814972 -0.00814972 -0.00814972 -0.00814972 -0.0060435 -0.0060435 -0.0060435 -0.0060435 -0.0214162 -0.0214162 -0.0214162 -0.0214162 -0.00876202 -0.00876202 -0.00876202 -0.00876202 -0.017886 -0.017886 -0.017886 -0.017886 -0.00225954 -0.00225954 -0.00225954 -0.00225954 -0.0371104 -0.0371104 -0.0371104 -0.0371104 0.0229477 0.0229477 0.0229477 0.0229477 0.0500718 0.0500718 0.0500718 0.0500718 -0.0170602 -0.0170602 -0.0170602 -0.0170602 0.0119478 0.0119478 0.0119478 0.0119478 -0.00158057 -0.00158057 -0.00158057 -0.00158057 -0.011427 -0.011427 -0.011427 -0.011427 -0.0197882 -0.0197882 -0.0197882 -0.0197882 -0.0240354 -0.0240354 -0.0240354 -0.0240354 -0.0111197 -0.0111197 -0.0111197 -0.0111197 -0.00328613 -0.00328613 -0.00328613 -0.00328613 -0.0212577 -0.0212577 -0.0212577 -0.0212577 0.00653738 0.00653738 0.00653738 0.00653738 -0.0128717 -0.0128717 -0.0128717 -0.0128717 -0.0423281 -0.0423281 -0.0423281 -0.0423281 0.00439311 0.00439311 0.00439311 0.00439311 -0.0268831 -0.0268831 -0.0268831 -0.0268831 -0.000242771 -0.000242771 -0.000242771 -0.000242771 -0.019263 -0.019263 -0.019263 -0.019263 -0.0548003 -0.0548003 -0.0548003 -0.0548003 -0.00671526 -0.00671526 -0.00671526 -0.00671526 -0.0156381 -0.0156381 -0.0156381 -0.0156381 -0.00222912 -0.00222912 -0.00222912 -0.00222912 -0.156083 -0.156083 -0.156083 -0.156083 -0.0936515 -0.0936515 -0.0936515 -0.0936515 -0.0530878 -0.0530878 -0.0530878 -0.0530878 -0.112294 -0.112294 -0.112294 -0.112294 0.00367455 0.00367455 0.00367455 0.00367455 -0.00242983 -0.00242983 -0.00242983 -0.00242983 -0.0282431 -0.0282431 -0.0282431 -0.0282431 -0.0136056 -0.0136056 -0.0136056 -0.0136056 -0.0100437 -0.0100437 -0.0100437 -0.0100437 -0.0047961 -0.0047961 -0.0047961 -0.0047961 -0.0250981 -0.0250981 -0.0250981 -0.0250981 -0.00302258 -0.00302258 -0.00302258 -0.00302258 -0.0106722 -0.0106722 -0.0106722 -0.0106722 -0.00182498 -0.00182498 -0.00182498 -0.00182498 0.00889826 0.00889826 0.00889826 0.00889826 -0.0910618 -0.0910618 -0.0910618 -0.0910618 -0.0223404 -0.0223404 -0.0223404 -0.0223404 -0.00368333 -0.00368333 -0.00368333 -0.00368333 0.0992749 0.0992749 0.0992749 0.0992749 -0.0326641 -0.0326641 -0.0326641 -0.0326641 -0.018551 -0.018551 -0.018551 -0.018551 -0.0202177 -0.0202177 -0.0202177 -0.0202177 -0.0075165 -0.0075165 -0.0075165 -0.0075165 -0.000972428 -0.000972428 -0.000972428 -0.000972428 -0.032935 -0.032935 -0.032935 -0.032935 -0.0110777 -0.0110777 -0.0110777 -0.0110777 -0.0139195 -0.0139195 -0.0139195 -0.0139195 -0.038859 -0.038859 -0.038859 -0.038859 -0.0320914 -0.0320914 -0.0320914 -0.0320914 -0.00185992 -0.00185992 -0.00185992 -0.00185992 0.0202493 0.0202493 0.0202493 0.0202493 -0.0122351 -0.0122351 -0.0122351 -0.0122351 0.00798946 0.00798946 0.00798946 0.00798946 -0.0033081 -0.0033081 -0.0033081 -0.0033081 -0.0130547 -0.0130547 -0.0130547 -0.0130547 0.00608906 0.00608906 0.00608906 0.00608906 -0.0384286 -0.0384286 -0.0384286 -0.0384286 -0.0164296 -0.0164296 -0.0164296 -0.0164296 -0.11137 -0.11137 -0.11137 -0.11137 -0.0040974 -0.0040974 -0.0040974 -0.0040974 -0.0283621 -0.0283621 -0.0283621 -0.0283621 -0.00534108 -0.00534108 -0.00534108 -0.00534108 -0.00241859 -0.00241859 -0.00241859 -0.00241859 -0.00672512 -0.00672512 -0.00672512 -0.00672512 -0.0323549 -0.0323549 -0.0323549 -0.0323549 -0.0345224 -0.0345224 -0.0345224 -0.0345224 -0.0100775 -0.0100775 -0.0100775 -0.0100775 -0.0913213 -0.0913213 -0.0913213 -0.0913213 -0.00520991 -0.00520991 -0.00520991 -0.00520991 -0.0317133 -0.0317133 -0.0317133 -0.0317133 -0.010132 -0.010132 -0.010132 -0.010132 -0.00440431 -0.00440431 -0.00440431 -0.00440431 -0.0719737 -0.0719737 -0.0719737 -0.0719737 -0.00538132 -0.00538132 -0.00538132 -0.00538132 -0.0573903 -0.0573903 -0.0573903 -0.0573903 0.00263936 0.00263936 0.00263936 0.00263936 -0.0948113 -0.0948113 -0.0948113 -0.0948113 0.0231109 0.0231109 0.0231109 0.0231109 -0.00262299 -0.00262299 -0.00262299 -0.00262299 -0.0177928 -0.0177928 -0.0177928 -0.0177928 -0.00315019 -0.00315019 -0.00315019 -0.00315019 -0.00806392 -0.00806392 -0.00806392 -0.00806392 -0.045416 -0.045416 -0.045416 -0.045416 -0.0157092 -0.0157092 -0.0157092 -0.0157092 -0.0236226 -0.0236226 -0.0236226 -0.0236226 -0.100876 -0.100876 -0.100876 -0.100876 0.0130668 0.0130668 0.0130668 0.0130668 -0.18788 -0.18788 -0.18788 -0.18788 -0.00967804 -0.00967804 -0.00967804 -0.00967804 -0.0225793 -0.0225793 -0.0225793 -0.0225793 -0.043289 -0.043289 -0.043289 -0.043289 -0.0123241 -0.0123241 -0.0123241 -0.0123241 -0.00371131 -0.00371131 -0.00371131 -0.00371131 0.0228011 0.0228011 0.0228011 0.0228011 -0.0113096 -0.0113096 -0.0113096 -0.0113096 0.0168882 0.0168882 0.0168882 0.0168882 -0.0116222 -0.0116222 -0.0116222 -0.0116222 -0.0917366 -0.0917366 -0.0917366 -0.0917366 -0.0193631 -0.0193631 -0.0193631 -0.0193631 0.0687217 0.0687217 0.0687217 0.0687217 -0.00991929 -0.00991929 -0.00991929 -0.00991929 0.0077718 0.0077718 0.0077718 0.0077718 -0.0760404 -0.0760404 -0.0760404 -0.0760404 -0.0083507 -0.0083507 -0.0083507 -0.0083507 0.024487 0.024487 0.024487 0.024487 -0.00363295 -0.00363295 -0.00363295 -0.00363295 0.00526155 0.00526155 0.00526155 0.00526155 -0.0409359 -0.0409359 -0.0409359 -0.0409359 0.0251034 0.0251034 0.0251034 0.0251034 -0.00570701 -0.00570701 -0.00570701 -0.00570701 0.0111983 0.0111983 0.0111983 0.0111983 -0.206756 -0.206756 -0.206756 -0.206756 -0.0270327 -0.0270327 -0.0270327 -0.0270327 0.00978324 0.00978324 0.00978324 0.00978324 -0.158703 -0.158703 -0.158703 -0.158703 -0.0413748 -0.0413748 -0.0413748 -0.0413748 0.0162824 0.0162824 0.0162824 0.0162824 0.0239318 0.0239318 0.0239318 0.0239318 -0.0646868 -0.0646868 -0.0646868 -0.0646868 -0.00495784 -0.00495784 -0.00495784 -0.00495784 0.0174429 0.0174429 0.0174429 0.0174429 -0.00354025 -0.00354025 -0.00354025 -0.00354025 -0.00896425 -0.00896425 -0.00896425 -0.00896425 -0.0911622 -0.0911622 -0.0911622 -0.0911622 -0.00391592 -0.00391592 -0.00391592 -0.00391592 -0.0358408 -0.0358408 -0.0358408 -0.0358408 -0.104463 -0.104463 -0.104463 -0.104463 -0.0171834 -0.0171834 -0.0171834 -0.0171834 -0.0212924 -0.0212924 -0.0212924 -0.0212924 -0.0521134 -0.0521134 -0.0521134 -0.0521134 -0.0509734 -0.0509734 -0.0509734 -0.0509734 -0.172354 -0.172354 -0.172354 -0.172354 -0.0022581 -0.0022581 -0.0022581 -0.0022581 -0.00378878 -0.00378878 -0.00378878 -0.00378878 -0.0540356 -0.0540356 -0.0540356 -0.0540356 -0.00467625 -0.00467625 -0.00467625 -0.00467625 -0.0434691 -0.0434691 -0.0434691 -0.0434691 -0.0990441 -0.0990441 -0.0990441 -0.0990441 -0.0638467 -0.0638467 -0.0638467 -0.0638467 -0.044684 -0.044684 -0.044684 -0.044684 -0.0279727 -0.0279727 -0.0279727 -0.0279727 0.0315857 0.0315857 0.0315857 0.0315857 -0.0750487 -0.0750487 -0.0750487 -0.0750487 -0.0164416 -0.0164416 -0.0164416 -0.0164416 -0.00303389 -0.00303389 -0.00303389 -0.00303389 -0.0997703 -0.0997703 -0.0997703 -0.0997703 0.0096084 0.0096084 0.0096084 0.0096084 -0.00660453 -0.00660453 -0.00660453 -0.00660453 -0.111024 -0.111024 -0.111024 -0.111024 -0.179288 -0.179288 -0.179288 -0.179288 0.0188443 0.0188443 0.0188443 0.0188443 -0.130608 -0.130608 -0.130608 -0.130608 -0.0669608 -0.0669608 -0.0669608 -0.0669608 0.0436486 0.0436486 0.0436486 0.0436486 -0.0278426 -0.0278426 -0.0278426 -0.0278426 -0.00888947 -0.00888947 -0.00888947 -0.00888947 -0.00467042 -0.00467042 -0.00467042 -0.00467042 -0.0145037 -0.0145037 -0.0145037 -0.0145037 -0.0360971 -0.0360971 -0.0360971 -0.0360971 -0.0709519 -0.0709519 -0.0709519 -0.0709519 -0.00346032 -0.00346032 -0.00346032 -0.00346032 -0.088407 -0.088407 -0.088407 -0.088407 0.016404 0.016404 0.016404 0.016404 -0.0513016 -0.0513016 -0.0513016 -0.0513016 -0.0465087 -0.0465087 -0.0465087 -0.0465087 -0.0818815 -0.0818815 -0.0818815 -0.0818815 -0.0419555 -0.0419555 -0.0419555 -0.0419555 0.0223069 0.0223069 0.0223069 0.0223069 0.000257899 0.000257899 0.000257899 0.000257899 -0.141946 -0.141946 -0.141946 -0.141946 -0.0945996 -0.0945996 -0.0945996 -0.0945996 -0.0787047 -0.0787047 -0.0787047 -0.0787047 -0.0117594 -0.0117594 -0.0117594 -0.0117594 -0.00435768 -0.00435768 -0.00435768 -0.00435768 -0.00930379 -0.00930379 -0.00930379 -0.00930379 -0.0123382 -0.0123382 -0.0123382 -0.0123382 0.0152386 0.0152386 0.0152386 0.0152386 -0.0308239 -0.0308239 -0.0308239 -0.0308239 0.13957 0.13957 0.13957 0.13957 -0.066337 -0.066337 -0.066337 -0.066337 0.0690538 0.0690538 0.0690538 0.0690538 -0.0199609 -0.0199609 -0.0199609 -0.0199609 -0.152159 -0.152159 -0.152159 -0.152159 -0.0535387 -0.0535387 -0.0535387 -0.0535387 0.0362601 0.0362601 0.0362601 0.0362601 -0.00134626 -0.00134626 -0.00134626 -0.00134626 -0.226678 -0.226678 -0.226678 -0.226678 -0.219265 -0.219265 -0.219265 -0.219265 0.0250826 0.0250826 0.0250826 0.0250826 -0.0526256 -0.0526256 -0.0526256 -0.0526256 -0.0021899 -0.0021899 -0.0021899 -0.0021899 -0.00950963 -0.00950963 -0.00950963 -0.00950963 0.0164629 0.0164629 0.0164629 0.0164629 -0.197663 -0.197663 -0.197663 -0.197663 -0.0647127 -0.0647127 -0.0647127 -0.0647127 -0.00253639 -0.00253639 -0.00253639 -0.00253639 0.00130208 0.00130208 0.00130208 0.00130208 -0.094949 -0.094949 -0.094949 -0.094949 -0.00765253 -0.00765253 -0.00765253 -0.00765253 -0.0591058 -0.0591058 -0.0591058 -0.0591058 -0.0645145 -0.0645145 -0.0645145 -0.0645145 -0.00257729 -0.00257729 -0.00257729 -0.00257729 0.0407418 0.0407418 0.0407418 0.0407418 -0.0724552 -0.0724552 -0.0724552 -0.0724552 -0.00203078 -0.00203078 -0.00203078 -0.00203078 -0.0899464 -0.0899464 -0.0899464 -0.0899464 0.00788002 0.00788002 0.00788002 0.00788002 0.0446253 0.0446253 0.0446253 0.0446253 -0.0241415 -0.0241415 -0.0241415 -0.0241415 -0.027228 -0.027228 -0.027228 -0.027228 0.0233349 0.0233349 0.0233349 0.0233349 -0.0522355 -0.0522355 -0.0522355 -0.0522355 -0.0438664 -0.0438664 -0.0438664 -0.0438664 0.0633182 0.0633182 0.0633182 0.0633182 -0.0320855 -0.0320855 -0.0320855 -0.0320855 0.00342467 0.00342467 0.00342467 0.00342467 0.0173916 0.0173916 0.0173916 0.0173916 -0.125433 -0.125433 -0.125433 -0.125433 0.0109389 0.0109389 0.0109389 0.0109389 0.000227096 0.000227096 0.000227096 0.000227096 0.000756307 0.000756307 0.000756307 0.000756307 -0.0369262 -0.0369262 -0.0369262 -0.0369262 0.109978 0.109978 0.109978 0.109978 0.024201 0.024201 0.024201 0.024201 -0.186184 -0.186184 -0.186184 -0.186184 0.0460153 0.0460153 0.0460153 0.0460153 -0.00250971 -0.00250971 -0.00250971 -0.00250971 -0.176153 -0.176153 -0.176153 -0.176153 0.0774618 0.0774618 0.0774618 0.0774618 -0.0662365 -0.0662365 -0.0662365 -0.0662365 0.00485932 0.00485932 0.00485932 0.00485932 -0.0240772 -0.0240772 -0.0240772 -0.0240772 -0.00341113 -0.00341113 -0.00341113 -0.00341113 -0.026985 -0.026985 -0.026985 -0.026985 -0.0717877 -0.0717877 -0.0717877 -0.0717877 -0.0348701 -0.0348701 -0.0348701 -0.0348701 -0.0567891 -0.0567891 -0.0567891 -0.0567891 -0.0271494 -0.0271494 -0.0271494 -0.0271494 -0.00203694 -0.00203694 -0.00203694 -0.00203694 0.0561384 0.0561384 0.0561384 0.0561384 -0.0677607 -0.0677607 -0.0677607 -0.0677607 -0.0354149 -0.0354149 -0.0354149 -0.0354149 -0.0891449 -0.0891449 -0.0891449 -0.0891449 -0.0718363 -0.0718363 -0.0718363 -0.0718363 -0.0136636 -0.0136636 -0.0136636 -0.0136636 0.0365664 0.0365664 0.0365664 0.0365664 -0.0342596 -0.0342596 -0.0342596 -0.0342596 -0.0100633 -0.0100633 -0.0100633 -0.0100633 -0.0336388 -0.0336388 -0.0336388 -0.0336388 -0.147411 -0.147411 -0.147411 -0.147411 -0.145499 -0.145499 -0.145499 -0.145499 -0.0118461 -0.0118461 -0.0118461 -0.0118461 -0.198762 -0.198762 -0.198762 -0.198762 0.103769 0.103769 0.103769 0.103769 0.00772596 0.00772596 0.00772596 0.00772596 -0.0116613 -0.0116613 -0.0116613 -0.0116613 0.0179181 0.0179181 0.0179181 0.0179181 -0.175028 -0.175028 -0.175028 -0.175028 -0.110478 -0.110478 -0.110478 -0.110478 0.00305365 0.00305365 0.00305365 0.00305365 -0.0584625 -0.0584625 -0.0584625 -0.0584625 -0.0586055 -0.0586055 -0.0586055 -0.0586055 -0.114793 -0.114793 -0.114793 -0.114793 -0.0661439 -0.0661439 -0.0661439 -0.0661439 -0.00295756 -0.00295756 -0.00295756 -0.00295756 -0.0457238 -0.0457238 -0.0457238 -0.0457238 0.0210526 0.0210526 0.0210526 0.0210526 0.00590165 0.00590165 0.00590165 0.00590165 -0.0351462 -0.0351462 -0.0351462 -0.0351462 -0.114502 -0.114502 -0.114502 -0.114502 -0.00481897 -0.00481897 -0.00481897 -0.00481897 -0.0694907 -0.0694907 -0.0694907 -0.0694907 0.0419723 0.0419723 0.0419723 0.0419723 -0.110766 -0.110766 -0.110766 -0.110766 0.00759748 0.00759748 0.00759748 0.00759748 0.0532298 0.0532298 0.0532298 0.0532298 0.00288223 0.00288223 0.00288223 0.00288223 -0.0700386 -0.0700386 -0.0700386 -0.0700386 -0.0311597 -0.0311597 -0.0311597 -0.0311597 -0.0667117 -0.0667117 -0.0667117 -0.0667117 0.0500264 0.0500264 0.0500264 0.0500264 0.000578183 0.000578183 0.000578183 0.000578183 -0.00351915 -0.00351915 -0.00351915 -0.00351915 -0.00711257 -0.00711257 -0.00711257 -0.00711257 -0.0418329 -0.0418329 -0.0418329 -0.0418329 -0.00325541 -0.00325541 -0.00325541 -0.00325541 0.0406008 0.0406008 0.0406008 0.0406008 0.0174892 0.0174892 0.0174892 0.0174892 -0.143692 -0.143692 -0.143692 -0.143692 0.0168354 0.0168354 0.0168354 0.0168354 -0.0310846 -0.0310846 -0.0310846 -0.0310846 -0.00508114 -0.00508114 -0.00508114 -0.00508114 -0.010099 -0.010099 -0.010099 -0.010099 0.0417552 0.0417552 0.0417552 0.0417552 0.0116817 0.0116817 0.0116817 0.0116817 -0.143451 -0.143451 -0.143451 -0.143451 -0.006253 -0.006253 -0.006253 -0.006253 0.0168959 0.0168959 0.0168959 0.0168959 -0.198417 -0.198417 -0.198417 -0.198417 -0.137636 -0.137636 -0.137636 -0.137636 -0.0974584 -0.0974584 -0.0974584 -0.0974584 0.129348 0.129348 0.129348 0.129348 -0.0448709 -0.0448709 -0.0448709 -0.0448709 0.0380115 0.0380115 0.0380115 0.0380115 0.109342 0.109342 0.109342 0.109342 0.141411 0.141411 0.141411 0.141411 -0.0944523 -0.0944523 -0.0944523 -0.0944523 -0.0508595 -0.0508595 -0.0508595 -0.0508595 -0.00879912 -0.00879912 -0.00879912 -0.00879912 -0.00228886 -0.00228886 -0.00228886 -0.00228886 0.0509335 0.0509335 0.0509335 0.0509335 -0.00319269 -0.00319269 -0.00319269 -0.00319269 -0.0148975 -0.0148975 -0.0148975 -0.0148975 -0.066477 -0.066477 -0.066477 -0.066477 -0.0189922 -0.0189922 -0.0189922 -0.0189922 -0.100257 -0.100257 -0.100257 -0.100257 -0.00901966 -0.00901966 -0.00901966 -0.00901966 -0.086448 -0.086448 -0.086448 -0.086448 0.0127769 0.0127769 0.0127769 0.0127769 -0.0392414 -0.0392414 -0.0392414 -0.0392414 0.015742 0.015742 0.015742 0.015742 0.0199286 0.0199286 0.0199286 0.0199286 -0.00318179 -0.00318179 -0.00318179 -0.00318179 0.0103806 0.0103806 0.0103806 0.0103806 0.072292 0.072292 0.072292 0.072292 -0.0679911 -0.0679911 -0.0679911 -0.0679911 -0.0104092 -0.0104092 -0.0104092 -0.0104092 -0.0587184 -0.0587184 -0.0587184 -0.0587184 -4.71953e-05 -4.71953e-05 -4.71953e-05 -4.71953e-05 -0.0460906 -0.0460906 -0.0460906 -0.0460906 -0.0375046 -0.0375046 -0.0375046 -0.0375046 -0.00662074 -0.00662074 -0.00662074 -0.00662074 -0.102063 -0.102063 -0.102063 -0.102063 -0.00575224 -0.00575224 -0.00575224 -0.00575224 -0.00570844 -0.00570844 -0.00570844 -0.00570844 -0.0450519 -0.0450519 -0.0450519 -0.0450519 -0.0576673 -0.0576673 -0.0576673 -0.0576673 -0.0126962 -0.0126962 -0.0126962 -0.0126962 0.0036305 0.0036305 0.0036305 0.0036305 0.00371398 0.00371398 0.00371398 0.00371398 -0.126883 -0.126883 -0.126883 -0.126883 -0.0350212 -0.0350212 -0.0350212 -0.0350212 -0.113347 -0.113347 -0.113347 -0.113347 -0.111563 -0.111563 -0.111563 -0.111563 -0.0319904 -0.0319904 -0.0319904 -0.0319904 0.0352794 0.0352794 0.0352794 0.0352794 0.0922851 0.0922851 0.0922851 0.0922851 0.149938 0.149938 0.149938 0.149938 0.148375 0.148375 0.148375 0.148375 0.0748149 0.0748149 0.0748149 0.0748149 -0.00421572 -0.00421572 -0.00421572 -0.00421572 -0.0111146 -0.0111146 -0.0111146 -0.0111146 0.0250071 0.0250071 0.0250071 0.0250071 -0.075198 -0.075198 -0.075198 -0.075198 0.0240086 0.0240086 0.0240086 0.0240086 -0.0191419 -0.0191419 -0.0191419 -0.0191419 -0.0513195 -0.0513195 -0.0513195 -0.0513195 0.000401031 0.000401031 0.000401031 0.000401031 -0.120471 -0.120471 -0.120471 -0.120471 -0.213809 -0.213809 -0.213809 -0.213809 -0.0561525 -0.0561525 -0.0561525 -0.0561525 -0.0628969 -0.0628969 -0.0628969 -0.0628969 -0.0241447 -0.0241447 -0.0241447 -0.0241447 0.00782608 0.00782608 0.00782608 0.00782608 -0.165156 -0.165156 -0.165156 -0.165156 -0.042068 -0.042068 -0.042068 -0.042068 0.0730281 0.0730281 0.0730281 0.0730281 -0.0369403 -0.0369403 -0.0369403 -0.0369403 0.0130581 0.0130581 0.0130581 0.0130581 0.0433536 0.0433536 0.0433536 0.0433536 -0.00565225 -0.00565225 -0.00565225 -0.00565225 0.0192551 0.0192551 0.0192551 0.0192551 -0.00232352 -0.00232352 -0.00232352 -0.00232352 0.0975746 0.0975746 0.0975746 0.0975746 -0.124735 -0.124735 -0.124735 -0.124735 -0.0233201 -0.0233201 -0.0233201 -0.0233201 0.0329412 0.0329412 0.0329412 0.0329412 -0.0721597 -0.0721597 -0.0721597 -0.0721597 0.00656539 0.00656539 0.00656539 0.00656539 0.0183029 0.0183029 0.0183029 0.0183029 -0.0434377 -0.0434377 -0.0434377 -0.0434377 -0.0939446 -0.0939446 -0.0939446 -0.0939446 0.0184252 0.0184252 0.0184252 0.0184252 0.0127008 0.0127008 0.0127008 0.0127008 0.055389 0.055389 0.055389 0.055389 -0.0637754 -0.0637754 -0.0637754 -0.0637754 0.014734 0.014734 0.014734 0.014734 -0.0175579 -0.0175579 -0.0175579 -0.0175579 -0.0883897 -0.0883897 -0.0883897 -0.0883897 -0.0417921 -0.0417921 -0.0417921 -0.0417921 0.0296984 0.0296984 0.0296984 0.0296984 -0.00431039 -0.00431039 -0.00431039 -0.00431039 0.00226615 0.00226615 0.00226615 0.00226615 0.0265319 0.0265319 0.0265319 0.0265319 -0.0116014 -0.0116014 -0.0116014 -0.0116014 -0.0905857 -0.0905857 -0.0905857 -0.0905857 0.040827 0.040827 0.040827 0.040827 -0.00512698 -0.00512698 -0.00512698 -0.00512698 0.0323896 0.0323896 0.0323896 0.0323896 0.00162818 0.00162818 0.00162818 0.00162818 -0.030625 -0.030625 -0.030625 -0.030625 -0.00285298 -0.00285298 -0.00285298 -0.00285298 -0.00268397 -0.00268397 -0.00268397 -0.00268397 -0.00364659 -0.00364659 -0.00364659 -0.00364659 0.00419432 0.00419432 0.00419432 0.00419432 0.0624768 0.0624768 0.0624768 0.0624768 -0.0960897 -0.0960897 -0.0960897 -0.0960897 -0.0275194 -0.0275194 -0.0275194 -0.0275194 -0.022748 -0.022748 -0.022748 -0.022748 0.0969933 0.0969933 0.0969933 0.0969933 -0.0596395 -0.0596395 -0.0596395 -0.0596395 -0.151406 -0.151406 -0.151406 -0.151406 0.0388912 0.0388912 0.0388912 0.0388912 -0.00409273 -0.00409273 -0.00409273 -0.00409273 -0.174249 -0.174249 -0.174249 -0.174249 0.0160115 0.0160115 0.0160115 0.0160115 -0.0664447 -0.0664447 -0.0664447 -0.0664447 -0.0016249 -0.0016249 -0.0016249 -0.0016249 -0.00274386 -0.00274386 -0.00274386 -0.00274386 0.00502957 0.00502957 0.00502957 0.00502957 -0.0893211 -0.0893211 -0.0893211 -0.0893211 0.0209458 0.0209458 0.0209458 0.0209458 0.0317601 0.0317601 0.0317601 0.0317601 0.0196787 0.0196787 0.0196787 0.0196787 -0.00260424 -0.00260424 -0.00260424 -0.00260424 0.0500923 0.0500923 0.0500923 0.0500923 0.00799812 0.00799812 0.00799812 0.00799812 -0.0881101 -0.0881101 -0.0881101 -0.0881101 -0.00762225 -0.00762225 -0.00762225 -0.00762225 0.0458686 0.0458686 0.0458686 0.0458686 0.0505224 0.0505224 0.0505224 0.0505224 -0.00159519 -0.00159519 -0.00159519 -0.00159519 0.144559 0.144559 0.144559 0.144559 0.0245888 0.0245888 0.0245888 0.0245888 0.0107702 0.0107702 0.0107702 0.0107702 0.00947694 0.00947694 0.00947694 0.00947694 -0.0616153 -0.0616153 -0.0616153 -0.0616153 -0.028153 -0.028153 -0.028153 -0.028153 -0.0132306 -0.0132306 -0.0132306 -0.0132306 0.0319155 0.0319155 0.0319155 0.0319155 -0.11714 -0.11714 -0.11714 -0.11714 0.0505304 0.0505304 0.0505304 0.0505304 -0.0470717 -0.0470717 -0.0470717 -0.0470717 -0.00864787 -0.00864787 -0.00864787 -0.00864787 -0.173793 -0.173793 -0.173793 -0.173793 -0.0076133 -0.0076133 -0.0076133 -0.0076133 -0.00875073 -0.00875073 -0.00875073 -0.00875073 -0.0884007 -0.0884007 -0.0884007 -0.0884007 0.129179 0.129179 0.129179 0.129179 -0.0352156 -0.0352156 -0.0352156 -0.0352156 -0.0890861 -0.0890861 -0.0890861 -0.0890861 0.0520841 0.0520841 0.0520841 0.0520841 -0.00385871 -0.00385871 -0.00385871 -0.00385871 -0.0316336 -0.0316336 -0.0316336 -0.0316336 -0.0367825 -0.0367825 -0.0367825 -0.0367825 0.0831478 0.0831478 0.0831478 0.0831478 -0.000485882 -0.000485882 -0.000485882 -0.000485882 -0.0170066 -0.0170066 -0.0170066 -0.0170066 -0.0894723 -0.0894723 -0.0894723 -0.0894723 -0.0879434 -0.0879434 -0.0879434 -0.0879434 -0.0145325 -0.0145325 -0.0145325 -0.0145325 0.0218462 0.0218462 0.0218462 0.0218462 0.0160312 0.0160312 0.0160312 0.0160312 -0.00198793 -0.00198793 -0.00198793 -0.00198793 0.0108102 0.0108102 0.0108102 0.0108102 -0.088454 -0.088454 -0.088454 -0.088454 -0.114453 -0.114453 -0.114453 -0.114453 -0.0117523 -0.0117523 -0.0117523 -0.0117523 0.0398862 0.0398862 0.0398862 0.0398862 -0.0886375 -0.0886375 -0.0886375 -0.0886375 -0.0025328 -0.0025328 -0.0025328 -0.0025328 0.0520872 0.0520872 0.0520872 0.0520872 0.132383 0.132383 0.132383 0.132383 -0.08404 -0.08404 -0.08404 -0.08404 -0.0115609 -0.0115609 -0.0115609 -0.0115609 0.0988554 0.0988554 0.0988554 0.0988554 -0.0199581 -0.0199581 -0.0199581 -0.0199581 -0.00404402 -0.00404402 -0.00404402 -0.00404402 -0.0259378 -0.0259378 -0.0259378 -0.0259378 0.0889672 0.0889672 0.0889672 0.0889672 -0.0353647 -0.0353647 -0.0353647 -0.0353647 -0.0134339 -0.0134339 -0.0134339 -0.0134339 -0.00229992 -0.00229992 -0.00229992 -0.00229992 -0.0553077 -0.0553077 -0.0553077 -0.0553077 -0.00459746 -0.00459746 -0.00459746 -0.00459746 0.0209053 0.0209053 0.0209053 0.0209053 0.0230959 0.0230959 0.0230959 0.0230959 0.153424 0.153424 0.153424 0.153424 -0.120665 -0.120665 -0.120665 -0.120665 0.018103 0.018103 0.018103 0.018103 0.180778 0.180778 0.180778 0.180778 0.010102 0.010102 0.010102 0.010102 0.0161816 0.0161816 0.0161816 0.0161816 -0.0670826 -0.0670826 -0.0670826 -0.0670826 -0.00386037 -0.00386037 -0.00386037 -0.00386037 0.0277754 0.0277754 0.0277754 0.0277754 -0.0104749 -0.0104749 -0.0104749 -0.0104749 0.0101228 0.0101228 0.0101228 0.0101228 0.0596103 0.0596103 0.0596103 0.0596103 0.0828793 0.0828793 0.0828793 0.0828793 0.0403449 0.0403449 0.0403449 0.0403449 0.00940673 0.00940673 0.00940673 0.00940673 0.0488816 0.0488816 0.0488816 0.0488816 0.118046 0.118046 0.118046 0.118046 -0.0164594 -0.0164594 -0.0164594 -0.0164594 0.0345751 0.0345751 0.0345751 0.0345751 -0.00298163 -0.00298163 -0.00298163 -0.00298163 0.259095 0.259095 0.259095 0.259095 0.289442 0.289442 0.289442 0.289442 0.0695614 0.0695614 0.0695614 0.0695614 -0.00143147 -0.00143147 -0.00143147 -0.00143147 -0.0455165 -0.0455165 -0.0455165 -0.0455165 -0.0577961 -0.0577961 -0.0577961 -0.0577961 0.0652689 0.0652689 0.0652689 0.0652689 0.190305 0.190305 0.190305 0.190305 0.0181843 0.0181843 0.0181843 0.0181843 0.0620764 0.0620764 0.0620764 0.0620764 0.0675959 0.0675959 0.0675959 0.0675959 0.111626 0.111626 0.111626 0.111626 -0.173792 -0.173792 -0.173792 -0.173792 0.0545311 0.0545311 0.0545311 0.0545311 0.033793 0.033793 0.033793 0.033793 -0.00262555 -0.00262555 -0.00262555 -0.00262555 -0.155628 -0.155628 -0.155628 -0.155628 0.00478292 0.00478292 0.00478292 0.00478292 -0.00223444 -0.00223444 -0.00223444 -0.00223444 0.0276477 0.0276477 0.0276477 0.0276477 0.0228863 0.0228863 0.0228863 0.0228863 0.0169372 0.0169372 0.0169372 0.0169372 0.00722734 0.00722734 0.00722734 0.00722734 -0.0572839 -0.0572839 -0.0572839 -0.0572839 0.0242986 0.0242986 0.0242986 0.0242986 0.0844564 0.0844564 0.0844564 0.0844564 0.00322459 0.00322459 0.00322459 0.00322459 -0.0705253 -0.0705253 -0.0705253 -0.0705253 0.0231496 0.0231496 0.0231496 0.0231496 0.0845181 0.0845181 0.0845181 0.0845181 0.00251129 0.00251129 0.00251129 0.00251129 -0.0297698 -0.0297698 -0.0297698 -0.0297698 -0.0135935 -0.0135935 -0.0135935 -0.0135935 0.0248686 0.0248686 0.0248686 0.0248686 -0.0401581 -0.0401581 -0.0401581 -0.0401581 0.0756334 0.0756334 0.0756334 0.0756334 -0.0138469 -0.0138469 -0.0138469 -0.0138469 0.119335 0.119335 0.119335 0.119335 0.0681343 0.0681343 0.0681343 0.0681343 -0.0257782 -0.0257782 -0.0257782 -0.0257782 -0.0558115 -0.0558115 -0.0558115 -0.0558115 0.00735668 0.00735668 0.00735668 0.00735668 -0.00599295 -0.00599295 -0.00599295 -0.00599295 -0.0124629 -0.0124629 -0.0124629 -0.0124629 0.0405849 0.0405849 0.0405849 0.0405849 -0.0803825 -0.0803825 -0.0803825 -0.0803825 -0.0134911 -0.0134911 -0.0134911 -0.0134911 0.0245913 0.0245913 0.0245913 0.0245913 -0.0402144 -0.0402144 -0.0402144 -0.0402144 0.0120233 0.0120233 0.0120233 0.0120233 -0.0336404 -0.0336404 -0.0336404 -0.0336404 -0.038367 -0.038367 -0.038367 -0.038367 -0.0817942 -0.0817942 -0.0817942 -0.0817942 0.0125525 0.0125525 0.0125525 0.0125525 -0.0480827 -0.0480827 -0.0480827 -0.0480827 0.192 0.192 0.192 0.192 0.14542 0.14542 0.14542 0.14542 -0.00461541 -0.00461541 -0.00461541 -0.00461541 0.00756136 0.00756136 0.00756136 0.00756136 0.0473105 0.0473105 0.0473105 0.0473105 -0.00828579 -0.00828579 -0.00828579 -0.00828579 0.08715 0.08715 0.08715 0.08715 -0.00975484 -0.00975484 -0.00975484 -0.00975484 -0.0397208 -0.0397208 -0.0397208 -0.0397208 -0.0450534 -0.0450534 -0.0450534 -0.0450534 -0.0150932 -0.0150932 -0.0150932 -0.0150932 0.0233868 0.0233868 0.0233868 0.0233868 0.20057 0.20057 0.20057 0.20057 -0.0019204 -0.0019204 -0.0019204 -0.0019204 0.0694651 0.0694651 0.0694651 0.0694651 -0.00083916 -0.00083916 -0.00083916 -0.00083916 -0.0680468 -0.0680468 -0.0680468 -0.0680468 -0.00794011 -0.00794011 -0.00794011 -0.00794011 0.0104019 0.0104019 0.0104019 0.0104019 -0.0711975 -0.0711975 -0.0711975 -0.0711975 0.0164627 0.0164627 0.0164627 0.0164627 0.0588159 0.0588159 0.0588159 0.0588159 0.0923004 0.0923004 0.0923004 0.0923004 0.111052 0.111052 0.111052 0.111052 0.0163794 0.0163794 0.0163794 0.0163794 0.080987 0.080987 0.080987 0.080987 0.00892997 0.00892997 0.00892997 0.00892997 0.0250507 0.0250507 0.0250507 0.0250507 0.0271609 0.0271609 0.0271609 0.0271609 -0.00220587 -0.00220587 -0.00220587 -0.00220587 0.021262 0.021262 0.021262 0.021262 0.243976 0.243976 0.243976 0.243976 0.100565 0.100565 0.100565 0.100565 -0.0105023 -0.0105023 -0.0105023 -0.0105023 0.0195393 0.0195393 0.0195393 0.0195393 -0.0700422 -0.0700422 -0.0700422 -0.0700422 -0.0410241 -0.0410241 -0.0410241 -0.0410241 0.0604416 0.0604416 0.0604416 0.0604416 0.00776594 0.00776594 0.00776594 0.00776594 0.0120143 0.0120143 0.0120143 0.0120143 -0.0159713 -0.0159713 -0.0159713 -0.0159713 0.0131831 0.0131831 0.0131831 0.0131831 -0.000568455 -0.000568455 -0.000568455 -0.000568455 -0.014021 -0.014021 -0.014021 -0.014021 -0.0910846 -0.0910846 -0.0910846 -0.0910846 0.410011 0.410011 0.410011 0.410011 0.0625204 0.0625204 0.0625204 0.0625204 0.177781 0.177781 0.177781 0.177781 -0.0102918 -0.0102918 -0.0102918 -0.0102918 0.141019 0.141019 0.141019 0.141019 -0.0049282 -0.0049282 -0.0049282 -0.0049282 0.102302 0.102302 0.102302 0.102302 0.066831 0.066831 0.066831 0.066831 0.025165 0.025165 0.025165 0.025165 -0.0558441 -0.0558441 -0.0558441 -0.0558441 0.176255 0.176255 0.176255 0.176255 -0.00277702 -0.00277702 -0.00277702 -0.00277702 -0.0559167 -0.0559167 -0.0559167 -0.0559167 -0.0704088 -0.0704088 -0.0704088 -0.0704088 -0.0051133 -0.0051133 -0.0051133 -0.0051133 0.0134347 0.0134347 0.0134347 0.0134347 0.0836013 0.0836013 0.0836013 0.0836013 0.0383628 0.0383628 0.0383628 0.0383628 0.0108153 0.0108153 0.0108153 0.0108153 0.0115414 0.0115414 0.0115414 0.0115414 0.0414366 0.0414366 0.0414366 0.0414366 -0.0155287 -0.0155287 -0.0155287 -0.0155287 -0.0491568 -0.0491568 -0.0491568 -0.0491568 0.0690385 0.0690385 0.0690385 0.0690385 -0.0397117 -0.0397117 -0.0397117 -0.0397117 0.198223 0.198223 0.198223 0.198223 -0.00771979 -0.00771979 -0.00771979 -0.00771979 0.143837 0.143837 0.143837 0.143837 -0.00529957 -0.00529957 -0.00529957 -0.00529957 -0.00698346 -0.00698346 -0.00698346 -0.00698346 -0.00352122 -0.00352122 -0.00352122 -0.00352122 0.0128581 0.0128581 0.0128581 0.0128581 0.0828381 0.0828381 0.0828381 0.0828381 -0.00262437 -0.00262437 -0.00262437 -0.00262437 -0.0138232 -0.0138232 -0.0138232 -0.0138232 0.0148349 0.0148349 0.0148349 0.0148349 0.0226001 0.0226001 0.0226001 0.0226001 0.380571 0.380571 0.380571 0.380571 0.00164527 0.00164527 0.00164527 0.00164527 0.0456397 0.0456397 0.0456397 0.0456397 0.0579168 0.0579168 0.0579168 0.0579168 -0.00335544 -0.00335544 -0.00335544 -0.00335544 -0.0615384 -0.0615384 -0.0615384 -0.0615384 -0.00363037 -0.00363037 -0.00363037 -0.00363037 -0.00998736 -0.00998736 -0.00998736 -0.00998736 0.228696 0.228696 0.228696 0.228696 0.00669132 0.00669132 0.00669132 0.00669132 -0.00998086 -0.00998086 -0.00998086 -0.00998086 0.344722 0.344722 0.344722 0.344722 -0.00339487 -0.00339487 -0.00339487 -0.00339487 -0.0039049 -0.0039049 -0.0039049 -0.0039049 -0.0288952 -0.0288952 -0.0288952 -0.0288952 -0.0022691 -0.0022691 -0.0022691 -0.0022691 -0.00455388 -0.00455388 -0.00455388 -0.00455388 0.0342384 0.0342384 0.0342384 0.0342384 0.0433018 0.0433018 0.0433018 0.0433018 0.00582941 0.00582941 0.00582941 0.00582941 -0.0175369 -0.0175369 -0.0175369 -0.0175369 -0.0115999 -0.0115999 -0.0115999 -0.0115999 -0.00727664 -0.00727664 -0.00727664 -0.00727664 0.0268916 0.0268916 0.0268916 0.0268916 0.140844 0.140844 0.140844 0.140844 0.0188831 0.0188831 0.0188831 0.0188831 0.13337 0.13337 0.13337 0.13337 0.0213631 0.0213631 0.0213631 0.0213631 -0.00295149 -0.00295149 -0.00295149 -0.00295149 -0.025721 -0.025721 -0.025721 -0.025721 -0.0214556 -0.0214556 -0.0214556 -0.0214556 -0.000615423 -0.000615423 -0.000615423 -0.000615423 0.0953986 0.0953986 0.0953986 0.0953986 0.0238976 0.0238976 0.0238976 0.0238976 0.320758 0.320758 0.320758 0.320758 -0.0547965 -0.0547965 -0.0547965 -0.0547965 -0.0596232 -0.0596232 -0.0596232 -0.0596232 0.402017 0.402017 0.402017 0.402017 0.295868 0.295868 0.295868 0.295868 -0.00393979 -0.00393979 -0.00393979 -0.00393979 -0.0143899 -0.0143899 -0.0143899 -0.0143899 0.0359069 0.0359069 0.0359069 0.0359069 -0.00250404 -0.00250404 -0.00250404 -0.00250404 0.122189 0.122189 0.122189 0.122189 -0.0281516 -0.0281516 -0.0281516 -0.0281516 0.0182568 0.0182568 0.0182568 0.0182568 0.165879 0.165879 0.165879 0.165879 -0.00303905 -0.00303905 -0.00303905 -0.00303905 0.0274371 0.0274371 0.0274371 0.0274371 -0.00632911 -0.00632911 -0.00632911 -0.00632911 -0.00524113 -0.00524113 -0.00524113 -0.00524113 0.107067 0.107067 0.107067 0.107067 -0.00718578 -0.00718578 -0.00718578 -0.00718578 0.00919831 0.00919831 0.00919831 0.00919831 -0.00592786 -0.00592786 -0.00592786 -0.00592786 -0.00672402 -0.00672402 -0.00672402 -0.00672402 -0.0121378 -0.0121378 -0.0121378 -0.0121378 0.000815098 0.000815098 0.000815098 0.000815098 0.441096 0.441096 0.441096 0.441096 -0.00884267 -0.00884267 -0.00884267 -0.00884267 -0.0748274 -0.0748274 -0.0748274 -0.0748274 -0.00829853 -0.00829853 -0.00829853 -0.00829853 -0.00388526 -0.00388526 -0.00388526 -0.00388526 -0.00356234 -0.00356234 -0.00356234 -0.00356234 0.172331 0.172331 0.172331 0.172331 -0.00635271 -0.00635271 -0.00635271 -0.00635271 -0.0337941 -0.0337941 -0.0337941 -0.0337941 -0.00169628 -0.00169628 -0.00169628 -0.00169628 -0.00441863 -0.00441863 -0.00441863 -0.00441863 -0.00390343 -0.00390343 -0.00390343 -0.00390343 -0.00323341 -0.00323341 -0.00323341 -0.00323341 -0.00824484 -0.00824484 -0.00824484 -0.00824484 -0.0074017 -0.0074017 -0.0074017 -0.0074017 -0.00827232 -0.00827232 -0.00827232 -0.00827232 -0.00620132 -0.00620132 -0.00620132 -0.00620132 -0.00380999 -0.00380999 -0.00380999 -0.00380999 0.00598208 0.00598208 0.00598208 0.00598208 0.00151233 0.00151233 0.00151233 0.00151233 0.000594214 0.000594214 0.000594214 0.000594214 -0.00524878 -0.00524878 -0.00524878 -0.00524878 -0.00110955 -0.00110955 -0.00110955 -0.00110955 -0.00405614 -0.00405614 -0.00405614 -0.00405614 0.0628094 0.0628094 0.0628094 0.0628094 -0.00329647 -0.00329647 -0.00329647 -0.00329647 0.0698014 0.0698014 0.0698014 0.0698014 -0.000830609 -0.000830609 -0.000830609 -0.000830609 -0.00464803 -0.00464803 -0.00464803 -0.00464803 -0.00186715 -0.00186715 -0.00186715 -0.00186715 -0.0160161 -0.0160161 -0.0160161 -0.0160161 0.0144608 0.0144608 0.0144608 0.0144608 0.00175923 0.00175923 0.00175923 0.00175923 -0.00448215 -0.00448215 -0.00448215 -0.00448215 -0.006838 -0.006838 -0.006838 -0.006838 -0.0399646 -0.0399646 -0.0399646 -0.0399646 -0.0104419 -0.0104419 -0.0104419 -0.0104419 -0.0056617 -0.0056617 -0.0056617 -0.0056617 -0.00417329 -0.00417329 -0.00417329 -0.00417329 -0.002236 -0.002236 -0.002236 -0.002236 0.212333 0.212333 0.212333 0.212333 -0.00206129 -0.00206129 -0.00206129 -0.00206129 0.0136909 0.0136909 0.0136909 0.0136909 -0.0034655 -0.0034655 -0.0034655 -0.0034655 -0.00793157 -0.00793157 -0.00793157 -0.00793157 -0.0247213 -0.0247213 -0.0247213 -0.0247213 -0.00589364 -0.00589364 -0.00589364 -0.00589364 -0.0694385 -0.0694385 -0.0694385 -0.0694385 -0.00411254 -0.00411254 -0.00411254 -0.00411254 -0.00608079 -0.00608079 -0.00608079 -0.00608079 -0.149809 -0.149809 -0.149809 -0.149809 -0.00467003 -0.00467003 -0.00467003 -0.00467003 -0.0692939 -0.0692939 -0.0692939 -0.0692939 0.334845 0.334845 0.334845 0.334845 0.0422844 0.0422844 0.0422844 0.0422844 -0.00289696 -0.00289696 -0.00289696 -0.00289696 -0.00381232 -0.00381232 -0.00381232 -0.00381232 0.00733579 0.00733579 0.00733579 0.00733579 -0.00888967 -0.00888967 -0.00888967 -0.00888967 -0.00435668 -0.00435668 -0.00435668 -0.00435668 -0.00739619 -0.00739619 -0.00739619 -0.00739619 -0.000168633 -0.000168633 -0.000168633 -0.000168633 -0.0507634 -0.0507634 -0.0507634 -0.0507634 -0.0583153 -0.0583153 -0.0583153 -0.0583153 0.108358 0.108358 0.108358 0.108358 -0.00237086 -0.00237086 -0.00237086 -0.00237086 0.0141299 0.0141299 0.0141299 0.0141299 0.204939 0.204939 0.204939 0.204939 -0.0536145 -0.0536145 -0.0536145 -0.0536145 0.00101188 0.00101188 0.00101188 0.00101188 0.107515 0.107515 0.107515 0.107515 0.0371051 0.0371051 0.0371051 0.0371051 -0.00371788 -0.00371788 -0.00371788 -0.00371788 0.0675159 0.0675159 0.0675159 0.0675159 -0.0213282 -0.0213282 -0.0213282 -0.0213282 0.0730822 0.0730822 0.0730822 0.0730822 0.0179461 0.0179461 0.0179461 0.0179461 -0.00325688 -0.00325688 -0.00325688 -0.00325688 -0.0160216 -0.0160216 -0.0160216 -0.0160216 0.385924 0.385924 0.385924 0.385924 -0.0216897 -0.0216897 -0.0216897 -0.0216897 0.190616 0.190616 0.190616 0.190616 0.0779052 0.0779052 0.0779052 0.0779052 0.272551 0.272551 0.272551 0.272551 -0.00647495 -0.00647495 -0.00647495 -0.00647495 -0.049708 -0.049708 -0.049708 -0.049708 0.00161399 0.00161399 0.00161399 0.00161399 -0.00053753 -0.00053753 -0.00053753 -0.00053753 -0.0130197 -0.0130197 -0.0130197 -0.0130197 -0.0350365 -0.0350365 -0.0350365 -0.0350365 0.000655375 0.000655375 0.000655375 0.000655375 0.252084 0.252084 0.252084 0.252084 0.0905707 0.0905707 0.0905707 0.0905707 0.0479363 0.0479363 0.0479363 0.0479363 0.131496 0.131496 0.131496 0.131496 0.177361 0.177361 0.177361 0.177361 -0.0419508 -0.0419508 -0.0419508 -0.0419508 0.109278 0.109278 0.109278 0.109278 -0.0643815 -0.0643815 -0.0643815 -0.0643815 0.0709628 0.0709628 0.0709628 0.0709628 0.0136302 0.0136302 0.0136302 0.0136302 0.00441712 0.00441712 0.00441712 0.00441712 0.263328 0.263328 0.263328 0.263328 0.0418624 0.0418624 0.0418624 0.0418624 -0.0948099 -0.0948099 -0.0948099 -0.0948099 0.0446088 0.0446088 0.0446088 0.0446088 -0.0194229 -0.0194229 -0.0194229 -0.0194229 0.0267959 0.0267959 0.0267959 0.0267959 -0.00581239 -0.00581239 -0.00581239 -0.00581239 -0.0293481 -0.0293481 -0.0293481 -0.0293481 0.0281923 0.0281923 0.0281923 0.0281923 -0.0484066 -0.0484066 -0.0484066 -0.0484066 0.15411 0.15411 0.15411 0.15411 0.0883612 0.0883612 0.0883612 0.0883612 0.121556 0.121556 0.121556 0.121556 0.144959 0.144959 0.144959 0.144959 0.345577 0.345577 0.345577 0.345577 0.123703 0.123703 0.123703 0.123703 -0.00276851 -0.00276851 -0.00276851 -0.00276851 0.287492 0.287492 0.287492 0.287492 -0.0120292 -0.0120292 -0.0120292 -0.0120292 0.0343471 0.0343471 0.0343471 0.0343471 0.119913 0.119913 0.119913 0.119913 0.131435 0.131435 0.131435 0.131435 0.0144562 0.0144562 0.0144562 0.0144562 0.199853 0.199853 0.199853 0.199853 -0.00448798 -0.00448798 -0.00448798 -0.00448798 0.160582 0.160582 0.160582 0.160582 0.180239 0.180239 0.180239 0.180239 0.0133514 0.0133514 0.0133514 0.0133514 0.230807 0.230807 0.230807 0.230807 0.00360039 0.00360039 0.00360039 0.00360039 0.00389449 0.00389449 0.00389449 0.00389449 0.0140247 0.0140247 0.0140247 0.0140247 0.0125247 0.0125247 0.0125247 0.0125247 0.0329023 0.0329023 0.0329023 0.0329023 0.0360812 0.0360812 0.0360812 0.0360812 0.025583 0.025583 0.025583 0.025583 -0.0258186 -0.0258186 -0.0258186 -0.0258186 -0.00414849 -0.00414849 -0.00414849 -0.00414849 -0.00327822 -0.00327822 -0.00327822 -0.00327822 -0.00283781 -0.00283781 -0.00283781 -0.00283781 -0.00356818 -0.00356818 -0.00356818 -0.00356818 -0.036991 -0.036991 -0.036991 -0.036991 0.0410444 0.0410444 0.0410444 0.0410444 0.0146845 0.0146845 0.0146845 0.0146845 0.00722372 0.00722372 0.00722372 0.00722372 0.0319963 0.0319963 0.0319963 0.0319963 -0.00153623 -0.00153623 -0.00153623 -0.00153623 -0.00748662 -0.00748662 -0.00748662 -0.00748662 -0.00711725 -0.00711725 -0.00711725 -0.00711725 -0.00388868 -0.00388868 -0.00388868 -0.00388868 -0.00393903 -0.00393903 -0.00393903 -0.00393903 -0.107332 -0.107332 -0.107332 -0.107332 -0.117337 -0.117337 -0.117337 -0.117337 0.017624 0.017624 0.017624 0.017624 -0.0212366 -0.0212366 -0.0212366 -0.0212366 -0.00334272 -0.00334272 -0.00334272 -0.00334272 -0.00304589 -0.00304589 -0.00304589 -0.00304589 -0.003461 -0.003461 -0.003461 -0.003461 -0.000815993 -0.000815993 -0.000815993 -0.000815993 -0.000659029 -0.000659029 -0.000659029 -0.000659029 -0.103773 -0.103773 -0.103773 -0.103773 -0.102551 -0.102551 -0.102551 -0.102551 -0.204003 -0.204003 -0.204003 -0.204003 -0.20761 -0.20761 -0.20761 -0.20761 0.00562968 0.00562968 0.00562968 0.00562968 -0.0335643 -0.0335643 -0.0335643 -0.0335643 -0.00515033 -0.00515033 -0.00515033 -0.00515033 -0.014223 -0.014223 -0.014223 -0.014223 -0.0091501 -0.0091501 -0.0091501 -0.0091501 -0.0251376 -0.0251376 -0.0251376 -0.0251376 0.300413 0.300413 0.300413 0.300413 0.302126 0.302126 0.302126 0.302126 0.0445276 0.0445276 0.0445276 0.0445276 -0.122291 -0.122291 -0.122291 -0.122291 0.10756 0.10756 0.10756 0.10756 -0.0838617 -0.0838617 -0.0838617 -0.0838617 -0.058527 -0.058527 -0.058527 -0.058527 -0.039648 -0.039648 -0.039648 -0.039648 0.00955333 0.00955333 0.00955333 0.00955333 0.0543694 0.0543694 0.0543694 0.0543694 -0.022961 -0.022961 -0.022961 -0.022961 -0.0642826 -0.0642826 -0.0642826 -0.0642826 0.0374052 0.0374052 0.0374052 0.0374052 -0.0510104 -0.0510104 -0.0510104 -0.0510104 -0.00172722 -0.00172722 -0.00172722 -0.00172722 -0.00220166 -0.00220166 -0.00220166 -0.00220166 -0.0267596 -0.0267596 -0.0267596 -0.0267596 0.0341872 0.0341872 0.0341872 0.0341872 -0.0261734 -0.0261734 -0.0261734 -0.0261734 0.0525092 0.0525092 0.0525092 0.0525092 -0.00457042 -0.00457042 -0.00457042 -0.00457042 -0.00838687 -0.00838687 -0.00838687 -0.00838687 -0.00673198 -0.00673198 -0.00673198 -0.00673198 -0.0168988 -0.0168988 -0.0168988 -0.0168988 -0.0144042 -0.0144042 -0.0144042 -0.0144042 -0.00143041 -0.00143041 -0.00143041 -0.00143041 -0.00529252 -0.00529252 -0.00529252 -0.00529252 -0.00599961 -0.00599961 -0.00599961 -0.00599961 -0.00369859 -0.00369859 -0.00369859 -0.00369859 -0.0187912 -0.0187912 -0.0187912 -0.0187912 -0.0103304 -0.0103304 -0.0103304 -0.0103304 -0.0107019 -0.0107019 -0.0107019 -0.0107019 -0.000335465 -0.000335465 -0.000335465 -0.000335465 -0.00588102 -0.00588102 -0.00588102 -0.00588102 -0.0102729 -0.0102729 -0.0102729 -0.0102729 -0.0025 -0.0025 -0.0025 -0.0025 -0.0120465 -0.0120465 -0.0120465 -0.0120465 -0.00612396 -0.00612396 -0.00612396 -0.00612396 -0.0269709 -0.0269709 -0.0269709 -0.0269709 -0.0124454 -0.0124454 -0.0124454 -0.0124454 0.00207946 0.00207946 0.00207946 0.00207946 0.00668623 0.00668623 0.00668623 0.00668623 0.00436168 0.00436168 0.00436168 0.00436168 -0.0179361 -0.0179361 -0.0179361 -0.0179361 -0.0195874 -0.0195874 -0.0195874 -0.0195874 -0.0436067 -0.0436067 -0.0436067 -0.0436067 -0.0172708 -0.0172708 -0.0172708 -0.0172708 -0.0259018 -0.0259018 -0.0259018 -0.0259018 -0.00661146 -0.00661146 -0.00661146 -0.00661146 -0.00629323 -0.00629323 -0.00629323 -0.00629323 -0.0228516 -0.0228516 -0.0228516 -0.0228516 -0.0075962 -0.0075962 -0.0075962 -0.0075962 -0.0213242 -0.0213242 -0.0213242 -0.0213242 -0.00590444 -0.00590444 -0.00590444 -0.00590444 0.00154642 0.00154642 0.00154642 0.00154642 -0.0173767 -0.0173767 -0.0173767 -0.0173767 -0.0128209 -0.0128209 -0.0128209 -0.0128209 -0.0034498 -0.0034498 -0.0034498 -0.0034498 2.57566e-05 2.57566e-05 2.57566e-05 2.57566e-05 -0.00585694 -0.00585694 -0.00585694 -0.00585694 -0.0936601 -0.0936601 -0.0936601 -0.0936601 -0.0169826 -0.0169826 -0.0169826 -0.0169826 -0.002353 -0.002353 -0.002353 -0.002353 1.58016e-05 1.58016e-05 1.58016e-05 1.58016e-05 -0.014071 -0.014071 -0.014071 -0.014071 -0.0329915 -0.0329915 -0.0329915 -0.0329915 -0.0134688 -0.0134688 -0.0134688 -0.0134688 -0.00339951 -0.00339951 -0.00339951 -0.00339951 -0.0219806 -0.0219806 -0.0219806 -0.0219806 -0.0280039 -0.0280039 -0.0280039 -0.0280039 -0.0437842 -0.0437842 -0.0437842 -0.0437842 -0.0133396 -0.0133396 -0.0133396 -0.0133396 -0.0201362 -0.0201362 -0.0201362 -0.0201362 -0.00657881 -0.00657881 -0.00657881 -0.00657881 -0.00158572 -0.00158572 -0.00158572 -0.00158572 -0.00523332 -0.00523332 -0.00523332 -0.00523332 -0.0213384 -0.0213384 -0.0213384 -0.0213384 -0.0141133 -0.0141133 -0.0141133 -0.0141133 0.0160631 0.0160631 0.0160631 0.0160631 -0.00762412 -0.00762412 -0.00762412 -0.00762412 -0.0178423 -0.0178423 -0.0178423 -0.0178423 0.0103948 0.0103948 0.0103948 0.0103948 -0.00241193 -0.00241193 -0.00241193 -0.00241193 0.010881 0.010881 0.010881 0.010881 -0.0053907 -0.0053907 -0.0053907 -0.0053907 -0.0177982 -0.0177982 -0.0177982 -0.0177982 -0.0103827 -0.0103827 -0.0103827 -0.0103827 -0.0170536 -0.0170536 -0.0170536 -0.0170536 -0.00636537 -0.00636537 -0.00636537 -0.00636537 -0.014338 -0.014338 -0.014338 -0.014338 -0.0151625 -0.0151625 -0.0151625 -0.0151625 -0.0195212 -0.0195212 -0.0195212 -0.0195212 -0.0038337 -0.0038337 -0.0038337 -0.0038337 -0.0858521 -0.0858521 -0.0858521 -0.0858521 -0.0413473 -0.0413473 -0.0413473 -0.0413473 -0.0173009 -0.0173009 -0.0173009 -0.0173009 -0.00219367 -0.00219367 -0.00219367 -0.00219367 -0.0165747 -0.0165747 -0.0165747 -0.0165747 -0.0103598 -0.0103598 -0.0103598 -0.0103598 -0.00683835 -0.00683835 -0.00683835 -0.00683835 -0.010156 -0.010156 -0.010156 -0.010156 -0.00279586 -0.00279586 -0.00279586 -0.00279586 -0.00556055 -0.00556055 -0.00556055 -0.00556055 -0.0302398 -0.0302398 -0.0302398 -0.0302398 -0.00280104 -0.00280104 -0.00280104 -0.00280104 -0.0258404 -0.0258404 -0.0258404 -0.0258404 -0.0216557 -0.0216557 -0.0216557 -0.0216557 -0.00261284 -0.00261284 -0.00261284 -0.00261284 -0.00536342 -0.00536342 -0.00536342 -0.00536342 0.0124864 0.0124864 0.0124864 0.0124864 0.0108808 0.0108808 0.0108808 0.0108808 -0.0964425 -0.0964425 -0.0964425 -0.0964425 -0.00344686 -0.00344686 -0.00344686 -0.00344686 -0.04224 -0.04224 -0.04224 -0.04224 0.0078197 0.0078197 0.0078197 0.0078197 -0.0170947 -0.0170947 -0.0170947 -0.0170947 -0.00231713 -0.00231713 -0.00231713 -0.00231713 -0.0119402 -0.0119402 -0.0119402 -0.0119402 -0.0116389 -0.0116389 -0.0116389 -0.0116389 -0.0391997 -0.0391997 -0.0391997 -0.0391997 -0.0164842 -0.0164842 -0.0164842 -0.0164842 -0.00231741 -0.00231741 -0.00231741 -0.00231741 -0.048812 -0.048812 -0.048812 -0.048812 -0.0212147 -0.0212147 -0.0212147 -0.0212147 -0.00260432 -0.00260432 -0.00260432 -0.00260432 0.0203256 0.0203256 0.0203256 0.0203256 -0.0252424 -0.0252424 -0.0252424 -0.0252424 0.00498548 0.00498548 0.00498548 0.00498548 -0.0212539 -0.0212539 -0.0212539 -0.0212539 0.0084722 0.0084722 0.0084722 0.0084722 -0.0412281 -0.0412281 -0.0412281 -0.0412281 -0.0186064 -0.0186064 -0.0186064 -0.0186064 0.00512765 0.00512765 0.00512765 0.00512765 -0.0206542 -0.0206542 -0.0206542 -0.0206542 -0.0012567 -0.0012567 -0.0012567 -0.0012567 -0.00712826 -0.00712826 -0.00712826 -0.00712826 -0.0103622 -0.0103622 -0.0103622 -0.0103622 -0.002695 -0.002695 -0.002695 -0.002695 -0.000166149 -0.000166149 -0.000166149 -0.000166149 -0.0123134 -0.0123134 -0.0123134 -0.0123134 -0.00377697 -0.00377697 -0.00377697 -0.00377697 -0.00353821 -0.00353821 -0.00353821 -0.00353821 0.00422382 0.00422382 0.00422382 0.00422382 -0.0343866 -0.0343866 -0.0343866 -0.0343866 -0.0053484 -0.0053484 -0.0053484 -0.0053484 -0.00504192 -0.00504192 -0.00504192 -0.00504192 0.00645205 0.00645205 0.00645205 0.00645205 -0.0240657 -0.0240657 -0.0240657 -0.0240657 -0.0189124 -0.0189124 -0.0189124 -0.0189124 0.00843146 0.00843146 0.00843146 0.00843146 0.00421395 0.00421395 0.00421395 0.00421395 -0.00255313 -0.00255313 -0.00255313 -0.00255313 0.0251854 0.0251854 0.0251854 0.0251854 0.0368016 0.0368016 0.0368016 0.0368016 0.00331484 0.00331484 0.00331484 0.00331484 -0.00282339 -0.00282339 -0.00282339 -0.00282339 -0.00785405 -0.00785405 -0.00785405 -0.00785405 0.0102597 0.0102597 0.0102597 0.0102597 -0.0248648 -0.0248648 -0.0248648 -0.0248648 -0.0283385 -0.0283385 -0.0283385 -0.0283385 0.0165647 0.0165647 0.0165647 0.0165647 0.00868977 0.00868977 0.00868977 0.00868977 -0.00859767 -0.00859767 -0.00859767 -0.00859767 0.00934385 0.00934385 0.00934385 0.00934385 -0.0357516 -0.0357516 -0.0357516 -0.0357516 -0.00164024 -0.00164024 -0.00164024 -0.00164024 -0.0124718 -0.0124718 -0.0124718 -0.0124718 -0.0115768 -0.0115768 -0.0115768 -0.0115768 0.00131753 0.00131753 0.00131753 0.00131753 -0.0109183 -0.0109183 -0.0109183 -0.0109183 -0.0548121 -0.0548121 -0.0548121 -0.0548121 0.0179322 0.0179322 0.0179322 0.0179322 -0.0109018 -0.0109018 -0.0109018 -0.0109018 -0.0712667 -0.0712667 -0.0712667 -0.0712667 -0.000552948 -0.000552948 -0.000552948 -0.000552948 -0.00877509 -0.00877509 -0.00877509 -0.00877509 0.00781951 0.00781951 0.00781951 0.00781951 -0.00100689 -0.00100689 -0.00100689 -0.00100689 0.00951349 0.00951349 0.00951349 0.00951349 -0.0313449 -0.0313449 -0.0313449 -0.0313449 -0.013718 -0.013718 -0.013718 -0.013718 -0.00505362 -0.00505362 -0.00505362 -0.00505362 -0.00819391 -0.00819391 -0.00819391 -0.00819391 -0.0597607 -0.0597607 -0.0597607 -0.0597607 -0.00860644 -0.00860644 -0.00860644 -0.00860644 -0.0060435 -0.0060435 -0.0060435 -0.0060435 -0.0214162 -0.0214162 -0.0214162 -0.0214162 0.00327142 0.00327142 0.00327142 0.00327142 -0.017886 -0.017886 -0.017886 -0.017886 -0.00225954 -0.00225954 -0.00225954 -0.00225954 -0.0338264 -0.0338264 -0.0338264 -0.0338264 0.0336246 0.0336246 0.0336246 0.0336246 0.11502 0.11502 0.11502 0.11502 -0.0170602 -0.0170602 -0.0170602 -0.0170602 0.00324164 0.00324164 0.00324164 0.00324164 0.0156902 0.0156902 0.0156902 0.0156902 0.016517 0.016517 0.016517 0.016517 -0.011427 -0.011427 -0.011427 -0.011427 -0.0197882 -0.0197882 -0.0197882 -0.0197882 -0.0240354 -0.0240354 -0.0240354 -0.0240354 -0.0111197 -0.0111197 -0.0111197 -0.0111197 0.0155758 0.0155758 0.0155758 0.0155758 -0.0212577 -0.0212577 -0.0212577 -0.0212577 0.00739428 0.00739428 0.00739428 0.00739428 -0.00156697 -0.00156697 -0.00156697 -0.00156697 -0.0423281 -0.0423281 -0.0423281 -0.0423281 0.008582 0.008582 0.008582 0.008582 -0.0268831 -0.0268831 -0.0268831 -0.0268831 0.00507068 0.00507068 0.00507068 0.00507068 -0.019263 -0.019263 -0.019263 -0.019263 -0.00176238 -0.00176238 -0.00176238 -0.00176238 -0.00671526 -0.00671526 -0.00671526 -0.00671526 -0.0156381 -0.0156381 -0.0156381 -0.0156381 -0.00222912 -0.00222912 -0.00222912 -0.00222912 -0.156966 -0.156966 -0.156966 -0.156966 -0.0975231 -0.0975231 -0.0975231 -0.0975231 -0.0530878 -0.0530878 -0.0530878 -0.0530878 -0.112294 -0.112294 -0.112294 -0.112294 0.0308755 0.0308755 0.0308755 0.0308755 -0.00242983 -0.00242983 -0.00242983 -0.00242983 -0.0276578 -0.0276578 -0.0276578 -0.0276578 -0.0131473 -0.0131473 -0.0131473 -0.0131473 -0.0100437 -0.0100437 -0.0100437 -0.0100437 -0.0047961 -0.0047961 -0.0047961 -0.0047961 -0.0242274 -0.0242274 -0.0242274 -0.0242274 0.0183645 0.0183645 0.0183645 0.0183645 -0.0106722 -0.0106722 -0.0106722 -0.0106722 0.00168315 0.00168315 0.00168315 0.00168315 0.0140128 0.0140128 0.0140128 0.0140128 -0.0910618 -0.0910618 -0.0910618 -0.0910618 -0.0223404 -0.0223404 -0.0223404 -0.0223404 -0.000984233 -0.000984233 -0.000984233 -0.000984233 0.0971318 0.0971318 0.0971318 0.0971318 -0.0326641 -0.0326641 -0.0326641 -0.0326641 -0.148734 -0.148734 -0.148734 -0.148734 -0.018551 -0.018551 -0.018551 -0.018551 -0.0202177 -0.0202177 -0.0202177 -0.0202177 0.0191651 0.0191651 0.0191651 0.0191651 -0.032935 -0.032935 -0.032935 -0.032935 -0.0110777 -0.0110777 -0.0110777 -0.0110777 -0.0138549 -0.0138549 -0.0138549 -0.0138549 -0.0227973 -0.0227973 -0.0227973 -0.0227973 -0.0320914 -0.0320914 -0.0320914 -0.0320914 -0.00260312 -0.00260312 -0.00260312 -0.00260312 0.0481139 0.0481139 0.0481139 0.0481139 -0.0122351 -0.0122351 -0.0122351 -0.0122351 0.0133715 0.0133715 0.0133715 0.0133715 -0.00392565 -0.00392565 -0.00392565 -0.00392565 -0.0130547 -0.0130547 -0.0130547 -0.0130547 0.0111703 0.0111703 0.0111703 0.0111703 -0.0384286 -0.0384286 -0.0384286 -0.0384286 -0.0064433 -0.0064433 -0.0064433 -0.0064433 -0.11137 -0.11137 -0.11137 -0.11137 0.00657322 0.00657322 0.00657322 0.00657322 -0.0316443 -0.0316443 -0.0316443 -0.0316443 0.00588255 0.00588255 0.00588255 0.00588255 0.00296286 0.00296286 0.00296286 0.00296286 -0.00461913 -0.00461913 -0.00461913 -0.00461913 -0.0323549 -0.0323549 -0.0323549 -0.0323549 -0.0345224 -0.0345224 -0.0345224 -0.0345224 -0.0100775 -0.0100775 -0.0100775 -0.0100775 -0.100912 -0.100912 -0.100912 -0.100912 -0.000532975 -0.000532975 -0.000532975 -0.000532975 -0.0317133 -0.0317133 -0.0317133 -0.0317133 -0.0017943 -0.0017943 -0.0017943 -0.0017943 0.00545572 0.00545572 0.00545572 0.00545572 -0.0719737 -0.0719737 -0.0719737 -0.0719737 0.00465673 0.00465673 0.00465673 0.00465673 -0.0573903 -0.0573903 -0.0573903 -0.0573903 0.0277871 0.0277871 0.0277871 0.0277871 -0.0948113 -0.0948113 -0.0948113 -0.0948113 0.0238946 0.0238946 0.0238946 0.0238946 0.00313579 0.00313579 0.00313579 0.00313579 -0.0177928 -0.0177928 -0.0177928 -0.0177928 0.0177099 0.0177099 0.0177099 0.0177099 0.00258666 0.00258666 0.00258666 0.00258666 -0.0293112 -0.0293112 -0.0293112 -0.0293112 -0.102551 -0.102551 -0.102551 -0.102551 -0.0268799 -0.0268799 -0.0268799 -0.0268799 -0.0236226 -0.0236226 -0.0236226 -0.0236226 -0.100876 -0.100876 -0.100876 -0.100876 0.0371363 0.0371363 0.0371363 0.0371363 -0.181745 -0.181745 -0.181745 -0.181745 -0.0119365 -0.0119365 -0.0119365 -0.0119365 -0.0226331 -0.0226331 -0.0226331 -0.0226331 0.0111034 0.0111034 0.0111034 0.0111034 -0.043289 -0.043289 -0.043289 -0.043289 -0.00421582 -0.00421582 -0.00421582 -0.00421582 0.00534606 0.00534606 0.00534606 0.00534606 0.0271901 0.0271901 0.0271901 0.0271901 -0.0113096 -0.0113096 -0.0113096 -0.0113096 0.0213724 0.0213724 0.0213724 0.0213724 0.00351671 0.00351671 0.00351671 0.00351671 -0.00838156 -0.00838156 -0.00838156 -0.00838156 -0.0917366 -0.0917366 -0.0917366 -0.0917366 -0.0193631 -0.0193631 -0.0193631 -0.0193631 0.0158937 0.0158937 0.0158937 0.0158937 0.136145 0.136145 0.136145 0.136145 -0.0100342 -0.0100342 -0.0100342 -0.0100342 0.0173302 0.0173302 0.0173302 0.0173302 -0.0769738 -0.0769738 -0.0769738 -0.0769738 -0.0083507 -0.0083507 -0.0083507 -0.0083507 0.0257111 0.0257111 0.0257111 0.0257111 -0.002503 -0.002503 -0.002503 -0.002503 0.0126418 0.0126418 0.0126418 0.0126418 -0.0409359 -0.0409359 -0.0409359 -0.0409359 0.049551 0.049551 0.049551 0.049551 -0.00541289 -0.00541289 -0.00541289 -0.00541289 0.00111854 0.00111854 0.00111854 0.00111854 -0.205897 -0.205897 -0.205897 -0.205897 0.0136801 0.0136801 0.0136801 0.0136801 -0.159597 -0.159597 -0.159597 -0.159597 -0.0413591 -0.0413591 -0.0413591 -0.0413591 0.0252813 0.0252813 0.0252813 0.0252813 -0.0646868 -0.0646868 -0.0646868 -0.0646868 0.00386679 0.00386679 0.00386679 0.00386679 0.0141834 0.0141834 0.0141834 0.0141834 -0.000837726 -0.000837726 -0.000837726 -0.000837726 -0.00896425 -0.00896425 -0.00896425 -0.00896425 -0.0911622 -0.0911622 -0.0911622 -0.0911622 0.0027359 0.0027359 0.0027359 0.0027359 -0.0282634 -0.0282634 -0.0282634 -0.0282634 -0.0987088 -0.0987088 -0.0987088 -0.0987088 -0.0171834 -0.0171834 -0.0171834 -0.0171834 -0.0212896 -0.0212896 -0.0212896 -0.0212896 -0.0521134 -0.0521134 -0.0521134 -0.0521134 -0.0563085 -0.0563085 -0.0563085 -0.0563085 -0.17231 -0.17231 -0.17231 -0.17231 -0.00254055 -0.00254055 -0.00254055 -0.00254055 0.0057079 0.0057079 0.0057079 0.0057079 -0.0540356 -0.0540356 -0.0540356 -0.0540356 0.00263277 0.00263277 0.00263277 0.00263277 -0.0406284 -0.0406284 -0.0406284 -0.0406284 -0.0982332 -0.0982332 -0.0982332 -0.0982332 -0.0638467 -0.0638467 -0.0638467 -0.0638467 -0.0488095 -0.0488095 -0.0488095 -0.0488095 -0.016413 -0.016413 -0.016413 -0.016413 0.0292592 0.0292592 0.0292592 0.0292592 0.0304816 0.0304816 0.0304816 0.0304816 -0.0727938 -0.0727938 -0.0727938 -0.0727938 0.00135588 0.00135588 0.00135588 0.00135588 -0.098911 -0.098911 -0.098911 -0.098911 0.0413918 0.0413918 0.0413918 0.0413918 -0.108112 -0.108112 -0.108112 -0.108112 -0.00314286 -0.00314286 -0.00314286 -0.00314286 -0.180362 -0.180362 -0.180362 -0.180362 0.0217488 0.0217488 0.0217488 0.0217488 -0.127035 -0.127035 -0.127035 -0.127035 -0.0669608 -0.0669608 -0.0669608 -0.0669608 0.0431415 0.0431415 0.0431415 0.0431415 -0.00024964 -0.00024964 -0.00024964 -0.00024964 -0.00888947 -0.00888947 -0.00888947 -0.00888947 -0.00129167 -0.00129167 -0.00129167 -0.00129167 -0.0145037 -0.0145037 -0.0145037 -0.0145037 -0.0745558 -0.0745558 -0.0745558 -0.0745558 0.000581979 0.000581979 0.000581979 0.000581979 -0.07904 -0.07904 -0.07904 -0.07904 0.0177045 0.0177045 0.0177045 0.0177045 -0.0513016 -0.0513016 -0.0513016 -0.0513016 -0.0458736 -0.0458736 -0.0458736 -0.0458736 -0.0819863 -0.0819863 -0.0819863 -0.0819863 -0.0464121 -0.0464121 -0.0464121 -0.0464121 0.0330408 0.0330408 0.0330408 0.0330408 -0.00591955 -0.00591955 -0.00591955 -0.00591955 -0.142445 -0.142445 -0.142445 -0.142445 -0.0945996 -0.0945996 -0.0945996 -0.0945996 -0.0839725 -0.0839725 -0.0839725 -0.0839725 -0.0117594 -0.0117594 -0.0117594 -0.0117594 -0.000401011 -0.000401011 -0.000401011 -0.000401011 -0.00977193 -0.00977193 -0.00977193 -0.00977193 -0.0123217 -0.0123217 -0.0123217 -0.0123217 -0.029743 -0.029743 -0.029743 -0.029743 0.0181791 0.0181791 0.0181791 0.0181791 0.138653 0.138653 0.138653 0.138653 -0.06659 -0.06659 -0.06659 -0.06659 0.0957826 0.0957826 0.0957826 0.0957826 -0.0199609 -0.0199609 -0.0199609 -0.0199609 -0.150802 -0.150802 -0.150802 -0.150802 -0.0515525 -0.0515525 -0.0515525 -0.0515525 0.0642795 0.0642795 0.0642795 0.0642795 0.0191904 0.0191904 0.0191904 0.0191904 -0.232887 -0.232887 -0.232887 -0.232887 -0.218836 -0.218836 -0.218836 -0.218836 0.0495409 0.0495409 0.0495409 0.0495409 -0.0526256 -0.0526256 -0.0526256 -0.0526256 -0.0021899 -0.0021899 -0.0021899 -0.0021899 -0.00950963 -0.00950963 -0.00950963 -0.00950963 0.0378599 0.0378599 0.0378599 0.0378599 -0.197506 -0.197506 -0.197506 -0.197506 -0.0647127 -0.0647127 -0.0647127 -0.0647127 -0.00108598 -0.00108598 -0.00108598 -0.00108598 0.0258692 0.0258692 0.0258692 0.0258692 -0.0946791 -0.0946791 -0.0946791 -0.0946791 -0.00765253 -0.00765253 -0.00765253 -0.00765253 -0.0591058 -0.0591058 -0.0591058 -0.0591058 -0.0645145 -0.0645145 -0.0645145 -0.0645145 0.0026364 0.0026364 0.0026364 0.0026364 0.0504865 0.0504865 0.0504865 0.0504865 -0.0724552 -0.0724552 -0.0724552 -0.0724552 0.010356 0.010356 0.010356 0.010356 -0.0917912 -0.0917912 -0.0917912 -0.0917912 0.0174125 0.0174125 0.0174125 0.0174125 0.0442944 0.0442944 0.0442944 0.0442944 -0.00341961 -0.00341961 -0.00341961 -0.00341961 -0.0228805 -0.0228805 -0.0228805 -0.0228805 0.0270248 0.0270248 0.0270248 0.0270248 -0.0335643 -0.0335643 -0.0335643 -0.0335643 -0.0522355 -0.0522355 -0.0522355 -0.0522355 -0.0485787 -0.0485787 -0.0485787 -0.0485787 0.0956769 0.0956769 0.0956769 0.0956769 -0.0273477 -0.0273477 -0.0273477 -0.0273477 0.0153573 0.0153573 0.0153573 0.0153573 0.0169554 0.0169554 0.0169554 0.0169554 -0.124529 -0.124529 -0.124529 -0.124529 0.0109081 0.0109081 0.0109081 0.0109081 0.013804 0.013804 0.013804 0.013804 0.00356916 0.00356916 0.00356916 0.00356916 -0.0369262 -0.0369262 -0.0369262 -0.0369262 0.131155 0.131155 0.131155 0.131155 0.0264451 0.0264451 0.0264451 0.0264451 -0.187598 -0.187598 -0.187598 -0.187598 0.0442776 0.0442776 0.0442776 0.0442776 0.00162575 0.00162575 0.00162575 0.00162575 -0.155041 -0.155041 -0.155041 -0.155041 0.0765105 0.0765105 0.0765105 0.0765105 -0.0662365 -0.0662365 -0.0662365 -0.0662365 0.0120809 0.0120809 0.0120809 0.0120809 0.00207155 0.00207155 0.00207155 0.00207155 0.00473203 0.00473203 0.00473203 0.00473203 -0.0215537 -0.0215537 -0.0215537 -0.0215537 -0.0717877 -0.0717877 -0.0717877 -0.0717877 -0.0348701 -0.0348701 -0.0348701 -0.0348701 -0.0539943 -0.0539943 -0.0539943 -0.0539943 -0.0271494 -0.0271494 -0.0271494 -0.0271494 -0.00463858 -0.00463858 -0.00463858 -0.00463858 0.0539372 0.0539372 0.0539372 0.0539372 -0.017541 -0.017541 -0.017541 -0.017541 -0.0352712 -0.0352712 -0.0352712 -0.0352712 -0.0891449 -0.0891449 -0.0891449 -0.0891449 -0.0694447 -0.0694447 -0.0694447 -0.0694447 -0.0136636 -0.0136636 -0.0136636 -0.0136636 0.0374156 0.0374156 0.0374156 0.0374156 -0.0342596 -0.0342596 -0.0342596 -0.0342596 -0.0100633 -0.0100633 -0.0100633 -0.0100633 -0.0298586 -0.0298586 -0.0298586 -0.0298586 -0.147411 -0.147411 -0.147411 -0.147411 -0.145863 -0.145863 -0.145863 -0.145863 -0.0143325 -0.0143325 -0.0143325 -0.0143325 -0.202485 -0.202485 -0.202485 -0.202485 0.195534 0.195534 0.195534 0.195534 0.022043 0.022043 0.022043 0.022043 0.0115244 0.0115244 0.0115244 0.0115244 0.0452708 0.0452708 0.0452708 0.0452708 -0.177022 -0.177022 -0.177022 -0.177022 -0.110478 -0.110478 -0.110478 -0.110478 0.0153305 0.0153305 0.0153305 0.0153305 -0.0584625 -0.0584625 -0.0584625 -0.0584625 -0.0586475 -0.0586475 -0.0586475 -0.0586475 -0.114728 -0.114728 -0.114728 -0.114728 -0.0609019 -0.0609019 -0.0609019 -0.0609019 -0.00295756 -0.00295756 -0.00295756 -0.00295756 -0.0457238 -0.0457238 -0.0457238 -0.0457238 0.0223721 0.0223721 0.0223721 0.0223721 0.0366946 0.0366946 0.0366946 0.0366946 -0.036632 -0.036632 -0.036632 -0.036632 -0.114502 -0.114502 -0.114502 -0.114502 0.00709413 0.00709413 0.00709413 0.00709413 -0.0672764 -0.0672764 -0.0672764 -0.0672764 0.0469804 0.0469804 0.0469804 0.0469804 -0.158622 -0.158622 -0.158622 -0.158622 0.0331363 0.0331363 0.0331363 0.0331363 0.0873916 0.0873916 0.0873916 0.0873916 0.0236724 0.0236724 0.0236724 0.0236724 -0.0700386 -0.0700386 -0.0700386 -0.0700386 -0.0311597 -0.0311597 -0.0311597 -0.0311597 -0.051096 -0.051096 -0.051096 -0.051096 0.0500781 0.0500781 0.0500781 0.0500781 0.0163106 0.0163106 0.0163106 0.0163106 -0.00234514 -0.00234514 -0.00234514 -0.00234514 0.00445493 0.00445493 0.00445493 0.00445493 -0.0397673 -0.0397673 -0.0397673 -0.0397673 0.00489542 0.00489542 0.00489542 0.00489542 0.0377593 0.0377593 0.0377593 0.0377593 0.0181084 0.0181084 0.0181084 0.0181084 -0.134191 -0.134191 -0.134191 -0.134191 0.0282161 0.0282161 0.0282161 0.0282161 -0.0324198 -0.0324198 -0.0324198 -0.0324198 -0.00508114 -0.00508114 -0.00508114 -0.00508114 -0.00818715 -0.00818715 -0.00818715 -0.00818715 0.0424766 0.0424766 0.0424766 0.0424766 0.0171126 0.0171126 0.0171126 0.0171126 -0.14118 -0.14118 -0.14118 -0.14118 -0.006253 -0.006253 -0.006253 -0.006253 0.0487847 0.0487847 0.0487847 0.0487847 -0.187403 -0.187403 -0.187403 -0.187403 -0.137779 -0.137779 -0.137779 -0.137779 -0.0930698 -0.0930698 -0.0930698 -0.0930698 -0.0325467 -0.0325467 -0.0325467 -0.0325467 0.129256 0.129256 0.129256 0.129256 0.0894722 0.0894722 0.0894722 0.0894722 0.152505 0.152505 0.152505 0.152505 0.160165 0.160165 0.160165 0.160165 -0.093159 -0.093159 -0.093159 -0.093159 -0.051091 -0.051091 -0.051091 -0.051091 0.00358879 0.00358879 0.00358879 0.00358879 -0.00228886 -0.00228886 -0.00228886 -0.00228886 0.105178 0.105178 0.105178 0.105178 -0.00319269 -0.00319269 -0.00319269 -0.00319269 -0.0152388 -0.0152388 -0.0152388 -0.0152388 -0.0520986 -0.0520986 -0.0520986 -0.0520986 -0.0202913 -0.0202913 -0.0202913 -0.0202913 -0.0980582 -0.0980582 -0.0980582 -0.0980582 0.00965011 0.00965011 0.00965011 0.00965011 -0.0846176 -0.0846176 -0.0846176 -0.0846176 0.0340531 0.0340531 0.0340531 0.0340531 -0.0358199 -0.0358199 -0.0358199 -0.0358199 0.0102044 0.0102044 0.0102044 0.0102044 0.0216555 0.0216555 0.0216555 0.0216555 0.00535333 0.00535333 0.00535333 0.00535333 0.01515 0.01515 0.01515 0.01515 0.0709925 0.0709925 0.0709925 0.0709925 -0.0679911 -0.0679911 -0.0679911 -0.0679911 -0.0171852 -0.0171852 -0.0171852 -0.0171852 -0.0551866 -0.0551866 -0.0551866 -0.0551866 -0.00345373 -0.00345373 -0.00345373 -0.00345373 -0.0460906 -0.0460906 -0.0460906 -0.0460906 -0.0280768 -0.0280768 -0.0280768 -0.0280768 -0.00662074 -0.00662074 -0.00662074 -0.00662074 -0.102063 -0.102063 -0.102063 -0.102063 -0.00588186 -0.00588186 -0.00588186 -0.00588186 -0.00570844 -0.00570844 -0.00570844 -0.00570844 -0.0259681 -0.0259681 -0.0259681 -0.0259681 -0.0571609 -0.0571609 -0.0571609 -0.0571609 0.00239288 0.00239288 0.00239288 0.00239288 0.0146234 0.0146234 0.0146234 0.0146234 0.0111422 0.0111422 0.0111422 0.0111422 -0.126883 -0.126883 -0.126883 -0.126883 -0.0350212 -0.0350212 -0.0350212 -0.0350212 -0.113347 -0.113347 -0.113347 -0.113347 -0.111563 -0.111563 -0.111563 -0.111563 -0.00977332 -0.00977332 -0.00977332 -0.00977332 0.0114712 0.0114712 0.0114712 0.0114712 0.0931629 0.0931629 0.0931629 0.0931629 0.147874 0.147874 0.147874 0.147874 0.146156 0.146156 0.146156 0.146156 0.0759326 0.0759326 0.0759326 0.0759326 0.00907622 0.00907622 0.00907622 0.00907622 -0.0111146 -0.0111146 -0.0111146 -0.0111146 0.0256221 0.0256221 0.0256221 0.0256221 -0.0136307 -0.0136307 -0.0136307 -0.0136307 0.0256544 0.0256544 0.0256544 0.0256544 0.00618964 0.00618964 0.00618964 0.00618964 -0.0475569 -0.0475569 -0.0475569 -0.0475569 2.9574e-05 2.9574e-05 2.9574e-05 2.9574e-05 -0.117444 -0.117444 -0.117444 -0.117444 -0.187079 -0.187079 -0.187079 -0.187079 -0.0554387 -0.0554387 -0.0554387 -0.0554387 -0.0799912 -0.0799912 -0.0799912 -0.0799912 -0.00549579 -0.00549579 -0.00549579 -0.00549579 0.0260436 0.0260436 0.0260436 0.0260436 -0.165599 -0.165599 -0.165599 -0.165599 -0.042068 -0.042068 -0.042068 -0.042068 0.0717764 0.0717764 0.0717764 0.0717764 -0.0369403 -0.0369403 -0.0369403 -0.0369403 0.0111332 0.0111332 0.0111332 0.0111332 0.0404495 0.0404495 0.0404495 0.0404495 -0.00565225 -0.00565225 -0.00565225 -0.00565225 0.0422049 0.0422049 0.0422049 0.0422049 0.0178693 0.0178693 0.0178693 0.0178693 0.0962867 0.0962867 0.0962867 0.0962867 -0.121091 -0.121091 -0.121091 -0.121091 -0.0231441 -0.0231441 -0.0231441 -0.0231441 0.0329412 0.0329412 0.0329412 0.0329412 -0.072826 -0.072826 -0.072826 -0.072826 0.0351848 0.0351848 0.0351848 0.0351848 -0.0085575 -0.0085575 -0.0085575 -0.0085575 -0.0434377 -0.0434377 -0.0434377 -0.0434377 -0.096403 -0.096403 -0.096403 -0.096403 0.0196328 0.0196328 0.0196328 0.0196328 0.0168741 0.0168741 0.0168741 0.0168741 0.0734729 0.0734729 0.0734729 0.0734729 -0.0480759 -0.0480759 -0.0480759 -0.0480759 0.0417508 0.0417508 0.0417508 0.0417508 -0.0174718 -0.0174718 -0.0174718 -0.0174718 -0.0858563 -0.0858563 -0.0858563 -0.0858563 -0.0417921 -0.0417921 -0.0417921 -0.0417921 0.0298867 0.0298867 0.0298867 0.0298867 -0.00475419 -0.00475419 -0.00475419 -0.00475419 0.032526 0.032526 0.032526 0.032526 0.0224798 0.0224798 0.0224798 0.0224798 -0.0152722 -0.0152722 -0.0152722 -0.0152722 -0.0904223 -0.0904223 -0.0904223 -0.0904223 0.0318319 0.0318319 0.0318319 0.0318319 -0.000432617 -0.000432617 -0.000432617 -0.000432617 0.048918 0.048918 0.048918 0.048918 0.0165477 0.0165477 0.0165477 0.0165477 -0.030625 -0.030625 -0.030625 -0.030625 0.0180477 0.0180477 0.0180477 0.0180477 0.00379672 0.00379672 0.00379672 0.00379672 -0.00364659 -0.00364659 -0.00364659 -0.00364659 0.0248567 0.0248567 0.0248567 0.0248567 0.0852886 0.0852886 0.0852886 0.0852886 -0.0943403 -0.0943403 -0.0943403 -0.0943403 -0.00241888 -0.00241888 -0.00241888 -0.00241888 0.00122769 0.00122769 0.00122769 0.00122769 0.111885 0.111885 0.111885 0.111885 -0.0596395 -0.0596395 -0.0596395 -0.0596395 -0.151406 -0.151406 -0.151406 -0.151406 0.0386219 0.0386219 0.0386219 0.0386219 0.00607287 0.00607287 0.00607287 0.00607287 -0.174421 -0.174421 -0.174421 -0.174421 0.021501 0.021501 0.021501 0.021501 -0.0664447 -0.0664447 -0.0664447 -0.0664447 -0.0157486 -0.0157486 -0.0157486 -0.0157486 -0.00274386 -0.00274386 -0.00274386 -0.00274386 0.0251752 0.0251752 0.0251752 0.0251752 -0.0893211 -0.0893211 -0.0893211 -0.0893211 0.0243685 0.0243685 0.0243685 0.0243685 0.0317601 0.0317601 0.0317601 0.0317601 0.0235841 0.0235841 0.0235841 0.0235841 0.0038511 0.0038511 0.0038511 0.0038511 0.0890339 0.0890339 0.0890339 0.0890339 0.025872 0.025872 0.025872 0.025872 -0.0881101 -0.0881101 -0.0881101 -0.0881101 -0.00761472 -0.00761472 -0.00761472 -0.00761472 0.0459868 0.0459868 0.0459868 0.0459868 0.089758 0.089758 0.089758 0.089758 0.000149522 0.000149522 0.000149522 0.000149522 0.0125053 0.0125053 0.0125053 0.0125053 0.0339527 0.0339527 0.0339527 0.0339527 0.156049 0.156049 0.156049 0.156049 0.00488211 0.00488211 0.00488211 0.00488211 -0.0645438 -0.0645438 -0.0645438 -0.0645438 -0.034811 -0.034811 -0.034811 -0.034811 0.0513867 0.0513867 0.0513867 0.0513867 -0.0247395 -0.0247395 -0.0247395 -0.0247395 -0.115488 -0.115488 -0.115488 -0.115488 0.0485143 0.0485143 0.0485143 0.0485143 -0.0470717 -0.0470717 -0.0470717 -0.0470717 -0.173793 -0.173793 -0.173793 -0.173793 -0.0110105 -0.0110105 -0.0110105 -0.0110105 -0.0076133 -0.0076133 -0.0076133 -0.0076133 0.0244512 0.0244512 0.0244512 0.0244512 -0.0799996 -0.0799996 -0.0799996 -0.0799996 0.130026 0.130026 0.130026 0.130026 -0.033077 -0.033077 -0.033077 -0.033077 -0.0890861 -0.0890861 -0.0890861 -0.0890861 0.0726405 0.0726405 0.0726405 0.0726405 0.0214139 0.0214139 0.0214139 0.0214139 -0.0367825 -0.0367825 -0.0367825 -0.0367825 -0.0316336 -0.0316336 -0.0316336 -0.0316336 0.0837776 0.0837776 0.0837776 0.0837776 0.00414659 0.00414659 0.00414659 0.00414659 -0.0156497 -0.0156497 -0.0156497 -0.0156497 -0.0894723 -0.0894723 -0.0894723 -0.0894723 -0.0879434 -0.0879434 -0.0879434 -0.0879434 0.00145951 0.00145951 0.00145951 0.00145951 0.0202931 0.0202931 0.0202931 0.0202931 0.0102102 0.0102102 0.0102102 0.0102102 0.0220233 0.0220233 0.0220233 0.0220233 0.0143846 0.0143846 0.0143846 0.0143846 -0.088454 -0.088454 -0.088454 -0.088454 -0.114453 -0.114453 -0.114453 -0.114453 -0.0117523 -0.0117523 -0.0117523 -0.0117523 0.0853685 0.0853685 0.0853685 0.0853685 -0.0886375 -0.0886375 -0.0886375 -0.0886375 0.0124816 0.0124816 0.0124816 0.0124816 0.0674924 0.0674924 0.0674924 0.0674924 -0.0762233 -0.0762233 -0.0762233 -0.0762233 0.13334 0.13334 0.13334 0.13334 -0.0115609 -0.0115609 -0.0115609 -0.0115609 0.0986336 0.0986336 0.0986336 0.0986336 -0.0199581 -0.0199581 -0.0199581 -0.0199581 -0.00404402 -0.00404402 -0.00404402 -0.00404402 -0.0259378 -0.0259378 -0.0259378 -0.0259378 0.0875001 0.0875001 0.0875001 0.0875001 -0.0353647 -0.0353647 -0.0353647 -0.0353647 -0.0134339 -0.0134339 -0.0134339 -0.0134339 -0.00525061 -0.00525061 -0.00525061 -0.00525061 -0.0553077 -0.0553077 -0.0553077 -0.0553077 -0.00459746 -0.00459746 -0.00459746 -0.00459746 0.0323381 0.0323381 0.0323381 0.0323381 0.01687 0.01687 0.01687 0.01687 0.153544 0.153544 0.153544 0.153544 -0.120665 -0.120665 -0.120665 -0.120665 0.0180999 0.0180999 0.0180999 0.0180999 0.182192 0.182192 0.182192 0.182192 0.0219674 0.0219674 0.0219674 0.0219674 0.0416842 0.0416842 0.0416842 0.0416842 -0.0670826 -0.0670826 -0.0670826 -0.0670826 -0.0176709 -0.0176709 -0.0176709 -0.0176709 0.00430745 0.00430745 0.00430745 0.00430745 0.0482425 0.0482425 0.0482425 0.0482425 0.0169921 0.0169921 0.0169921 0.0169921 0.145402 0.145402 0.145402 0.145402 0.0828557 0.0828557 0.0828557 0.0828557 0.0403449 0.0403449 0.0403449 0.0403449 0.0342631 0.0342631 0.0342631 0.0342631 0.0694292 0.0694292 0.0694292 0.0694292 0.117228 0.117228 0.117228 0.117228 -0.0194469 -0.0194469 -0.0194469 -0.0194469 -0.0164594 -0.0164594 -0.0164594 -0.0164594 0.0308953 0.0308953 0.0308953 0.0308953 -0.00298163 -0.00298163 -0.00298163 -0.00298163 0.259473 0.259473 0.259473 0.259473 0.28959 0.28959 0.28959 0.28959 0.0686876 0.0686876 0.0686876 0.0686876 -0.00143147 -0.00143147 -0.00143147 -0.00143147 -0.0298957 -0.0298957 -0.0298957 -0.0298957 -0.0577961 -0.0577961 -0.0577961 -0.0577961 0.0508219 0.0508219 0.0508219 0.0508219 0.192103 0.192103 0.192103 0.192103 0.0181843 0.0181843 0.0181843 0.0181843 0.0877973 0.0877973 0.0877973 0.0877973 0.066392 0.066392 0.066392 0.066392 0.11598 0.11598 0.11598 0.11598 -0.173792 -0.173792 -0.173792 -0.173792 0.0527413 0.0527413 0.0527413 0.0527413 0.0843913 0.0843913 0.0843913 0.0843913 0.0048886 0.0048886 0.0048886 0.0048886 -0.160165 -0.160165 -0.160165 -0.160165 0.00478292 0.00478292 0.00478292 0.00478292 -0.00223444 -0.00223444 -0.00223444 -0.00223444 0.0500918 0.0500918 0.0500918 0.0500918 0.0286426 0.0286426 0.0286426 0.0286426 0.0273863 0.0273863 0.0273863 0.0273863 0.0123545 0.0123545 0.0123545 0.0123545 0.028506 0.028506 0.028506 0.028506 -0.0426171 -0.0426171 -0.0426171 -0.0426171 0.0425754 0.0425754 0.0425754 0.0425754 0.0858682 0.0858682 0.0858682 0.0858682 0.00707534 0.00707534 0.00707534 0.00707534 -0.0705253 -0.0705253 -0.0705253 -0.0705253 0.0158633 0.0158633 0.0158633 0.0158633 0.0108101 0.0108101 0.0108101 0.0108101 0.0846059 0.0846059 0.0846059 0.0846059 -0.0297698 -0.0297698 -0.0297698 -0.0297698 -0.0199083 -0.0199083 -0.0199083 -0.0199083 0.0264004 0.0264004 0.0264004 0.0264004 -0.0346382 -0.0346382 -0.0346382 -0.0346382 0.0749305 0.0749305 0.0749305 0.0749305 0.131637 0.131637 0.131637 0.131637 -0.0315928 -0.0315928 -0.0315928 -0.0315928 0.0670074 0.0670074 0.0670074 0.0670074 -0.0257782 -0.0257782 -0.0257782 -0.0257782 -0.0586627 -0.0586627 -0.0586627 -0.0586627 0.00735668 0.00735668 0.00735668 0.00735668 -0.00396878 -0.00396878 -0.00396878 -0.00396878 -0.0124629 -0.0124629 -0.0124629 -0.0124629 0.0624002 0.0624002 0.0624002 0.0624002 -0.0803825 -0.0803825 -0.0803825 -0.0803825 -0.0134911 -0.0134911 -0.0134911 -0.0134911 0.0253878 0.0253878 0.0253878 0.0253878 -0.0402144 -0.0402144 -0.0402144 -0.0402144 0.0120233 0.0120233 0.0120233 0.0120233 -0.0336404 -0.0336404 -0.0336404 -0.0336404 -0.038367 -0.038367 -0.038367 -0.038367 -0.0817942 -0.0817942 -0.0817942 -0.0817942 0.0339048 0.0339048 0.0339048 0.0339048 -0.0480827 -0.0480827 -0.0480827 -0.0480827 0.19384 0.19384 0.19384 0.19384 -0.00461541 -0.00461541 -0.00461541 -0.00461541 0.157354 0.157354 0.157354 0.157354 0.029465 0.029465 0.029465 0.029465 0.0671703 0.0671703 0.0671703 0.0671703 -0.00828579 -0.00828579 -0.00828579 -0.00828579 0.0860878 0.0860878 0.0860878 0.0860878 -0.00664198 -0.00664198 -0.00664198 -0.00664198 -0.0397208 -0.0397208 -0.0397208 -0.0397208 -0.0450534 -0.0450534 -0.0450534 -0.0450534 -0.027558 -0.027558 -0.027558 -0.027558 0.201818 0.201818 0.201818 0.201818 0.0128114 0.0128114 0.0128114 0.0128114 0.00584854 0.00584854 0.00584854 0.00584854 0.0983655 0.0983655 0.0983655 0.0983655 0.00447942 0.00447942 0.00447942 0.00447942 -0.0680468 -0.0680468 -0.0680468 -0.0680468 -0.00794011 -0.00794011 -0.00794011 -0.00794011 0.0142081 0.0142081 0.0142081 0.0142081 -0.0711975 -0.0711975 -0.0711975 -0.0711975 0.0250602 0.0250602 0.0250602 0.0250602 0.0945534 0.0945534 0.0945534 0.0945534 0.057449 0.057449 0.057449 0.057449 0.111845 0.111845 0.111845 0.111845 0.0234357 0.0234357 0.0234357 0.0234357 0.0849938 0.0849938 0.0849938 0.0849938 -0.000142029 -0.000142029 -0.000142029 -0.000142029 0.0495079 0.0495079 0.0495079 0.0495079 0.02018 0.02018 0.02018 0.02018 0.256905 0.256905 0.256905 0.256905 0.00470033 0.00470033 0.00470033 0.00470033 0.0413042 0.0413042 0.0413042 0.0413042 0.0996656 0.0996656 0.0996656 0.0996656 -0.00248022 -0.00248022 -0.00248022 -0.00248022 0.0191764 0.0191764 0.0191764 0.0191764 -0.0700422 -0.0700422 -0.0700422 -0.0700422 -0.0410241 -0.0410241 -0.0410241 -0.0410241 0.0846063 0.0846063 0.0846063 0.0846063 0.00776594 0.00776594 0.00776594 0.00776594 0.0254122 0.0254122 0.0254122 0.0254122 -0.0159713 -0.0159713 -0.0159713 -0.0159713 0.00733966 0.00733966 0.00733966 0.00733966 0.0128987 0.0128987 0.0128987 0.0128987 -0.005394 -0.005394 -0.005394 -0.005394 -0.0892627 -0.0892627 -0.0892627 -0.0892627 0.409605 0.409605 0.409605 0.409605 0.0554799 0.0554799 0.0554799 0.0554799 0.194421 0.194421 0.194421 0.194421 0.143968 0.143968 0.143968 0.143968 -0.0102918 -0.0102918 -0.0102918 -0.0102918 -0.0049282 -0.0049282 -0.0049282 -0.0049282 0.102835 0.102835 0.102835 0.102835 0.0270326 0.0270326 0.0270326 0.0270326 0.0453807 0.0453807 0.0453807 0.0453807 -0.0558441 -0.0558441 -0.0558441 -0.0558441 0.171499 0.171499 0.171499 0.171499 -0.00277702 -0.00277702 -0.00277702 -0.00277702 -0.0414783 -0.0414783 -0.0414783 -0.0414783 -0.0568956 -0.0568956 -0.0568956 -0.0568956 -0.0051133 -0.0051133 -0.0051133 -0.0051133 0.0834412 0.0834412 0.0834412 0.0834412 0.0135765 0.0135765 0.0135765 0.0135765 0.0387876 0.0387876 0.0387876 0.0387876 -0.00911393 -0.00911393 -0.00911393 -0.00911393 0.0739961 0.0739961 0.0739961 0.0739961 0.0114162 0.0114162 0.0114162 0.0114162 -0.0155287 -0.0155287 -0.0155287 -0.0155287 -0.0491568 -0.0491568 -0.0491568 -0.0491568 0.0680165 0.0680165 0.0680165 0.0680165 0.199346 0.199346 0.199346 0.199346 -0.0397117 -0.0397117 -0.0397117 -0.0397117 -0.00771979 -0.00771979 -0.00771979 -0.00771979 0.144257 0.144257 0.144257 0.144257 -0.00529957 -0.00529957 -0.00529957 -0.00529957 -0.00698346 -0.00698346 -0.00698346 -0.00698346 0.0209216 0.0209216 0.0209216 0.0209216 0.0128581 0.0128581 0.0128581 0.0128581 0.0843711 0.0843711 0.0843711 0.0843711 0.00305424 0.00305424 0.00305424 0.00305424 -0.0138232 -0.0138232 -0.0138232 -0.0138232 0.0386162 0.0386162 0.0386162 0.0386162 0.0323635 0.0323635 0.0323635 0.0323635 0.381895 0.381895 0.381895 0.381895 0.0257826 0.0257826 0.0257826 0.0257826 0.0784575 0.0784575 0.0784575 0.0784575 0.0456397 0.0456397 0.0456397 0.0456397 -0.015332 -0.015332 -0.015332 -0.015332 -0.0170379 -0.0170379 -0.0170379 -0.0170379 0.00560823 0.00560823 0.00560823 0.00560823 0.237846 0.237846 0.237846 0.237846 0.0444638 0.0444638 0.0444638 0.0444638 0.0122467 0.0122467 0.0122467 0.0122467 -0.00998086 -0.00998086 -0.00998086 -0.00998086 0.344908 0.344908 0.344908 0.344908 -0.00339487 -0.00339487 -0.00339487 -0.00339487 0.00322564 0.00322564 0.00322564 0.00322564 -0.0288952 -0.0288952 -0.0288952 -0.0288952 -0.0022691 -0.0022691 -0.0022691 -0.0022691 0.00625011 0.00625011 0.00625011 0.00625011 -0.0112602 -0.0112602 -0.0112602 -0.0112602 0.0420746 0.0420746 0.0420746 0.0420746 0.00582941 0.00582941 0.00582941 0.00582941 -0.0175369 -0.0175369 -0.0175369 -0.0175369 -0.0115999 -0.0115999 -0.0115999 -0.0115999 -0.0011926 -0.0011926 -0.0011926 -0.0011926 0.0270519 0.0270519 0.0270519 0.0270519 0.442255 0.442255 0.442255 0.442255 0.016612 0.016612 0.016612 0.016612 0.15065 0.15065 0.15065 0.15065 0.0252244 0.0252244 0.0252244 0.0252244 -0.00295149 -0.00295149 -0.00295149 -0.00295149 -0.0227199 -0.0227199 -0.0227199 -0.0227199 -0.0134351 -0.0134351 -0.0134351 -0.0134351 0.00493705 0.00493705 0.00493705 0.00493705 0.0237187 0.0237187 0.0237187 0.0237187 0.114881 0.114881 0.114881 0.114881 0.331041 0.331041 0.331041 0.331041 -0.0547965 -0.0547965 -0.0547965 -0.0547965 -0.0418256 -0.0418256 -0.0418256 -0.0418256 0.402156 0.402156 0.402156 0.402156 0.300592 0.300592 0.300592 0.300592 0.00270404 0.00270404 0.00270404 0.00270404 -0.0143899 -0.0143899 -0.0143899 -0.0143899 0.0362551 0.0362551 0.0362551 0.0362551 -0.00250404 -0.00250404 -0.00250404 -0.00250404 0.137131 0.137131 0.137131 0.137131 -0.0281516 -0.0281516 -0.0281516 -0.0281516 0.0207091 0.0207091 0.0207091 0.0207091 0.167496 0.167496 0.167496 0.167496 -0.00303905 -0.00303905 -0.00303905 -0.00303905 0.0274371 0.0274371 0.0274371 0.0274371 -0.00632911 -0.00632911 -0.00632911 -0.00632911 0.00828377 0.00828377 0.00828377 0.00828377 0.109176 0.109176 0.109176 0.109176 -0.00731088 -0.00731088 -0.00731088 -0.00731088 0.00874726 0.00874726 0.00874726 0.00874726 -0.00592786 -0.00592786 -0.00592786 -0.00592786 -0.00672402 -0.00672402 -0.00672402 -0.00672402 -0.0145939 -0.0145939 -0.0145939 -0.0145939 0.00754869 0.00754869 0.00754869 0.00754869 0.440339 0.440339 0.440339 0.440339 -0.00884267 -0.00884267 -0.00884267 -0.00884267 -0.0118993 -0.0118993 -0.0118993 -0.0118993 -0.00829853 -0.00829853 -0.00829853 -0.00829853 -0.00388526 -0.00388526 -0.00388526 -0.00388526 0.00585943 0.00585943 0.00585943 0.00585943 0.444692 0.444692 0.444692 0.444692 0.0139752 0.0139752 0.0139752 0.0139752 -0.0192055 -0.0192055 -0.0192055 -0.0192055 -0.00169628 -0.00169628 -0.00169628 -0.00169628 0.00546443 0.00546443 0.00546443 0.00546443 -0.00390343 -0.00390343 -0.00390343 -0.00390343 -0.00112494 -0.00112494 -0.00112494 -0.00112494 -0.00824484 -0.00824484 -0.00824484 -0.00824484 0.0117965 0.0117965 0.0117965 0.0117965 0.0115267 0.0115267 0.0115267 0.0115267 0.014502 0.014502 0.014502 0.014502 0.00573049 0.00573049 0.00573049 0.00573049 0.0129255 0.0129255 0.0129255 0.0129255 0.0123157 0.0123157 0.0123157 0.0123157 0.0117943 0.0117943 0.0117943 0.0117943 0.00845784 0.00845784 0.00845784 0.00845784 0.0148156 0.0148156 0.0148156 0.0148156 0.0195104 0.0195104 0.0195104 0.0195104 0.0624291 0.0624291 0.0624291 0.0624291 0.0192822 0.0192822 0.0192822 0.0192822 0.0356992 0.0356992 0.0356992 0.0356992 0.0141866 0.0141866 0.0141866 0.0141866 0.0203904 0.0203904 0.0203904 0.0203904 0.0136144 0.0136144 0.0136144 0.0136144 -0.0160161 -0.0160161 -0.0160161 -0.0160161 0.0205994 0.0205994 0.0205994 0.0205994 0.0131123 0.0131123 0.0131123 0.0131123 0.00638048 0.00638048 0.00638048 0.00638048 0.0142876 0.0142876 0.0142876 0.0142876 -0.0104419 -0.0104419 -0.0104419 -0.0104419 -0.0399646 -0.0399646 -0.0399646 -0.0399646 0.00841556 0.00841556 0.00841556 0.00841556 -0.005368 -0.005368 -0.005368 -0.005368 0.0124135 0.0124135 0.0124135 0.0124135 0.484148 0.484148 0.484148 0.484148 0.00567756 0.00567756 0.00567756 0.00567756 0.0199057 0.0199057 0.0199057 0.0199057 0.00703716 0.00703716 0.00703716 0.00703716 0.011243 0.011243 0.011243 0.011243 -0.0171634 -0.0171634 -0.0171634 -0.0171634 0.0075206 0.0075206 0.0075206 0.0075206 -0.0170177 -0.0170177 -0.0170177 -0.0170177 0.00850501 0.00850501 0.00850501 0.00850501 0.0077313 0.0077313 0.0077313 0.0077313 -0.0201285 -0.0201285 -0.0201285 -0.0201285 -0.00467003 -0.00467003 -0.00467003 -0.00467003 -0.0171448 -0.0171448 -0.0171448 -0.0171448 0.335218 0.335218 0.335218 0.335218 0.0422844 0.0422844 0.0422844 0.0422844 0.00305262 0.00305262 0.00305262 0.00305262 0.00428819 0.00428819 0.00428819 0.00428819 0.0169301 0.0169301 0.0169301 0.0169301 -0.00888967 -0.00888967 -0.00888967 -0.00888967 -0.00435668 -0.00435668 -0.00435668 -0.00435668 0.00541515 0.00541515 0.00541515 0.00541515 0.00592245 0.00592245 0.00592245 0.00592245 -0.0507634 -0.0507634 -0.0507634 -0.0507634 -0.0583153 -0.0583153 -0.0583153 -0.0583153 0.104246 0.104246 0.104246 0.104246 0.00423837 0.00423837 0.00423837 0.00423837 0.0141299 0.0141299 0.0141299 0.0141299 0.380572 0.380572 0.380572 0.380572 -0.0536145 -0.0536145 -0.0536145 -0.0536145 0.110081 0.110081 0.110081 0.110081 0.00101188 0.00101188 0.00101188 0.00101188 0.0371051 0.0371051 0.0371051 0.0371051 0.00318895 0.00318895 0.00318895 0.00318895 -0.0325952 -0.0325952 -0.0325952 -0.0325952 -0.0213282 -0.0213282 -0.0213282 -0.0213282 0.0924593 0.0924593 0.0924593 0.0924593 0.0179461 0.0179461 0.0179461 0.0179461 -0.00325688 -0.00325688 -0.00325688 -0.00325688 -0.0160216 -0.0160216 -0.0160216 -0.0160216 0.384975 0.384975 0.384975 0.384975 -0.0216897 -0.0216897 -0.0216897 -0.0216897 0.192419 0.192419 0.192419 0.192419 0.097761 0.097761 0.097761 0.097761 0.287898 0.287898 0.287898 0.287898 -0.00647495 -0.00647495 -0.00647495 -0.00647495 0.00161399 0.00161399 0.00161399 0.00161399 -0.049708 -0.049708 -0.049708 -0.049708 0.00470013 0.00470013 0.00470013 0.00470013 -0.0130197 -0.0130197 -0.0130197 -0.0130197 -0.0350365 -0.0350365 -0.0350365 -0.0350365 0.000655375 0.000655375 0.000655375 0.000655375 0.251888 0.251888 0.251888 0.251888 0.0703199 0.0703199 0.0703199 0.0703199 0.0479363 0.0479363 0.0479363 0.0479363 0.147391 0.147391 0.147391 0.147391 0.194039 0.194039 0.194039 0.194039 -0.0419508 -0.0419508 -0.0419508 -0.0419508 -0.0643815 -0.0643815 -0.0643815 -0.0643815 0.12711 0.12711 0.12711 0.12711 0.0900381 0.0900381 0.0900381 0.0900381 0.0199209 0.0199209 0.0199209 0.0199209 0.00441712 0.00441712 0.00441712 0.00441712 0.41664 0.41664 0.41664 0.41664 0.0418624 0.0418624 0.0418624 0.0418624 0.0719724 0.0719724 0.0719724 0.0719724 0.0446088 0.0446088 0.0446088 0.0446088 -0.0194229 -0.0194229 -0.0194229 -0.0194229 0.0267959 0.0267959 0.0267959 0.0267959 -0.00581239 -0.00581239 -0.00581239 -0.00581239 -0.0293481 -0.0293481 -0.0293481 -0.0293481 0.0281923 0.0281923 0.0281923 0.0281923 -0.0484066 -0.0484066 -0.0484066 -0.0484066 0.156427 0.156427 0.156427 0.156427 0.106757 0.106757 0.106757 0.106757 0.037328 0.037328 0.037328 0.037328 0.156564 0.156564 0.156564 0.156564 0.34608 0.34608 0.34608 0.34608 0.0910545 0.0910545 0.0910545 0.0910545 0.0050643 0.0050643 0.0050643 0.0050643 0.299305 0.299305 0.299305 0.299305 -0.0120292 -0.0120292 -0.0120292 -0.0120292 0.0343471 0.0343471 0.0343471 0.0343471 0.116118 0.116118 0.116118 0.116118 0.144915 0.144915 0.144915 0.144915 0.0144562 0.0144562 0.0144562 0.0144562 0.201052 0.201052 0.201052 0.201052 -0.00448798 -0.00448798 -0.00448798 -0.00448798 0.16073 0.16073 0.16073 0.16073 0.181837 0.181837 0.181837 0.181837 0.0133514 0.0133514 0.0133514 0.0133514 0.242602 0.242602 0.242602 0.242602 -0.0048545 -0.0048545 -0.0048545 -0.0048545 -0.00242978 -0.00242978 -0.00242978 -0.00242978 -0.00835639 -0.00835639 -0.00835639 -0.00835639 0.00452418 0.00452418 0.00452418 0.00452418 0.0361204 0.0361204 0.0361204 0.0361204 0.03282 0.03282 0.03282 0.03282 -0.0258186 -0.0258186 -0.0258186 -0.0258186 0.0265996 0.0265996 0.0265996 0.0265996 0.000191361 0.000191361 0.000191361 0.000191361 -0.00414849 -0.00414849 -0.00414849 -0.00414849 -0.00356818 -0.00356818 -0.00356818 -0.00356818 -0.000591074 -0.000591074 -0.000591074 -0.000591074 -0.0353659 -0.0353659 -0.0353659 -0.0353659 0.0415313 0.0415313 0.0415313 0.0415313 0.00775376 0.00775376 0.00775376 0.00775376 -0.0201188 -0.0201188 -0.0201188 -0.0201188 -0.002563 -0.002563 -0.002563 -0.002563 0.0328075 0.0328075 0.0328075 0.0328075 -0.00711725 -0.00711725 -0.00711725 -0.00711725 0.00148161 0.00148161 0.00148161 0.00148161 -0.00388868 -0.00388868 -0.00388868 -0.00388868 -0.00347626 -0.00347626 -0.00347626 -0.00347626 -0.107332 -0.107332 -0.107332 -0.107332 -0.117579 -0.117579 -0.117579 -0.117579 0.0455116 0.0455116 0.0455116 0.0455116 -0.0196434 -0.0196434 -0.0196434 -0.0196434 0.00538551 0.00538551 0.00538551 0.00538551 -0.00304589 -0.00304589 -0.00304589 -0.00304589 0.000269681 0.000269681 0.000269681 0.000269681 0.00584508 0.00584508 0.00584508 0.00584508 0.00393767 0.00393767 0.00393767 0.00393767 -0.188332 -0.188332 -0.188332 -0.188332 -0.192549 -0.192549 -0.192549 -0.192549 -0.210749 -0.210749 -0.210749 -0.210749 -0.194997 -0.194997 -0.194997 -0.194997 0.019061 0.019061 0.019061 0.019061 -0.00951125 -0.00951125 -0.00951125 -0.00951125 -0.00197039 -0.00197039 -0.00197039 -0.00197039 -0.014223 -0.014223 -0.014223 -0.014223 -0.0100821 -0.0100821 -0.0100821 -0.0100821 -0.0251376 -0.0251376 -0.0251376 -0.0251376 0.31965 0.31965 0.31965 0.31965 0.301464 0.301464 0.301464 0.301464 -0.0864976 -0.0864976 -0.0864976 -0.0864976 0.107441 0.107441 0.107441 0.107441 -0.122291 -0.122291 -0.122291 -0.122291 0.0450432 0.0450432 0.0450432 0.0450432 -0.0351442 -0.0351442 -0.0351442 -0.0351442 -0.058527 -0.058527 -0.058527 -0.058527 0.0537388 0.0537388 0.0537388 0.0537388 0.00870458 0.00870458 0.00870458 0.00870458 -0.0642826 -0.0642826 -0.0642826 -0.0642826 -0.00262191 -0.00262191 -0.00262191 -0.00262191 -0.0446804 -0.0446804 -0.0446804 -0.0446804 0.0366171 0.0366171 0.0366171 0.0366171 0.000728298 0.000728298 0.000728298 0.000728298 -0.00172722 -0.00172722 -0.00172722 -0.00172722 0.0248134 0.0248134 0.0248134 0.0248134 -0.0244359 -0.0244359 -0.0244359 -0.0244359 0.0445335 0.0445335 0.0445335 0.0445335 -0.0261734 -0.0261734 -0.0261734 -0.0261734 
SCALARS StressZ float 
LOOKUP_TABLE default
100.009 100.009 100.009 100.009 100.011 100.011 100.011 100.011 100.012 100.012 100.012 100.012 100.012 100.012 100.012 100.012 100.012 100.012 100.012 100.012 100.009 100.009 100.009 100.009 100.015 100.015 100.015 100.015 100.011 100.011 100.011 100.011 100.009 100.009 100.009 100.009 100.01 100.01 100.01 100.01 100.015 100.015 100.015 100.015 100.009 100.009 100.009 100.009 100.015 100.015 100.015 100.015 100.006 100.006 100.006 100.006 100.014 100.014 100.014 100.014 100.015 100.015 100.015 100.015 100.009 100.009 100.009 100.009 100.016 100.016 100.016 100.016 100.015 100.015 100.015 100.015 100.015 100.015 100.015 100.015 100.012 100.012 100.012 100.012 100.015 100.015 100.015 100.015 100.011 100.011 100.011 100.011 100.01 100.01 100.01 100.01 99.9952 99.9952 99.9952 99.9952 100.016 100.016 100.016 100.016 100.015 100.015 100.015 100.015 100.011 100.011 100.011 100.011 100.012 100.012 100.012 100.012 100.014 100.014 100.014 100.014 100.017 100.017 100.017 100.017 100.01 100.01 100.01 100.01 100.016 100.016 100.016 100.016 100.015 100.015 100.015 100.015 100.015 100.015 100.015 100.015 100.016 100.016 100.016 100.016 100.013 100.013 100.013 100.013 100.014 100.014 100.014 100.014 100.009 100.009 100.009 100.009 100.006 100.006 100.006 100.006 100.02 100.02 100.02 100.02 99.9599 99.9599 99.9599 99.9599 100.015 100.015 100.015 100.015 100.009 100.009 100.009 100.009 100.012 100.012 100.012 100.012 100.017 100.017 100.017 100.017 100.016 100.016 100.016 100.016 100.011 100.011 100.011 100.011 100.013 100.013 100.013 100.013 100.015 100.015 100.015 100.015 100.011 100.011 100.011 100.011 100.016 100.016 100.016 100.016 100.013 100.013 100.013 100.013 100.015 100.015 100.015 100.015 100.009 100.009 100.009 100.009 100.01 100.01 100.01 100.01 100.01 100.01 100.01 100.01 100.015 100.015 100.015 100.015 100.016 100.016 100.016 100.016 100.015 100.015 100.015 100.015 100.01 100.01 100.01 100.01 100.015 100.015 100.015 100.015 100.013 100.013 100.013 100.013 100.013 100.013 100.013 100.013 100.015 100.015 100.015 100.015 100.008 100.008 100.008 100.008 100.015 100.015 100.015 100.015 100.012 100.012 100.012 100.012 100.017 100.017 100.017 100.017 100.014 100.014 100.014 100.014 100.011 100.011 100.011 100.011 100.011 100.011 100.011 100.011 100.015 100.015 100.015 100.015 100.01 100.01 100.01 100.01 100.013 100.013 100.013 100.013 100.016 100.016 100.016 100.016 100.016 100.016 100.016 100.016 100.006 100.006 100.006 100.006 100.01 100.01 100.01 100.01 100.011 100.011 100.011 100.011 100.016 100.016 100.016 100.016 100.008 100.008 100.008 100.008 100.013 100.013 100.013 100.013 100.011 100.011 100.011 100.011 100.007 100.007 100.007 100.007 100.015 100.015 100.015 100.015 100.016 100.016 100.016 100.016 100.014 100.014 100.014 100.014 99.9952 99.9952 99.9952 99.9952 100.008 100.008 100.008 100.008 100.014 100.014 100.014 100.014 100.012 100.012 100.012 100.012 100.011 100.011 100.011 100.011 100.011 100.011 100.011 100.011 100.009 100.009 100.009 100.009 100.01 100.01 100.01 100.01 100.01 100.01 100.01 100.01 100.014 100.014 100.014 100.014 100.009 100.009 100.009 100.009 100.015 100.015 100.015 100.015 100.013 100.013 100.013 100.013 100.008 100.008 100.008 100.008 100.012 100.012 100.012 100.012 99.7866 99.7866 99.7866 99.7866 100.011 100.011 100.011 100.011 99.9623 99.9623 99.9623 99.9623 100.017 100.017 100.017 100.017 100.014 100.014 100.014 100.014 99.8153 99.8153 99.8153 99.8153 100.015 100.015 100.015 100.015 100.014 100.014 100.014 100.014 100.012 100.012 100.012 100.012 100.016 100.016 100.016 100.016 100.015 100.015 100.015 100.015 99.9952 99.9952 99.9952 99.9952 100.015 100.015 100.015 100.015 100.014 100.014 100.014 100.014 100.016 100.016 100.016 100.016 100.007 100.007 100.007 100.007 100.013 100.013 100.013 100.013 100.016 100.016 100.016 100.016 100.011 100.011 100.011 100.011 100.009 100.009 100.009 100.009 100.017 100.017 100.017 100.017 100.011 100.011 100.011 100.011 100.009 100.009 100.009 100.009 99.8891 99.8891 99.8891 99.8891 100.008 100.008 100.008 100.008 99.9976 99.9976 99.9976 99.9976 100.012 100.012 100.012 100.012 100.011 100.011 100.011 100.011 100.009 100.009 100.009 100.009 100.014 100.014 100.014 100.014 100.014 100.014 100.014 100.014 100.016 100.016 100.016 100.016 100.01 100.01 100.01 100.01 100.007 100.007 100.007 100.007 99.7225 99.7225 99.7225 99.7225 99.9696 99.9696 99.9696 99.9696 100.016 100.016 100.016 100.016 100.011 100.011 100.011 100.011 100.014 100.014 100.014 100.014 100.015 100.015 100.015 100.015 99.9951 99.9951 99.9951 99.9951 100.011 100.011 100.011 100.011 100.016 100.016 100.016 100.016 100.009 100.009 100.009 100.009 100.006 100.006 100.006 100.006 99.8653 99.8653 99.8653 99.8653 100.012 100.012 100.012 100.012 100.008 100.008 100.008 100.008 100.012 100.012 100.012 100.012 100.015 100.015 100.015 100.015 100.012 100.012 100.012 100.012 100.008 100.008 100.008 100.008 100.018 100.018 100.018 100.018 100.015 100.015 100.015 100.015 100.015 100.015 100.015 100.015 100.013 100.013 100.013 100.013 100.01 100.01 100.01 100.01 100.013 100.013 100.013 100.013 100.016 100.016 100.016 100.016 100.012 100.012 100.012 100.012 99.9538 99.9538 99.9538 99.9538 100.016 100.016 100.016 100.016 100.006 100.006 100.006 100.006 100.016 100.016 100.016 100.016 100.022 100.022 100.022 100.022 100.015 100.015 100.015 100.015 100.01 100.01 100.01 100.01 100.014 100.014 100.014 100.014 99.9705 99.9705 99.9705 99.9705 100.009 100.009 100.009 100.009 100.014 100.014 100.014 100.014 100.007 100.007 100.007 100.007 100.015 100.015 100.015 100.015 100.003 100.003 100.003 100.003 99.9329 99.9329 99.9329 99.9329 100.012 100.012 100.012 100.012 100.017 100.017 100.017 100.017 100.012 100.012 100.012 100.012 100.011 100.011 100.011 100.011 100.015 100.015 100.015 100.015 99.9976 99.9976 99.9976 99.9976 99.9468 99.9468 99.9468 99.9468 100.015 100.015 100.015 100.015 99.9987 99.9987 99.9987 99.9987 100.015 100.015 100.015 100.015 100.015 100.015 100.015 100.015 99.8515 99.8515 99.8515 99.8515 100.015 100.015 100.015 100.015 99.8179 99.8179 99.8179 99.8179 100.013 100.013 100.013 100.013 99.9975 99.9975 99.9975 99.9975 99.8207 99.8207 99.8207 99.8207 100.007 100.007 100.007 100.007 100.012 100.012 100.012 100.012 100.007 100.007 100.007 100.007 99.7741 99.7741 99.7741 99.7741 99.9606 99.9606 99.9606 99.9606 100.011 100.011 100.011 100.011 99.8467 99.8467 99.8467 99.8467 100.013 100.013 100.013 100.013 100.009 100.009 100.009 100.009 100.012 100.012 100.012 100.012 99.9275 99.9275 99.9275 99.9275 100.011 100.011 100.011 100.011 100.007 100.007 100.007 100.007 100.016 100.016 100.016 100.016 100.014 100.014 100.014 100.014 100.015 100.015 100.015 100.015 100.017 100.017 100.017 100.017 100.012 100.012 100.012 100.012 99.8472 99.8472 99.8472 99.8472 100.016 100.016 100.016 100.016 100.01 100.01 100.01 100.01 99.8574 99.8574 99.8574 99.8574 100.015 100.015 100.015 100.015 100.012 100.012 100.012 100.012 100.015 100.015 100.015 100.015 100.013 100.013 100.013 100.013 100.017 100.017 100.017 100.017 99.9978 99.9978 99.9978 99.9978 100.012 100.012 100.012 100.012 100.013 100.013 100.013 100.013 100.016 100.016 100.016 100.016 100.011 100.011 100.011 100.011 100.017 100.017 100.017 100.017 100.007 100.007 100.007 100.007 100.015 100.015 100.015 100.015 100.013 100.013 100.013 100.013 100.008 100.008 100.008 100.008 100.016 100.016 100.016 100.016 100.011 100.011 100.011 100.011 99.9669 99.9669 99.9669 99.9669 100.011 100.011 100.011 100.011 99.9585 99.9585 99.9585 99.9585 100.012 100.012 100.012 100.012 100.017 100.017 100.017 100.017 100.011 100.011 100.011 100.011 100.012 100.012 100.012 100.012 100.014 100.014 100.014 100.014 100.015 100.015 100.015 100.015 100.015 100.015 100.015 100.015 100.01 100.01 100.01 100.01 99.8112 99.8112 99.8112 99.8112 100.011 100.011 100.011 100.011 100.016 100.016 100.016 100.016 100.014 100.014 100.014 100.014 100.01 100.01 100.01 100.01 100.003 100.003 100.003 100.003 100.011 100.011 100.011 100.011 100.015 100.015 100.015 100.015 100.014 100.014 100.014 100.014 100.011 100.011 100.011 100.011 99.9919 99.9919 99.9919 99.9919 100.009 100.009 100.009 100.009 100.014 100.014 100.014 100.014 99.9894 99.9894 99.9894 99.9894 100.006 100.006 100.006 100.006 100.014 100.014 100.014 100.014 99.7178 99.7178 99.7178 99.7178 100.01 100.01 100.01 100.01 99.9596 99.9596 99.9596 99.9596 99.7511 99.7511 99.7511 99.7511 99.8597 99.8597 99.8597 99.8597 100.016 100.016 100.016 100.016 99.996 99.996 99.996 99.996 100.017 100.017 100.017 100.017 100.007 100.007 100.007 100.007 100.01 100.01 100.01 100.01 99.9805 99.9805 99.9805 99.9805 100.014 100.014 100.014 100.014 100.012 100.012 100.012 100.012 100.014 100.014 100.014 100.014 100.012 100.012 100.012 100.012 100.015 100.015 100.015 100.015 99.9485 99.9485 99.9485 99.9485 99.8612 99.8612 99.8612 99.8612 100.014 100.014 100.014 100.014 100.01 100.01 100.01 100.01 100.006 100.006 100.006 100.006 100.013 100.013 100.013 100.013 100.014 100.014 100.014 100.014 100.009 100.009 100.009 100.009 99.9951 99.9951 99.9951 99.9951 100.003 100.003 100.003 100.003 100.013 100.013 100.013 100.013 99.9952 99.9952 99.9952 99.9952 99.854 99.854 99.854 99.854 100.01 100.01 100.01 100.01 100.013 100.013 100.013 100.013 99.906 99.906 99.906 99.906 100.014 100.014 100.014 100.014 99.9442 99.9442 99.9442 99.9442 100.014 100.014 100.014 100.014 99.9187 99.9187 99.9187 99.9187 100.007 100.007 100.007 100.007 100.01 100.01 100.01 100.01 100.008 100.008 100.008 100.008 100.01 100.01 100.01 100.01 100.017 100.017 100.017 100.017 100.009 100.009 100.009 100.009 99.7517 99.7517 99.7517 99.7517 99.7267 99.7267 99.7267 99.7267 100.012 100.012 100.012 100.012 100.016 100.016 100.016 100.016 99.787 99.787 99.787 99.787 99.8575 99.8575 99.8575 99.8575 99.5741 99.5741 99.5741 99.5741 100.01 100.01 100.01 100.01 100.01 100.01 100.01 100.01 100.016 100.016 100.016 100.016 100.011 100.011 100.011 100.011 99.8652 99.8652 99.8652 99.8652 99.8245 99.8245 99.8245 99.8245 99.9182 99.9182 99.9182 99.9182 99.8588 99.8588 99.8588 99.8588 99.6313 99.6313 99.6313 99.6313 99.8111 99.8111 99.8111 99.8111 99.8719 99.8719 99.8719 99.8719 99.8401 99.8401 99.8401 99.8401 100.009 100.009 100.009 100.009 99.7056 99.7056 99.7056 99.7056 100.013 100.013 100.013 100.013 100.014 100.014 100.014 100.014 99.8729 99.8729 99.8729 99.8729 99.7503 99.7503 99.7503 99.7503 100.013 100.013 100.013 100.013 99.742 99.742 99.742 99.742 100 100 100 100 99.9702 99.9702 99.9702 99.9702 99.9804 99.9804 99.9804 99.9804 100.013 100.013 100.013 100.013 100.005 100.005 100.005 100.005 99.9814 99.9814 99.9814 99.9814 99.8417 99.8417 99.8417 99.8417 99.754 99.754 99.754 99.754 100.008 100.008 100.008 100.008 99.7428 99.7428 99.7428 99.7428 100.011 100.011 100.011 100.011 99.9834 99.9834 99.9834 99.9834 100.015 100.015 100.015 100.015 99.8366 99.8366 99.8366 99.8366 100.002 100.002 100.002 100.002 99.9937 99.9937 99.9937 99.9937 99.9895 99.9895 99.9895 99.9895 99.8478 99.8478 99.8478 99.8478 99.8509 99.8509 99.8509 99.8509 99.8214 99.8214 99.8214 99.8214 100.015 100.015 100.015 100.015 100.009 100.009 100.009 100.009 100.012 100.012 100.012 100.012 100.013 100.013 100.013 100.013 100.012 100.012 100.012 100.012 99.7158 99.7158 99.7158 99.7158 99.8273 99.8273 99.8273 99.8273 99.7784 99.7784 99.7784 99.7784 99.9629 99.9629 99.9629 99.9629 100.012 100.012 100.012 100.012 99.7932 99.7932 99.7932 99.7932 99.8612 99.8612 99.8612 99.8612 99.9823 99.9823 99.9823 99.9823 100.017 100.017 100.017 100.017 99.8799 99.8799 99.8799 99.8799 99.8545 99.8545 99.8545 99.8545 100.01 100.01 100.01 100.01 99.9888 99.9888 99.9888 99.9888 100.008 100.008 100.008 100.008 99.961 99.961 99.961 99.961 100.016 100.016 100.016 100.016 99.874 99.874 99.874 99.874 99.7876 99.7876 99.7876 99.7876 100.01 100.01 100.01 100.01 100.014 100.014 100.014 100.014 99.87 99.87 99.87 99.87 100.011 100.011 100.011 100.011 99.9885 99.9885 99.9885 99.9885 99.9585 99.9585 99.9585 99.9585 99.9901 99.9901 99.9901 99.9901 99.9852 99.9852 99.9852 99.9852 99.9574 99.9574 99.9574 99.9574 100.008 100.008 100.008 100.008 99.7935 99.7935 99.7935 99.7935 100.014 100.014 100.014 100.014 99.9972 99.9972 99.9972 99.9972 99.7622 99.7622 99.7622 99.7622 100.017 100.017 100.017 100.017 99.9351 99.9351 99.9351 99.9351 99.9669 99.9669 99.9669 99.9669 99.9761 99.9761 99.9761 99.9761 99.9824 99.9824 99.9824 99.9824 99.8645 99.8645 99.8645 99.8645 100.016 100.016 100.016 100.016 100.007 100.007 100.007 100.007 99.8207 99.8207 99.8207 99.8207 99.8239 99.8239 99.8239 99.8239 100.012 100.012 100.012 100.012 100.017 100.017 100.017 100.017 99.9941 99.9941 99.9941 99.9941 99.7954 99.7954 99.7954 99.7954 99.9603 99.9603 99.9603 99.9603 99.7526 99.7526 99.7526 99.7526 100.017 100.017 100.017 100.017 100.011 100.011 100.011 100.011 99.8002 99.8002 99.8002 99.8002 99.9764 99.9764 99.9764 99.9764 99.9626 99.9626 99.9626 99.9626 100.013 100.013 100.013 100.013 99.8637 99.8637 99.8637 99.8637 99.9268 99.9268 99.9268 99.9268 99.8614 99.8614 99.8614 99.8614 100.017 100.017 100.017 100.017 100.009 100.009 100.009 100.009 99.8596 99.8596 99.8596 99.8596 99.9843 99.9843 99.9843 99.9843 100.009 100.009 100.009 100.009 99.9935 99.9935 99.9935 99.9935 99.7291 99.7291 99.7291 99.7291 100.015 100.015 100.015 100.015 100.017 100.017 100.017 100.017 99.9024 99.9024 99.9024 99.9024 100.012 100.012 100.012 100.012 100.017 100.017 100.017 100.017 100.01 100.01 100.01 100.01 99.8156 99.8156 99.8156 99.8156 99.8248 99.8248 99.8248 99.8248 99.9679 99.9679 99.9679 99.9679 99.8643 99.8643 99.8643 99.8643 99.9883 99.9883 99.9883 99.9883 99.8609 99.8609 99.8609 99.8609 99.8428 99.8428 99.8428 99.8428 100.002 100.002 100.002 100.002 100.016 100.016 100.016 100.016 100.013 100.013 100.013 100.013 99.7943 99.7943 99.7943 99.7943 99.9655 99.9655 99.9655 99.9655 100.008 100.008 100.008 100.008 100.016 100.016 100.016 100.016 99.8083 99.8083 99.8083 99.8083 99.9397 99.9397 99.9397 99.9397 99.6669 99.6669 99.6669 99.6669 100.007 100.007 100.007 100.007 99.8792 99.8792 99.8792 99.8792 99.9563 99.9563 99.9563 99.9563 100.016 100.016 100.016 100.016 99.9745 99.9745 99.9745 99.9745 99.8962 99.8962 99.8962 99.8962 100.009 100.009 100.009 100.009 99.9855 99.9855 99.9855 99.9855 99.9998 99.9998 99.9998 99.9998 99.801 99.801 99.801 99.801 99.8007 99.8007 99.8007 99.8007 99.9327 99.9327 99.9327 99.9327 100.017 100.017 100.017 100.017 99.7621 99.7621 99.7621 99.7621 99.9839 99.9839 99.9839 99.9839 99.9014 99.9014 99.9014 99.9014 100.031 100.031 100.031 100.031 100.015 100.015 100.015 100.015 100.01 100.01 100.01 100.01 100.007 100.007 100.007 100.007 99.8252 99.8252 99.8252 99.8252 100.009 100.009 100.009 100.009 99.9963 99.9963 99.9963 99.9963 100.01 100.01 100.01 100.01 99.6052 99.6052 99.6052 99.6052 100.002 100.002 100.002 100.002 99.8738 99.8738 99.8738 99.8738 100.007 100.007 100.007 100.007 99.9799 99.9799 99.9799 99.9799 99.9692 99.9692 99.9692 99.9692 100.012 100.012 100.012 100.012 99.7933 99.7933 99.7933 99.7933 100.007 100.007 100.007 100.007 99.9147 99.9147 99.9147 99.9147 99.866 99.866 99.866 99.866 99.8849 99.8849 99.8849 99.8849 99.7295 99.7295 99.7295 99.7295 99.8329 99.8329 99.8329 99.8329 99.7685 99.7685 99.7685 99.7685 99.9834 99.9834 99.9834 99.9834 99.8458 99.8458 99.8458 99.8458 99.85 99.85 99.85 99.85 99.9814 99.9814 99.9814 99.9814 99.9099 99.9099 99.9099 99.9099 100.012 100.012 100.012 100.012 100.007 100.007 100.007 100.007 99.9346 99.9346 99.9346 99.9346 100.011 100.011 100.011 100.011 99.7403 99.7403 99.7403 99.7403 99.802 99.802 99.802 99.802 99.9995 99.9995 99.9995 99.9995 99.7288 99.7288 99.7288 99.7288 100.008 100.008 100.008 100.008 99.9997 99.9997 99.9997 99.9997 100.017 100.017 100.017 100.017 99.9664 99.9664 99.9664 99.9664 99.9852 99.9852 99.9852 99.9852 100.011 100.011 100.011 100.011 100.009 100.009 100.009 100.009 100.025 100.025 100.025 100.025 99.9893 99.9893 99.9893 99.9893 99.9709 99.9709 99.9709 99.9709 99.9693 99.9693 99.9693 99.9693 99.9386 99.9386 99.9386 99.9386 100.002 100.002 100.002 100.002 100.012 100.012 100.012 100.012 99.7241 99.7241 99.7241 99.7241 100.009 100.009 100.009 100.009 100.012 100.012 100.012 100.012 100.013 100.013 100.013 100.013 100.01 100.01 100.01 100.01 100.01 100.01 100.01 100.01 99.8028 99.8028 99.8028 99.8028 99.9963 99.9963 99.9963 99.9963 99.9861 99.9861 99.9861 99.9861 100.014 100.014 100.014 100.014 99.9811 99.9811 99.9811 99.9811 99.9594 99.9594 99.9594 99.9594 100.011 100.011 100.011 100.011 99.958 99.958 99.958 99.958 100.006 100.006 100.006 100.006 99.8023 99.8023 99.8023 99.8023 99.9526 99.9526 99.9526 99.9526 99.9522 99.9522 99.9522 99.9522 99.9524 99.9524 99.9524 99.9524 99.9939 99.9939 99.9939 99.9939 99.8889 99.8889 99.8889 99.8889 99.9471 99.9471 99.9471 99.9471 99.9994 99.9994 99.9994 99.9994 99.8422 99.8422 99.8422 99.8422 100.016 100.016 100.016 100.016 99.7215 99.7215 99.7215 99.7215 99.7645 99.7645 99.7645 99.7645 99.7666 99.7666 99.7666 99.7666 99.8477 99.8477 99.8477 99.8477 99.82 99.82 99.82 99.82 99.9985 99.9985 99.9985 99.9985 99.9293 99.9293 99.9293 99.9293 99.9037 99.9037 99.9037 99.9037 100.013 100.013 100.013 100.013 99.8709 99.8709 99.8709 99.8709 100.014 100.014 100.014 100.014 99.9928 99.9928 99.9928 99.9928 100.014 100.014 100.014 100.014 99.8462 99.8462 99.8462 99.8462 100.028 100.028 100.028 100.028 100.011 100.011 100.011 100.011 100.003 100.003 100.003 100.003 100.013 100.013 100.013 100.013 99.9897 99.9897 99.9897 99.9897 99.7359 99.7359 99.7359 99.7359 99.9937 99.9937 99.9937 99.9937 99.2916 99.2916 99.2916 99.2916 99.9031 99.9031 99.9031 99.9031 100.016 100.016 100.016 100.016 99.8509 99.8509 99.8509 99.8509 100.015 100.015 100.015 100.015 99.9288 99.9288 99.9288 99.9288 100.017 100.017 100.017 100.017 100.011 100.011 100.011 100.011 99.9348 99.9348 99.9348 99.9348 99.9113 99.9113 99.9113 99.9113 100.014 100.014 100.014 100.014 100.01 100.01 100.01 100.01 99.9483 99.9483 99.9483 99.9483 99.9173 99.9173 99.9173 99.9173 99.1283 99.1283 99.1283 99.1283 99.8802 99.8802 99.8802 99.8802 99.9561 99.9561 99.9561 99.9561 99.7524 99.7524 99.7524 99.7524 99.8683 99.8683 99.8683 99.8683 99.982 99.982 99.982 99.982 99.8401 99.8401 99.8401 99.8401 100.007 100.007 100.007 100.007 99.9782 99.9782 99.9782 99.9782 100.016 100.016 100.016 100.016 99.96 99.96 99.96 99.96 100.014 100.014 100.014 100.014 100.008 100.008 100.008 100.008 100.007 100.007 100.007 100.007 100.016 100.016 100.016 100.016 99.9905 99.9905 99.9905 99.9905 99.8574 99.8574 99.8574 99.8574 99.9788 99.9788 99.9788 99.9788 100.001 100.001 100.001 100.001 99.7981 99.7981 99.7981 99.7981 99.9334 99.9334 99.9334 99.9334 99.9661 99.9661 99.9661 99.9661 100.014 100.014 100.014 100.014 100.013 100.013 100.013 100.013 99.897 99.897 99.897 99.897 99.8055 99.8055 99.8055 99.8055 99.9569 99.9569 99.9569 99.9569 99.6819 99.6819 99.6819 99.6819 100.006 100.006 100.006 100.006 99.8111 99.8111 99.8111 99.8111 99.9811 99.9811 99.9811 99.9811 100.001 100.001 100.001 100.001 99.1029 99.1029 99.1029 99.1029 100.012 100.012 100.012 100.012 100.008 100.008 100.008 100.008 99.9881 99.9881 99.9881 99.9881 100.013 100.013 100.013 100.013 99.9571 99.9571 99.9571 99.9571 100.019 100.019 100.019 100.019 100.017 100.017 100.017 100.017 99.9922 99.9922 99.9922 99.9922 100.008 100.008 100.008 100.008 99.1149 99.1149 99.1149 99.1149 99.9502 99.9502 99.9502 99.9502 99.856 99.856 99.856 99.856 99.9089 99.9089 99.9089 99.9089 99.8152 99.8152 99.8152 99.8152 99.8456 99.8456 99.8456 99.8456 99.1165 99.1165 99.1165 99.1165 99.9565 99.9565 99.9565 99.9565 99.7756 99.7756 99.7756 99.7756 100.011 100.011 100.011 100.011 99.4079 99.4079 99.4079 99.4079 99.2237 99.2237 99.2237 99.2237 99.9021 99.9021 99.9021 99.9021 100.014 100.014 100.014 100.014 99.9022 99.9022 99.9022 99.9022 99.918 99.918 99.918 99.918 99.879 99.879 99.879 99.879 99.8557 99.8557 99.8557 99.8557 99.9783 99.9783 99.9783 99.9783 99.9941 99.9941 99.9941 99.9941 100.003 100.003 100.003 100.003 99.0243 99.0243 99.0243 99.0243 100.01 100.01 100.01 100.01 99.823 99.823 99.823 99.823 100.013 100.013 100.013 100.013 99.1468 99.1468 99.1468 99.1468 99.9756 99.9756 99.9756 99.9756 99.9756 99.9756 99.9756 99.9756 99.1704 99.1704 99.1704 99.1704 99.1804 99.1804 99.1804 99.1804 99.9742 99.9742 99.9742 99.9742 99.8359 99.8359 99.8359 99.8359 100.01 100.01 100.01 100.01 99.9833 99.9833 99.9833 99.9833 99.9584 99.9584 99.9584 99.9584 99.4005 99.4005 99.4005 99.4005 99.9883 99.9883 99.9883 99.9883 99.977 99.977 99.977 99.977 100.004 100.004 100.004 100.004 99.9292 99.9292 99.9292 99.9292 99.1628 99.1628 99.1628 99.1628 99.8283 99.8283 99.8283 99.8283 100.011 100.011 100.011 100.011 99.8216 99.8216 99.8216 99.8216 99.9979 99.9979 99.9979 99.9979 100.009 100.009 100.009 100.009 99.9096 99.9096 99.9096 99.9096 99.9569 99.9569 99.9569 99.9569 100.009 100.009 100.009 100.009 99.9979 99.9979 99.9979 99.9979 99.2787 99.2787 99.2787 99.2787 99.9172 99.9172 99.9172 99.9172 100.007 100.007 100.007 100.007 99.0191 99.0191 99.0191 99.0191 99.8262 99.8262 99.8262 99.8262 99.105 99.105 99.105 99.105 99.8611 99.8611 99.8611 99.8611 99.2211 99.2211 99.2211 99.2211 99.0872 99.0872 99.0872 99.0872 99.9986 99.9986 99.9986 99.9986 100.005 100.005 100.005 100.005 99.9996 99.9996 99.9996 99.9996 100.01 100.01 100.01 100.01 99.9981 99.9981 99.9981 99.9981 98.8468 98.8468 98.8468 98.8468 99.1822 99.1822 99.1822 99.1822 99.8131 99.8131 99.8131 99.8131 99.798 99.798 99.798 99.798 99.0849 99.0849 99.0849 99.0849 99.7995 99.7995 99.7995 99.7995 99.9949 99.9949 99.9949 99.9949 99.8715 99.8715 99.8715 99.8715 99.2136 99.2136 99.2136 99.2136 99.0453 99.0453 99.0453 99.0453 100.008 100.008 100.008 100.008 98.9203 98.9203 98.9203 98.9203 98.8612 98.8612 98.8612 98.8612 99.9736 99.9736 99.9736 99.9736 100.008 100.008 100.008 100.008 99.873 99.873 99.873 99.873 99.9191 99.9191 99.9191 99.9191 98.8945 98.8945 98.8945 98.8945 99.0013 99.0013 99.0013 99.0013 99.14 99.14 99.14 99.14 99.9718 99.9718 99.9718 99.9718 99.9924 99.9924 99.9924 99.9924 99.8533 99.8533 99.8533 99.8533 99.9003 99.9003 99.9003 99.9003 99.9992 99.9992 99.9992 99.9992 99.9804 99.9804 99.9804 99.9804 100.008 100.008 100.008 100.008 99.8856 99.8856 99.8856 99.8856 99.1787 99.1787 99.1787 99.1787 100.008 100.008 100.008 100.008 99.8907 99.8907 99.8907 99.8907 99.1435 99.1435 99.1435 99.1435 99.951 99.951 99.951 99.951 100.005 100.005 100.005 100.005 98.9957 98.9957 98.9957 98.9957 99.7926 99.7926 99.7926 99.7926 99.1346 99.1346 99.1346 99.1346 100.014 100.014 100.014 100.014 100.003 100.003 100.003 100.003 99.9403 99.9403 99.9403 99.9403 99.9659 99.9659 99.9659 99.9659 99.1532 99.1532 99.1532 99.1532 99.9047 99.9047 99.9047 99.9047 99.1405 99.1405 99.1405 99.1405 100.016 100.016 100.016 100.016 99.852 99.852 99.852 99.852 99.0099 99.0099 99.0099 99.0099 99.0389 99.0389 99.0389 99.0389 99.1292 99.1292 99.1292 99.1292 99.9963 99.9963 99.9963 99.9963 98.899 98.899 98.899 98.899 99.9302 99.9302 99.9302 99.9302 98.9052 98.9052 98.9052 98.9052 100.01 100.01 100.01 100.01 99.9047 99.9047 99.9047 99.9047 99.1265 99.1265 99.1265 99.1265 99.9769 99.9769 99.9769 99.9769 99.9795 99.9795 99.9795 99.9795 99.9856 99.9856 99.9856 99.9856 100.003 100.003 100.003 100.003 98.9013 98.9013 98.9013 98.9013 99.0823 99.0823 99.0823 99.0823 99.9933 99.9933 99.9933 99.9933 99.9578 99.9578 99.9578 99.9578 100.014 100.014 100.014 100.014 99.9573 99.9573 99.9573 99.9573 99.0729 99.0729 99.0729 99.0729 99.1005 99.1005 99.1005 99.1005 99.227 99.227 99.227 99.227 100.011 100.011 100.011 100.011 99.9887 99.9887 99.9887 99.9887 99.9582 99.9582 99.9582 99.9582 99.9833 99.9833 99.9833 99.9833 99.1222 99.1222 99.1222 99.1222 100.004 100.004 100.004 100.004 98.9624 98.9624 98.9624 98.9624 99.1718 99.1718 99.1718 99.1718 99.0805 99.0805 99.0805 99.0805 99.0276 99.0276 99.0276 99.0276 100.009 100.009 100.009 100.009 99.9628 99.9628 99.9628 99.9628 100.014 100.014 100.014 100.014 99.9695 99.9695 99.9695 99.9695 100.011 100.011 100.011 100.011 100.008 100.008 100.008 100.008 99.9688 99.9688 99.9688 99.9688 99.195 99.195 99.195 99.195 99.9875 99.9875 99.9875 99.9875 99.0795 99.0795 99.0795 99.0795 99.9474 99.9474 99.9474 99.9474 99.053 99.053 99.053 99.053 99.0612 99.0612 99.0612 99.0612 98.9964 98.9964 98.9964 98.9964 99.9997 99.9997 99.9997 99.9997 99.9842 99.9842 99.9842 99.9842 100.011 100.011 100.011 100.011 99.9628 99.9628 99.9628 99.9628 99.0155 99.0155 99.0155 99.0155 98.9505 98.9505 98.9505 98.9505 99.1134 99.1134 99.1134 99.1134 98.8945 98.8945 98.8945 98.8945 99.9335 99.9335 99.9335 99.9335 99.1335 99.1335 99.1335 99.1335 99.2186 99.2186 99.2186 99.2186 98.7125 98.7125 98.7125 98.7125 99.9911 99.9911 99.9911 99.9911 99.2281 99.2281 99.2281 99.2281 99.1863 99.1863 99.1863 99.1863 99.2071 99.2071 99.2071 99.2071 99.0344 99.0344 99.0344 99.0344 99.9678 99.9678 99.9678 99.9678 98.2947 98.2947 98.2947 98.2947 99.1591 99.1591 99.1591 99.1591 99.0899 99.0899 99.0899 99.0899 100.01 100.01 100.01 100.01 98.9785 98.9785 98.9785 98.9785 100.009 100.009 100.009 100.009 99.0797 99.0797 99.0797 99.0797 98.4073 98.4073 98.4073 98.4073 99.9578 99.9578 99.9578 99.9578 99.0664 99.0664 99.0664 99.0664 99.8393 99.8393 99.8393 99.8393 100.011 100.011 100.011 100.011 99.018 99.018 99.018 99.018 98.8413 98.8413 98.8413 98.8413 100.006 100.006 100.006 100.006 99.2127 99.2127 99.2127 99.2127 99.9667 99.9667 99.9667 99.9667 99.9907 99.9907 99.9907 99.9907 98.9275 98.9275 98.9275 98.9275 98.9112 98.9112 98.9112 98.9112 99.1334 99.1334 99.1334 99.1334 100.01 100.01 100.01 100.01 99.308 99.308 99.308 99.308 99.9981 99.9981 99.9981 99.9981 99.1896 99.1896 99.1896 99.1896 99.0165 99.0165 99.0165 99.0165 100.018 100.018 100.018 100.018 99.1432 99.1432 99.1432 99.1432 100.01 100.01 100.01 100.01 100.01 100.01 100.01 100.01 100.006 100.006 100.006 100.006 99.1861 99.1861 99.1861 99.1861 99.1327 99.1327 99.1327 99.1327 100.012 100.012 100.012 100.012 99.3295 99.3295 99.3295 99.3295 98.8675 98.8675 98.8675 98.8675 99.0767 99.0767 99.0767 99.0767 98.7206 98.7206 98.7206 98.7206 100.005 100.005 100.005 100.005 98.6002 98.6002 98.6002 98.6002 99.1276 99.1276 99.1276 99.1276 98.7548 98.7548 98.7548 98.7548 98.4073 98.4073 98.4073 98.4073 100.004 100.004 100.004 100.004 98.8231 98.8231 98.8231 98.8231 99.0584 99.0584 99.0584 99.0584 100.008 100.008 100.008 100.008 98.6609 98.6609 98.6609 98.6609 98.8362 98.8362 98.8362 98.8362 100.01 100.01 100.01 100.01 100.011 100.011 100.011 100.011 99.2681 99.2681 99.2681 99.2681 100.007 100.007 100.007 100.007 100 100 100 100 98.7125 98.7125 98.7125 98.7125 99.137 99.137 99.137 99.137 99.0593 99.0593 99.0593 99.0593 100.014 100.014 100.014 100.014 100.016 100.016 100.016 100.016 100.009 100.009 100.009 100.009 99.009 99.009 99.009 99.009 98.2204 98.2204 98.2204 98.2204 98.1878 98.1878 98.1878 98.1878 99.1705 99.1705 99.1705 99.1705 98.9031 98.9031 98.9031 98.9031 100.011 100.011 100.011 100.011 98.6609 98.6609 98.6609 98.6609 99.1848 99.1848 99.1848 99.1848 100.004 100.004 100.004 100.004 99.0221 99.0221 99.0221 99.0221 99.9662 99.9662 99.9662 99.9662 98.7986 98.7986 98.7986 98.7986 99.1875 99.1875 99.1875 99.1875 98.7471 98.7471 98.7471 98.7471 98.2947 98.2947 98.2947 98.2947 98.7879 98.7879 98.7879 98.7879 100.019 100.019 100.019 100.019 98.6793 98.6793 98.6793 98.6793 98.6002 98.6002 98.6002 98.6002 100.007 100.007 100.007 100.007 99.0496 99.0496 99.0496 99.0496 99.1625 99.1625 99.1625 99.1625 100.011 100.011 100.011 100.011 99.1508 99.1508 99.1508 99.1508 100.008 100.008 100.008 100.008 98.8975 98.8975 98.8975 98.8975 100.019 100.019 100.019 100.019 100.004 100.004 100.004 100.004 99.1466 99.1466 99.1466 99.1466 100.014 100.014 100.014 100.014 99.2727 99.2727 99.2727 99.2727 100.01 100.01 100.01 100.01 100.008 100.008 100.008 100.008 98.6793 98.6793 98.6793 98.6793 100.008 100.008 100.008 100.008 98.2947 98.2947 98.2947 98.2947 100.01 100.01 100.01 100.01 98.6609 98.6609 98.6609 98.6609 100.011 100.011 100.011 100.011 100.019 100.019 100.019 100.019 100.003 100.003 100.003 100.003 98.2204 98.2204 98.2204 98.2204 100.003 100.003 100.003 100.003 98.1878 98.1878 98.1878 98.1878 100.007 100.007 100.007 100.007 99.9982 99.9982 99.9982 99.9982 100.007 100.007 100.007 100.007 100.011 100.011 100.011 100.011 100.011 100.011 100.011 100.011 100.007 100.007 100.007 100.007 100.005 100.005 100.005 100.005 100.008 100.008 100.008 100.008 99.9972 99.9972 99.9972 99.9972 100.001 100.001 100.001 100.001 100.01 100.01 100.01 100.01 100.006 100.006 100.006 100.006 100.003 100.003 100.003 100.003 100.006 100.006 100.006 100.006 100.012 100.012 100.012 100.012 98.6002 98.6002 98.6002 98.6002 100.007 100.007 100.007 100.007 98.7125 98.7125 98.7125 98.7125 100.008 100.008 100.008 100.008 100.01 100.01 100.01 100.01 100.009 100.009 100.009 100.009 100.01 100.01 100.01 100.01 100.009 100.009 100.009 100.009 100.004 100.004 100.004 100.004 100.003 100.003 100.003 100.003 100.008 100.008 100.008 100.008 99.2215 99.2215 99.2215 99.2215 100.014 100.014 100.014 100.014 100.006 100.006 100.006 100.006 100.016 100.016 100.016 100.016 100.009 100.009 100.009 100.009 98.2204 98.2204 98.2204 98.2204 100.008 100.008 100.008 100.008 100.007 100.007 100.007 100.007 100.004 100.004 100.004 100.004 100.003 100.003 100.003 100.003 98.4073 98.4073 98.4073 98.4073 100.008 100.008 100.008 100.008 98.6793 98.6793 98.6793 98.6793 100.005 100.005 100.005 100.005 100.004 100.004 100.004 100.004 98.5943 98.5943 98.5943 98.5943 100.008 100.008 100.008 100.008 98.1878 98.1878 98.1878 98.1878 98.5017 98.5017 98.5017 98.5017 98.8951 98.8951 98.8951 98.8951 99.9985 99.9985 99.9985 99.9985 99.9994 99.9994 99.9994 99.9994 100.009 100.009 100.009 100.009 98.9002 98.9002 98.9002 98.9002 100.01 100.01 100.01 100.01 100.008 100.008 100.008 100.008 100.001 100.001 100.001 100.001 99.0697 99.0697 99.0697 99.0697 98.9374 98.9374 98.9374 98.9374 99.0515 99.0515 99.0515 99.0515 100.002 100.002 100.002 100.002 98.7352 98.7352 98.7352 98.7352 98.482 98.482 98.482 98.482 99.0457 99.0457 99.0457 99.0457 99.0049 99.0049 99.0049 99.0049 99.2559 99.2559 99.2559 99.2559 98.9628 98.9628 98.9628 98.9628 100.003 100.003 100.003 100.003 98.5228 98.5228 98.5228 98.5228 99.2127 99.2127 99.2127 99.2127 99.1328 99.1328 99.1328 99.1328 99.2902 99.2902 99.2902 99.2902 100.011 100.011 100.011 100.011 100.009 100.009 100.009 100.009 98.5627 98.5627 98.5627 98.5627 99.2173 99.2173 99.2173 99.2173 99.0554 99.0554 99.0554 99.0554 99.0463 99.0463 99.0463 99.0463 98.9212 98.9212 98.9212 98.9212 100.017 100.017 100.017 100.017 99.401 99.401 99.401 99.401 99.1775 99.1775 99.1775 99.1775 99.9991 99.9991 99.9991 99.9991 99.2207 99.2207 99.2207 99.2207 99.1848 99.1848 99.1848 99.1848 99.1466 99.1466 99.1466 99.1466 98.8101 98.8101 98.8101 98.8101 98.9757 98.9757 98.9757 98.9757 98.8765 98.8765 98.8765 98.8765 99.1285 99.1285 99.1285 99.1285 99.0528 99.0528 99.0528 99.0528 99.1844 99.1844 99.1844 99.1844 98.9599 98.9599 98.9599 98.9599 99.1706 99.1706 99.1706 99.1706 98.8169 98.8169 98.8169 98.8169 100.004 100.004 100.004 100.004 99.1372 99.1372 99.1372 99.1372 98.4022 98.4022 98.4022 98.4022 99.0779 99.0779 99.0779 99.0779 98.3457 98.3457 98.3457 98.3457 98.671 98.671 98.671 98.671 98.8782 98.8782 98.8782 98.8782 99.1385 99.1385 99.1385 99.1385 100.01 100.01 100.01 100.01 99.2648 99.2648 99.2648 99.2648 99.0963 99.0963 99.0963 99.0963 99.3004 99.3004 99.3004 99.3004 98.911 98.911 98.911 98.911 98.7294 98.7294 98.7294 98.7294 98.4156 98.4156 98.4156 98.4156 99.0144 99.0144 99.0144 99.0144 98.6396 98.6396 98.6396 98.6396 98.6831 98.6831 98.6831 98.6831 99.9996 99.9996 99.9996 99.9996 98.8228 98.8228 98.8228 98.8228 99.3225 99.3225 99.3225 99.3225 98.8809 98.8809 98.8809 98.8809 98.9309 98.9309 98.9309 98.9309 98.8895 98.8895 98.8895 98.8895 99.0454 99.0454 99.0454 99.0454 98.8029 98.8029 98.8029 98.8029 99.0066 99.0066 99.0066 99.0066 98.8364 98.8364 98.8364 98.8364 98.8627 98.8627 98.8627 98.8627 99.1806 99.1806 99.1806 99.1806 98.81 98.81 98.81 98.81 100.016 100.016 100.016 100.016 100.011 100.011 100.011 100.011 100.012 100.012 100.012 100.012 100.004 100.004 100.004 100.004 100.013 100.013 100.013 100.013 100.016 100.016 100.016 100.016 100.017 100.017 100.017 100.017 100.014 100.014 100.014 100.014 100.018 100.018 100.018 100.018 100.013 100.013 100.013 100.013 100.013 100.013 100.013 100.013 100.021 100.021 100.021 100.021 99.9252 99.9252 99.9252 99.9252 99.9732 99.9732 99.9732 99.9732 100.012 100.012 100.012 100.012 100.013 100.013 100.013 100.013 100.017 100.017 100.017 100.017 100.016 100.016 100.016 100.016 100.009 100.009 100.009 100.009 100.011 100.011 100.011 100.011 100.011 100.011 100.011 100.011 100.009 100.009 100.009 100.009 99.8083 99.8083 99.8083 99.8083 99.8474 99.8474 99.8474 99.8474 100.007 100.007 100.007 100.007 100.017 100.017 100.017 100.017 100.01 100.01 100.01 100.01 100.011 100.011 100.011 100.011 100.009 100.009 100.009 100.009 100.011 100.011 100.011 100.011 100.01 100.01 100.01 100.01 99.846 99.846 99.846 99.846 99.7514 99.7514 99.7514 99.7514 99.8182 99.8182 99.8182 99.8182 99.8715 99.8715 99.8715 99.8715 99.9231 99.9231 99.9231 99.9231 99.8198 99.8198 99.8198 99.8198 100.013 100.013 100.013 100.013 100.021 100.021 100.021 100.021 99.963 99.963 99.963 99.963 99.8175 99.8175 99.8175 99.8175 98.8834 98.8834 98.8834 98.8834 98.817 98.817 98.817 98.817 99.8639 99.8639 99.8639 99.8639 99.9831 99.9831 99.9831 99.9831 99.9538 99.9538 99.9538 99.9538 99.9966 99.9966 99.9966 99.9966 99.9635 99.9635 99.9635 99.9635 99.9659 99.9659 99.9659 99.9659 99.862 99.862 99.862 99.862 99.9552 99.9552 99.9552 99.9552 99.9195 99.9195 99.9195 99.9195 99.9189 99.9189 99.9189 99.9189 99.8742 99.8742 99.8742 99.8742 99.906 99.906 99.906 99.906 100.008 100.008 100.008 100.008 100.008 100.008 100.008 100.008 99.7506 99.7506 99.7506 99.7506 99.927 99.927 99.927 99.927 99.957 99.957 99.957 99.957 99.96 99.96 99.96 99.96 100.01 100.01 100.01 100.01 100.012 100.012 100.012 100.012 100.015 100.015 100.015 100.015 100.015 100.015 100.015 100.015 100.015 100.015 100.015 100.015 100.01 100.01 100.01 100.01 100.013 100.013 100.013 100.013 100.011 100.011 100.011 100.011 100.013 100.013 100.013 100.013 100.017 100.017 100.017 100.017 100.01 100.01 100.01 100.01 100.017 100.017 100.017 100.017 100.008 100.008 100.008 100.008 100.016 100.016 100.016 100.016 100.018 100.018 100.018 100.018 100.012 100.012 100.012 100.012 100.016 100.016 100.016 100.016 100.016 100.016 100.016 100.016 100.018 100.018 100.018 100.018 100.015 100.015 100.015 100.015 100.015 100.015 100.015 100.015 100.015 100.015 100.015 100.015 100.01 100.01 100.01 100.01 99.9997 99.9997 99.9997 99.9997 100.017 100.017 100.017 100.017 100.02 100.02 100.02 100.02 100.015 100.015 100.015 100.015 100.014 100.014 100.014 100.014 100.016 100.016 100.016 100.016 100.016 100.016 100.016 100.016 100.009 100.009 100.009 100.009 100.017 100.017 100.017 100.017 100.017 100.017 100.017 100.017 100.015 100.015 100.015 100.015 100.019 100.019 100.019 100.019 100.016 100.016 100.016 100.016 100.016 100.016 100.016 100.016 100.01 100.01 100.01 100.01 100.008 100.008 100.008 100.008 100.023 100.023 100.023 100.023 99.9554 99.9554 99.9554 99.9554 100.017 100.017 100.017 100.017 100.011 100.011 100.011 100.011 100.012 100.012 100.012 100.012 100.025 100.025 100.025 100.025 100.018 100.018 100.018 100.018 100.016 100.016 100.016 100.016 100.012 100.012 100.012 100.012 100.02 100.02 100.02 100.02 100.012 100.012 100.012 100.012 100.02 100.02 100.02 100.02 100.012 100.012 100.012 100.012 100.02 100.02 100.02 100.02 100.012 100.012 100.012 100.012 100.01 100.01 100.01 100.01 100.014 100.014 100.014 100.014 100.017 100.017 100.017 100.017 100.018 100.018 100.018 100.018 100.017 100.017 100.017 100.017 100.013 100.013 100.013 100.013 100.02 100.02 100.02 100.02 100.014 100.014 100.014 100.014 100.012 100.012 100.012 100.012 100.011 100.011 100.011 100.011 100.012 100.012 100.012 100.012 100.017 100.017 100.017 100.017 100.019 100.019 100.019 100.019 100.015 100.015 100.015 100.015 100.017 100.017 100.017 100.017 100.016 100.016 100.016 100.016 100.012 100.012 100.012 100.012 100.018 100.018 100.018 100.018 100.013 100.013 100.013 100.013 100.015 100.015 100.015 100.015 100.02 100.02 100.02 100.02 100.019 100.019 100.019 100.019 100.008 100.008 100.008 100.008 100.016 100.016 100.016 100.016 100.017 100.017 100.017 100.017 100.01 100.01 100.01 100.01 100.016 100.016 100.016 100.016 100.013 100.013 100.013 100.013 100.009 100.009 100.009 100.009 100.018 100.018 100.018 100.018 100.016 100.016 100.016 100.016 100.017 100.017 100.017 100.017 99.9997 99.9997 99.9997 99.9997 100.01 100.01 100.01 100.01 100.016 100.016 100.016 100.016 100.012 100.012 100.012 100.012 100.011 100.011 100.011 100.011 100.013 100.013 100.013 100.013 100.011 100.011 100.011 100.011 100.012 100.012 100.012 100.012 100.011 100.011 100.011 100.011 100.012 100.012 100.012 100.012 100.011 100.011 100.011 100.011 100.017 100.017 100.017 100.017 100.011 100.011 100.011 100.011 100.015 100.015 100.015 100.015 99.7925 99.7925 99.7925 99.7925 100.016 100.016 100.016 100.016 99.9661 99.9661 99.9661 99.9661 100.018 100.018 100.018 100.018 100.014 100.014 100.014 100.014 100.017 100.017 100.017 100.017 100.013 100.013 100.013 100.013 100.009 100.009 100.009 100.009 100.016 100.016 100.016 100.016 100.015 100.015 100.015 100.015 99.9997 99.9997 99.9997 99.9997 100.017 100.017 100.017 100.017 100.011 100.011 100.011 100.011 100.017 100.017 100.017 100.017 100.008 100.008 100.008 100.008 100.011 100.011 100.011 100.011 100.016 100.016 100.016 100.016 100.013 100.013 100.013 100.013 100.012 100.012 100.012 100.012 100.015 100.015 100.015 100.015 100.013 100.013 100.013 100.013 100.015 100.015 100.015 100.015 100.011 100.011 100.011 100.011 100.009 100.009 100.009 100.009 100.015 100.015 100.015 100.015 100.012 100.012 100.012 100.012 100.012 100.012 100.012 100.012 100.019 100.019 100.019 100.019 100.01 100.01 100.01 100.01 100.017 100.017 100.017 100.017 100.012 100.012 100.012 100.012 100.008 100.008 100.008 100.008 99.7223 99.7223 99.7223 99.7223 99.9748 99.9748 99.9748 99.9748 100.018 100.018 100.018 100.018 100.014 100.014 100.014 100.014 100.016 100.016 100.016 100.016 100.013 100.013 100.013 100.013 99.9998 99.9998 99.9998 99.9998 100.015 100.015 100.015 100.015 100.016 100.016 100.016 100.016 100.011 100.011 100.011 100.011 100.006 100.006 100.006 100.006 99.8872 99.8872 99.8872 99.8872 100.014 100.014 100.014 100.014 100.01 100.01 100.01 100.01 100.013 100.013 100.013 100.013 100.02 100.02 100.02 100.02 100.009 100.009 100.009 100.009 100.01 100.01 100.01 100.01 100.016 100.016 100.016 100.016 100.016 100.016 100.016 100.016 100.02 100.02 100.02 100.02 100.015 100.015 100.015 100.015 100.013 100.013 100.013 100.013 100.017 100.017 100.017 100.017 100.014 100.014 100.014 100.014 100.012 100.012 100.012 100.012 99.9808 99.9808 99.9808 99.9808 100.018 100.018 100.018 100.018 100.002 100.002 100.002 100.002 100.015 100.015 100.015 100.015 100.021 100.021 100.021 100.021 100.018 100.018 100.018 100.018 100.013 100.013 100.013 100.013 100.016 100.016 100.016 100.016 99.971 99.971 99.971 99.971 100.008 100.008 100.008 100.008 100.017 100.017 100.017 100.017 100.011 100.011 100.011 100.011 100.015 100.015 100.015 100.015 100.004 100.004 100.004 100.004 99.9236 99.9236 99.9236 99.9236 100.015 100.015 100.015 100.015 100.016 100.016 100.016 100.016 100.015 100.015 100.015 100.015 100.014 100.014 100.014 100.014 100.016 100.016 100.016 100.016 100.017 100.017 100.017 100.017 100.01 100.01 100.01 100.01 99.9672 99.9672 99.9672 99.9672 100.013 100.013 100.013 100.013 100.008 100.008 100.008 100.008 100.016 100.016 100.016 100.016 100.013 100.013 100.013 100.013 99.8526 99.8526 99.8526 99.8526 100.017 100.017 100.017 100.017 99.8197 99.8197 99.8197 99.8197 100.011 100.011 100.011 100.011 100.01 100.01 100.01 100.01 99.8159 99.8159 99.8159 99.8159 100.011 100.011 100.011 100.011 100.011 100.011 100.011 100.011 100.008 100.008 100.008 100.008 99.7746 99.7746 99.7746 99.7746 99.9629 99.9629 99.9629 99.9629 100.013 100.013 100.013 100.013 99.8102 99.8102 99.8102 99.8102 100.013 100.013 100.013 100.013 100.009 100.009 100.009 100.009 100.015 100.015 100.015 100.015 99.9244 99.9244 99.9244 99.9244 100.014 100.014 100.014 100.014 100.011 100.011 100.011 100.011 100.013 100.013 100.013 100.013 100.012 100.012 100.012 100.012 100.02 100.02 100.02 100.02 100.015 100.015 100.015 100.015 100.012 100.012 100.012 100.012 99.8097 99.8097 99.8097 99.8097 100.018 100.018 100.018 100.018 100.011 100.011 100.011 100.011 99.8603 99.8603 99.8603 99.8603 100.017 100.017 100.017 100.017 99.7904 99.7904 99.7904 99.7904 100.013 100.013 100.013 100.013 100.02 100.02 100.02 100.02 100.016 100.016 100.016 100.016 100.009 100.009 100.009 100.009 100.014 100.014 100.014 100.014 100.016 100.016 100.016 100.016 100.015 100.015 100.015 100.015 100.011 100.011 100.011 100.011 100.016 100.016 100.016 100.016 100.006 100.006 100.006 100.006 100.018 100.018 100.018 100.018 100.014 100.014 100.014 100.014 100.008 100.008 100.008 100.008 100.02 100.02 100.02 100.02 100.013 100.013 100.013 100.013 99.968 99.968 99.968 99.968 100.013 100.013 100.013 100.013 99.9568 99.9568 99.9568 99.9568 100.008 100.008 100.008 100.008 100.017 100.017 100.017 100.017 100.016 100.016 100.016 100.016 100.01 100.01 100.01 100.01 100.012 100.012 100.012 100.012 100.017 100.017 100.017 100.017 100.019 100.019 100.019 100.019 100.014 100.014 100.014 100.014 99.8136 99.8136 99.8136 99.8136 100.011 100.011 100.011 100.011 100.019 100.019 100.019 100.019 100.014 100.014 100.014 100.014 100.008 100.008 100.008 100.008 100.004 100.004 100.004 100.004 100.009 100.009 100.009 100.009 100.019 100.019 100.019 100.019 100.012 100.012 100.012 100.012 100.013 100.013 100.013 100.013 99.995 99.995 99.995 99.995 100.01 100.01 100.01 100.01 100.019 100.019 100.019 100.019 99.9871 99.9871 99.9871 99.9871 100.007 100.007 100.007 100.007 100.012 100.012 100.012 100.012 99.81 99.81 99.81 99.81 99.7569 99.7569 99.7569 99.7569 100.012 100.012 100.012 100.012 99.9671 99.9671 99.9671 99.9671 99.761 99.761 99.761 99.761 99.8546 99.8546 99.8546 99.8546 100.015 100.015 100.015 100.015 100.007 100.007 100.007 100.007 100.015 100.015 100.015 100.015 100.018 100.018 100.018 100.018 100.003 100.003 100.003 100.003 100.01 100.01 100.01 100.01 99.9819 99.9819 99.9819 99.9819 100.017 100.017 100.017 100.017 100.014 100.014 100.014 100.014 100.02 100.02 100.02 100.02 100.019 100.019 100.019 100.019 100.016 100.016 100.016 100.016 100.02 100.02 100.02 100.02 100.007 100.007 100.007 100.007 99.9403 99.9403 99.9403 99.9403 99.8687 99.8687 99.8687 99.8687 100.016 100.016 100.016 100.016 100.01 100.01 100.01 100.01 100.006 100.006 100.006 100.006 100.015 100.015 100.015 100.015 100.009 100.009 100.009 100.009 100.011 100.011 100.011 100.011 99.9998 99.9998 99.9998 99.9998 100.005 100.005 100.005 100.005 100.016 100.016 100.016 100.016 99.9961 99.9961 99.9961 99.9961 99.8547 99.8547 99.8547 99.8547 100.011 100.011 100.011 100.011 99.9042 99.9042 99.9042 99.9042 100.012 100.012 100.012 100.012 100.016 100.016 100.016 100.016 99.9223 99.9223 99.9223 99.9223 100.009 100.009 100.009 100.009 100.01 100.01 100.01 100.01 100.008 100.008 100.008 100.008 100.016 100.016 100.016 100.016 100.018 100.018 100.018 100.018 100.01 100.01 100.01 100.01 99.7555 99.7555 99.7555 99.7555 99.7285 99.7285 99.7285 99.7285 100.019 100.019 100.019 100.019 100.013 100.013 100.013 100.013 99.7905 99.7905 99.7905 99.7905 99.8598 99.8598 99.8598 99.8598 99.5761 99.5761 99.5761 99.5761 100.014 100.014 100.014 100.014 100.008 100.008 100.008 100.008 100.019 100.019 100.019 100.019 100.014 100.014 100.014 100.014 99.866 99.866 99.866 99.866 99.8253 99.8253 99.8253 99.8253 99.9227 99.9227 99.9227 99.9227 99.8668 99.8668 99.8668 99.8668 99.6473 99.6473 99.6473 99.6473 99.8141 99.8141 99.8141 99.8141 99.8557 99.8557 99.8557 99.8557 99.8746 99.8746 99.8746 99.8746 100.01 100.01 100.01 100.01 99.7019 99.7019 99.7019 99.7019 100.015 100.015 100.015 100.015 99.8758 99.8758 99.8758 99.8758 100.017 100.017 100.017 100.017 99.75 99.75 99.75 99.75 100.012 100.012 100.012 100.012 99.7496 99.7496 99.7496 99.7496 99.9996 99.9996 99.9996 99.9996 99.9705 99.9705 99.9705 99.9705 99.9763 99.9763 99.9763 99.9763 100.017 100.017 100.017 100.017 100.009 100.009 100.009 100.009 99.9849 99.9849 99.9849 99.9849 99.7576 99.7576 99.7576 99.7576 100.009 100.009 100.009 100.009 99.7447 99.7447 99.7447 99.7447 100.012 100.012 100.012 100.012 99.9864 99.9864 99.9864 99.9864 100.013 100.013 100.013 100.013 99.8365 99.8365 99.8365 99.8365 100.003 100.003 100.003 100.003 99.9942 99.9942 99.9942 99.9942 99.9896 99.9896 99.9896 99.9896 99.8472 99.8472 99.8472 99.8472 99.8532 99.8532 99.8532 99.8532 99.814 99.814 99.814 99.814 100.018 100.018 100.018 100.018 100.009 100.009 100.009 100.009 100.019 100.019 100.019 100.019 100.013 100.013 100.013 100.013 99.7249 99.7249 99.7249 99.7249 100.013 100.013 100.013 100.013 99.827 99.827 99.827 99.827 99.7663 99.7663 99.7663 99.7663 99.9628 99.9628 99.9628 99.9628 100.02 100.02 100.02 100.02 99.7969 99.7969 99.7969 99.7969 99.8639 99.8639 99.8639 99.8639 99.9813 99.9813 99.9813 99.9813 100.016 100.016 100.016 100.016 99.9437 99.9437 99.9437 99.9437 99.8554 99.8554 99.8554 99.8554 100.009 100.009 100.009 100.009 99.9899 99.9899 99.9899 99.9899 100.01 100.01 100.01 100.01 99.962 99.962 99.962 99.962 100.017 100.017 100.017 100.017 99.8735 99.8735 99.8735 99.8735 99.7899 99.7899 99.7899 99.7899 100.009 100.009 100.009 100.009 100.012 100.012 100.012 100.012 99.8708 99.8708 99.8708 99.8708 100.013 100.013 100.013 100.013 99.9902 99.9902 99.9902 99.9902 99.9568 99.9568 99.9568 99.9568 99.9897 99.9897 99.9897 99.9897 99.9868 99.9868 99.9868 99.9868 99.9583 99.9583 99.9583 99.9583 100.009 100.009 100.009 100.009 99.7948 99.7948 99.7948 99.7948 100.012 100.012 100.012 100.012 100.008 100.008 100.008 100.008 99.7616 99.7616 99.7616 99.7616 100.018 100.018 100.018 100.018 99.936 99.936 99.936 99.936 99.971 99.971 99.971 99.971 99.968 99.968 99.968 99.968 99.977 99.977 99.977 99.977 99.9848 99.9848 99.9848 99.9848 99.8644 99.8644 99.8644 99.8644 100.016 100.016 100.016 100.016 100.01 100.01 100.01 100.01 99.8211 99.8211 99.8211 99.8211 99.8246 99.8246 99.8246 99.8246 100.012 100.012 100.012 100.012 100.017 100.017 100.017 100.017 99.9941 99.9941 99.9941 99.9941 99.7981 99.7981 99.7981 99.7981 99.9608 99.9608 99.9608 99.9608 99.7525 99.7525 99.7525 99.7525 100.018 100.018 100.018 100.018 100.011 100.011 100.011 100.011 99.8064 99.8064 99.8064 99.8064 99.9788 99.9788 99.9788 99.9788 99.9659 99.9659 99.9659 99.9659 100.011 100.011 100.011 100.011 99.8565 99.8565 99.8565 99.8565 99.9289 99.9289 99.9289 99.9289 99.8693 99.8693 99.8693 99.8693 100.018 100.018 100.018 100.018 100.01 100.01 100.01 100.01 99.8604 99.8604 99.8604 99.8604 99.9845 99.9845 99.9845 99.9845 100.009 100.009 100.009 100.009 99.9963 99.9963 99.9963 99.9963 99.7331 99.7331 99.7331 99.7331 100.012 100.012 100.012 100.012 100.018 100.018 100.018 100.018 99.9058 99.9058 99.9058 99.9058 100.015 100.015 100.015 100.015 100.016 100.016 100.016 100.016 100.01 100.01 100.01 100.01 99.8167 99.8167 99.8167 99.8167 99.8278 99.8278 99.8278 99.8278 99.9666 99.9666 99.9666 99.9666 99.8643 99.8643 99.8643 99.8643 99.9873 99.9873 99.9873 99.9873 99.9145 99.9145 99.9145 99.9145 99.8758 99.8758 99.8758 99.8758 99.999 99.999 99.999 99.999 100.014 100.014 100.014 100.014 100.012 100.012 100.012 100.012 99.7983 99.7983 99.7983 99.7983 99.969 99.969 99.969 99.969 100.003 100.003 100.003 100.003 100.018 100.018 100.018 100.018 99.8006 99.8006 99.8006 99.8006 99.9552 99.9552 99.9552 99.9552 99.6586 99.6586 99.6586 99.6586 100.008 100.008 100.008 100.008 99.8782 99.8782 99.8782 99.8782 99.9625 99.9625 99.9625 99.9625 100.013 100.013 100.013 100.013 99.9732 99.9732 99.9732 99.9732 99.9146 99.9146 99.9146 99.9146 100.011 100.011 100.011 100.011 99.9843 99.9843 99.9843 99.9843 100.002 100.002 100.002 100.002 99.8066 99.8066 99.8066 99.8066 99.806 99.806 99.806 99.806 99.9225 99.9225 99.9225 99.9225 100.014 100.014 100.014 100.014 99.7647 99.7647 99.7647 99.7647 99.9849 99.9849 99.9849 99.9849 99.8986 99.8986 99.8986 99.8986 100.033 100.033 100.033 100.033 100.012 100.012 100.012 100.012 100.008 100.008 100.008 100.008 100.01 100.01 100.01 100.01 99.818 99.818 99.818 99.818 100.011 100.011 100.011 100.011 99.9993 99.9993 99.9993 99.9993 100.014 100.014 100.014 100.014 99.6012 99.6012 99.6012 99.6012 100.003 100.003 100.003 100.003 99.8734 99.8734 99.8734 99.8734 100.011 100.011 100.011 100.011 99.9792 99.9792 99.9792 99.9792 99.974 99.974 99.974 99.974 100.009 100.009 100.009 100.009 99.7955 99.7955 99.7955 99.7955 100.011 100.011 100.011 100.011 99.9192 99.9192 99.9192 99.9192 99.8619 99.8619 99.8619 99.8619 99.8861 99.8861 99.8861 99.8861 99.7326 99.7326 99.7326 99.7326 99.7709 99.7709 99.7709 99.7709 99.8337 99.8337 99.8337 99.8337 99.987 99.987 99.987 99.987 99.8473 99.8473 99.8473 99.8473 99.8438 99.8438 99.8438 99.8438 99.9828 99.9828 99.9828 99.9828 99.9119 99.9119 99.9119 99.9119 100.014 100.014 100.014 100.014 100.012 100.012 100.012 100.012 99.9317 99.9317 99.9317 99.9317 100.013 100.013 100.013 100.013 99.7435 99.7435 99.7435 99.7435 99.8036 99.8036 99.8036 99.8036 99.9965 99.9965 99.9965 99.9965 99.7331 99.7331 99.7331 99.7331 100.009 100.009 100.009 100.009 100 100 100 100 100.016 100.016 100.016 100.016 99.9624 99.9624 99.9624 99.9624 99.9886 99.9886 99.9886 99.9886 100.011 100.011 100.011 100.011 100.011 100.011 100.011 100.011 100.023 100.023 100.023 100.023 99.9897 99.9897 99.9897 99.9897 99.9706 99.9706 99.9706 99.9706 99.97 99.97 99.97 99.97 99.9396 99.9396 99.9396 99.9396 99.9995 99.9995 99.9995 99.9995 100.014 100.014 100.014 100.014 99.7237 99.7237 99.7237 99.7237 100.01 100.01 100.01 100.01 100.01 100.01 100.01 100.01 100.012 100.012 100.012 100.012 100.014 100.014 100.014 100.014 100.006 100.006 100.006 100.006 99.8048 99.8048 99.8048 99.8048 99.9961 99.9961 99.9961 99.9961 99.986 99.986 99.986 99.986 100.01 100.01 100.01 100.01 99.9831 99.9831 99.9831 99.9831 99.9624 99.9624 99.9624 99.9624 100.011 100.011 100.011 100.011 99.9573 99.9573 99.9573 99.9573 100.005 100.005 100.005 100.005 99.8073 99.8073 99.8073 99.8073 99.9516 99.9516 99.9516 99.9516 99.9517 99.9517 99.9517 99.9517 99.951 99.951 99.951 99.951 99.991 99.991 99.991 99.991 99.889 99.889 99.889 99.889 99.967 99.967 99.967 99.967 99.9973 99.9973 99.9973 99.9973 99.8589 99.8589 99.8589 99.8589 100.014 100.014 100.014 100.014 99.7188 99.7188 99.7188 99.7188 99.7641 99.7641 99.7641 99.7641 99.7706 99.7706 99.7706 99.7706 99.85 99.85 99.85 99.85 99.7799 99.7799 99.7799 99.7799 99.9974 99.9974 99.9974 99.9974 99.9307 99.9307 99.9307 99.9307 99.9083 99.9083 99.9083 99.9083 100.01 100.01 100.01 100.01 99.8703 99.8703 99.8703 99.8703 100.015 100.015 100.015 100.015 99.992 99.992 99.992 99.992 100.015 100.015 100.015 100.015 99.8498 99.8498 99.8498 99.8498 100.021 100.021 100.021 100.021 100.013 100.013 100.013 100.013 100 100 100 100 100.011 100.011 100.011 100.011 99.9887 99.9887 99.9887 99.9887 99.7401 99.7401 99.7401 99.7401 99.9898 99.9898 99.9898 99.9898 99.291 99.291 99.291 99.291 99.9013 99.9013 99.9013 99.9013 100.013 100.013 100.013 100.013 99.8527 99.8527 99.8527 99.8527 100.02 100.02 100.02 100.02 99.9315 99.9315 99.9315 99.9315 100.015 100.015 100.015 100.015 100.008 100.008 100.008 100.008 99.935 99.935 99.935 99.935 99.9144 99.9144 99.9144 99.9144 100.014 100.014 100.014 100.014 100.012 100.012 100.012 100.012 99.9461 99.9461 99.9461 99.9461 99.9175 99.9175 99.9175 99.9175 99.1214 99.1214 99.1214 99.1214 99.8797 99.8797 99.8797 99.8797 99.9555 99.9555 99.9555 99.9555 99.7517 99.7517 99.7517 99.7517 99.851 99.851 99.851 99.851 99.9786 99.9786 99.9786 99.9786 99.8232 99.8232 99.8232 99.8232 100.009 100.009 100.009 100.009 99.9735 99.9735 99.9735 99.9735 100.015 100.015 100.015 100.015 99.9618 99.9618 99.9618 99.9618 100.014 100.014 100.014 100.014 100.007 100.007 100.007 100.007 100.009 100.009 100.009 100.009 100.013 100.013 100.013 100.013 99.9882 99.9882 99.9882 99.9882 99.8566 99.8566 99.8566 99.8566 99.9796 99.9796 99.9796 99.9796 99.9971 99.9971 99.9971 99.9971 99.8005 99.8005 99.8005 99.8005 99.9338 99.9338 99.9338 99.9338 99.9684 99.9684 99.9684 99.9684 100.014 100.014 100.014 100.014 100.015 100.015 100.015 100.015 99.8976 99.8976 99.8976 99.8976 99.8057 99.8057 99.8057 99.8057 99.9588 99.9588 99.9588 99.9588 99.6375 99.6375 99.6375 99.6375 100.012 100.012 100.012 100.012 99.8199 99.8199 99.8199 99.8199 99.9831 99.9831 99.9831 99.9831 99.9982 99.9982 99.9982 99.9982 99.099 99.099 99.099 99.099 100.013 100.013 100.013 100.013 100.008 100.008 100.008 100.008 99.9834 99.9834 99.9834 99.9834 100.011 100.011 100.011 100.011 99.9586 99.9586 99.9586 99.9586 100.017 100.017 100.017 100.017 100.018 100.018 100.018 100.018 99.9869 99.9869 99.9869 99.9869 100.008 100.008 100.008 100.008 99.8565 99.8565 99.8565 99.8565 99.9523 99.9523 99.9523 99.9523 99.1212 99.1212 99.1212 99.1212 99.9087 99.9087 99.9087 99.9087 99.8132 99.8132 99.8132 99.8132 99.8323 99.8323 99.8323 99.8323 99.9541 99.9541 99.9541 99.9541 99.1221 99.1221 99.1221 99.1221 99.7747 99.7747 99.7747 99.7747 100.008 100.008 100.008 100.008 99.3993 99.3993 99.3993 99.3993 99.9087 99.9087 99.9087 99.9087 99.2133 99.2133 99.2133 99.2133 100.019 100.019 100.019 100.019 99.8995 99.8995 99.8995 99.8995 99.9192 99.9192 99.9192 99.9192 99.8803 99.8803 99.8803 99.8803 99.856 99.856 99.856 99.856 99.9766 99.9766 99.9766 99.9766 99.9932 99.9932 99.9932 99.9932 100.004 100.004 100.004 100.004 100.012 100.012 100.012 100.012 99.0018 99.0018 99.0018 99.0018 99.823 99.823 99.823 99.823 100.015 100.015 100.015 100.015 99.1434 99.1434 99.1434 99.1434 99.9755 99.9755 99.9755 99.9755 99.9756 99.9756 99.9756 99.9756 99.1525 99.1525 99.1525 99.1525 99.1797 99.1797 99.1797 99.1797 99.9745 99.9745 99.9745 99.9745 99.8356 99.8356 99.8356 99.8356 100.005 100.005 100.005 100.005 99.9865 99.9865 99.9865 99.9865 99.9683 99.9683 99.9683 99.9683 99.4067 99.4067 99.4067 99.4067 99.9862 99.9862 99.9862 99.9862 99.978 99.978 99.978 99.978 100.008 100.008 100.008 100.008 99.93 99.93 99.93 99.93 99.8277 99.8277 99.8277 99.8277 99.1752 99.1752 99.1752 99.1752 100.014 100.014 100.014 100.014 99.8217 99.8217 99.8217 99.8217 99.9992 99.9992 99.9992 99.9992 100.014 100.014 100.014 100.014 99.9198 99.9198 99.9198 99.9198 99.9532 99.9532 99.9532 99.9532 100.011 100.011 100.011 100.011 99.9991 99.9991 99.9991 99.9991 99.265 99.265 99.265 99.265 99.9175 99.9175 99.9175 99.9175 100.011 100.011 100.011 100.011 99.0355 99.0355 99.0355 99.0355 99.8263 99.8263 99.8263 99.8263 99.1083 99.1083 99.1083 99.1083 99.8624 99.8624 99.8624 99.8624 99.2139 99.2139 99.2139 99.2139 99.0874 99.0874 99.0874 99.0874 99.9948 99.9948 99.9948 99.9948 100.005 100.005 100.005 100.005 100.001 100.001 100.001 100.001 98.8658 98.8658 98.8658 98.8658 100.009 100.009 100.009 100.009 99.9955 99.9955 99.9955 99.9955 99.1737 99.1737 99.1737 99.1737 99.8531 99.8531 99.8531 99.8531 99.798 99.798 99.798 99.798 99.0821 99.0821 99.0821 99.0821 99.798 99.798 99.798 99.798 99.9913 99.9913 99.9913 99.9913 99.8703 99.8703 99.8703 99.8703 99.821 99.821 99.821 99.821 99.219 99.219 99.219 99.219 99.0441 99.0441 99.0441 99.0441 100.01 100.01 100.01 100.01 98.9213 98.9213 98.9213 98.9213 98.8659 98.8659 98.8659 98.8659 99.9763 99.9763 99.9763 99.9763 100.01 100.01 100.01 100.01 99.8708 99.8708 99.8708 99.8708 99.9193 99.9193 99.9193 99.9193 98.8962 98.8962 98.8962 98.8962 99.0075 99.0075 99.0075 99.0075 99.1411 99.1411 99.1411 99.1411 99.9667 99.9667 99.9667 99.9667 99.9949 99.9949 99.9949 99.9949 99.8546 99.8546 99.8546 99.8546 99.9105 99.9105 99.9105 99.9105 99.9961 99.9961 99.9961 99.9961 99.9821 99.9821 99.9821 99.9821 100.008 100.008 100.008 100.008 99.8867 99.8867 99.8867 99.8867 99.1865 99.1865 99.1865 99.1865 100.01 100.01 100.01 100.01 99.8873 99.8873 99.8873 99.8873 99.147 99.147 99.147 99.147 99.9538 99.9538 99.9538 99.9538 99.9989 99.9989 99.9989 99.9989 100.005 100.005 100.005 100.005 99.0017 99.0017 99.0017 99.0017 99.7909 99.7909 99.7909 99.7909 99.1497 99.1497 99.1497 99.1497 100.017 100.017 100.017 100.017 100.004 100.004 100.004 100.004 99.9502 99.9502 99.9502 99.9502 99.1543 99.1543 99.1543 99.1543 99.9649 99.9649 99.9649 99.9649 99.9248 99.9248 99.9248 99.9248 99.1346 99.1346 99.1346 99.1346 100.013 100.013 100.013 100.013 99.8359 99.8359 99.8359 99.8359 99.0242 99.0242 99.0242 99.0242 99.1369 99.1369 99.1369 99.1369 99.0496 99.0496 99.0496 99.0496 99.9952 99.9952 99.9952 99.9952 98.8783 98.8783 98.8783 98.8783 99.9266 99.9266 99.9266 99.9266 98.9034 98.9034 98.9034 98.9034 100.011 100.011 100.011 100.011 99.9247 99.9247 99.9247 99.9247 99.12 99.12 99.12 99.12 99.978 99.978 99.978 99.978 99.9867 99.9867 99.9867 99.9867 99.9832 99.9832 99.9832 99.9832 100.002 100.002 100.002 100.002 98.8649 98.8649 98.8649 98.8649 99.057 99.057 99.057 99.057 99.9949 99.9949 99.9949 99.9949 99.9598 99.9598 99.9598 99.9598 100.01 100.01 100.01 100.01 99.9602 99.9602 99.9602 99.9602 99.0773 99.0773 99.0773 99.0773 99.224 99.224 99.224 99.224 99.1063 99.1063 99.1063 99.1063 100.004 100.004 100.004 100.004 99.985 99.985 99.985 99.985 99.9649 99.9649 99.9649 99.9649 99.9829 99.9829 99.9829 99.9829 99.1089 99.1089 99.1089 99.1089 100.002 100.002 100.002 100.002 98.9388 98.9388 98.9388 98.9388 99.149 99.149 99.149 99.149 99.0347 99.0347 99.0347 99.0347 99.0939 99.0939 99.0939 99.0939 100.012 100.012 100.012 100.012 99.9611 99.9611 99.9611 99.9611 100.014 100.014 100.014 100.014 99.9719 99.9719 99.9719 99.9719 100.013 100.013 100.013 100.013 100.006 100.006 100.006 100.006 99.9727 99.9727 99.9727 99.9727 99.1886 99.1886 99.1886 99.1886 99.0725 99.0725 99.0725 99.0725 99.9883 99.9883 99.9883 99.9883 99.9446 99.9446 99.9446 99.9446 99.0567 99.0567 99.0567 99.0567 99.0686 99.0686 99.0686 99.0686 99.0019 99.0019 99.0019 99.0019 99.9998 99.9998 99.9998 99.9998 99.9825 99.9825 99.9825 99.9825 99.0179 99.0179 99.0179 99.0179 100.01 100.01 100.01 100.01 99.9589 99.9589 99.9589 99.9589 98.9528 98.9528 98.9528 98.9528 99.1161 99.1161 99.1161 99.1161 98.8915 98.8915 98.8915 98.8915 99.9337 99.9337 99.9337 99.9337 99.1587 99.1587 99.1587 99.1587 99.2315 99.2315 99.2315 99.2315 98.7111 98.7111 98.7111 98.7111 99.9907 99.9907 99.9907 99.9907 99.2229 99.2229 99.2229 99.2229 99.2012 99.2012 99.2012 99.2012 99.1806 99.1806 99.1806 99.1806 99.0351 99.0351 99.0351 99.0351 99.9644 99.9644 99.9644 99.9644 98.2968 98.2968 98.2968 98.2968 99.1485 99.1485 99.1485 99.1485 99.0886 99.0886 99.0886 99.0886 98.9858 98.9858 98.9858 98.9858 100.017 100.017 100.017 100.017 100.014 100.014 100.014 100.014 99.0899 99.0899 99.0899 99.0899 98.3085 98.3085 98.3085 98.3085 99.9552 99.9552 99.9552 99.9552 99.0489 99.0489 99.0489 99.0489 99.8413 99.8413 99.8413 99.8413 100.014 100.014 100.014 100.014 99.0202 99.0202 99.0202 99.0202 98.8416 98.8416 98.8416 98.8416 100.011 100.011 100.011 100.011 99.9658 99.9658 99.9658 99.9658 99.2101 99.2101 99.2101 99.2101 99.9901 99.9901 99.9901 99.9901 98.9091 98.9091 98.9091 98.9091 99.1564 99.1564 99.1564 99.1564 98.9405 98.9405 98.9405 98.9405 100.016 100.016 100.016 100.016 99.3016 99.3016 99.3016 99.3016 99.9953 99.9953 99.9953 99.9953 99.0177 99.0177 99.0177 99.0177 99.1845 99.1845 99.1845 99.1845 100.024 100.024 100.024 100.024 99.1531 99.1531 99.1531 99.1531 100.017 100.017 100.017 100.017 100.017 100.017 100.017 100.017 100.005 100.005 100.005 100.005 99.1791 99.1791 99.1791 99.1791 99.1337 99.1337 99.1337 99.1337 100.011 100.011 100.011 100.011 99.324 99.324 99.324 99.324 98.8987 98.8987 98.8987 98.8987 99.0651 99.0651 99.0651 99.0651 98.7249 98.7249 98.7249 98.7249 100.001 100.001 100.001 100.001 99.1376 99.1376 99.1376 99.1376 98.5979 98.5979 98.5979 98.5979 98.734 98.734 98.734 98.734 98.3085 98.3085 98.3085 98.3085 100.007 100.007 100.007 100.007 99.0733 99.0733 99.0733 99.0733 98.864 98.864 98.864 98.864 100.005 100.005 100.005 100.005 98.6696 98.6696 98.6696 98.6696 98.8383 98.8383 98.8383 98.8383 100.014 100.014 100.014 100.014 100.013 100.013 100.013 100.013 99.2671 99.2671 99.2671 99.2671 100.013 100.013 100.013 100.013 100.007 100.007 100.007 100.007 98.7111 98.7111 98.7111 98.7111 99.1536 99.1536 99.1536 99.1536 99.0489 99.0489 99.0489 99.0489 100.019 100.019 100.019 100.019 100.018 100.018 100.018 100.018 100.013 100.013 100.013 100.013 99.0036 99.0036 99.0036 99.0036 98.1454 98.1454 98.1454 98.1454 98.0652 98.0652 98.0652 98.0652 99.1728 99.1728 99.1728 99.1728 98.8747 98.8747 98.8747 98.8747 100.013 100.013 100.013 100.013 98.6696 98.6696 98.6696 98.6696 99.179 99.179 99.179 99.179 100.003 100.003 100.003 100.003 99.9662 99.9662 99.9662 99.9662 99.0286 99.0286 99.0286 99.0286 98.8009 98.8009 98.8009 98.8009 99.1714 99.1714 99.1714 99.1714 98.7481 98.7481 98.7481 98.7481 98.2968 98.2968 98.2968 98.2968 98.7988 98.7988 98.7988 98.7988 100.016 100.016 100.016 100.016 98.6911 98.6911 98.6911 98.6911 98.5979 98.5979 98.5979 98.5979 100.011 100.011 100.011 100.011 99.0521 99.0521 99.0521 99.0521 99.1858 99.1858 99.1858 99.1858 100.001 100.001 100.001 100.001 99.1508 99.1508 99.1508 99.1508 100.012 100.012 100.012 100.012 98.8968 98.8968 98.8968 98.8968 100.024 100.024 100.024 100.024 100.004 100.004 100.004 100.004 99.1533 99.1533 99.1533 99.1533 100.014 100.014 100.014 100.014 99.2726 99.2726 99.2726 99.2726 100.014 100.014 100.014 100.014 100.015 100.015 100.015 100.015 98.6911 98.6911 98.6911 98.6911 100.001 100.001 100.001 100.001 98.2968 98.2968 98.2968 98.2968 100.017 100.017 100.017 100.017 98.6696 98.6696 98.6696 98.6696 100.014 100.014 100.014 100.014 100.023 100.023 100.023 100.023 100.003 100.003 100.003 100.003 98.1454 98.1454 98.1454 98.1454 100.003 100.003 100.003 100.003 98.0652 98.0652 98.0652 98.0652 100.011 100.011 100.011 100.011 100.004 100.004 100.004 100.004 100.011 100.011 100.011 100.011 100.013 100.013 100.013 100.013 100.014 100.014 100.014 100.014 100.001 100.001 100.001 100.001 100.001 100.001 100.001 100.001 100.001 100.001 100.001 100.001 100.004 100.004 100.004 100.004 99.9981 99.9981 99.9981 99.9981 100.004 100.004 100.004 100.004 100.002 100.002 100.002 100.002 100 100 100 100 100.006 100.006 100.006 100.006 100 100 100 100 98.5979 98.5979 98.5979 98.5979 100.005 100.005 100.005 100.005 98.7111 98.7111 98.7111 98.7111 100.002 100.002 100.002 100.002 100 100 100 100 100.004 100.004 100.004 100.004 100.017 100.017 100.017 100.017 100.003 100.003 100.003 100.003 100.004 100.004 100.004 100.004 100.005 100.005 100.005 100.005 100 100 100 100 100.019 100.019 100.019 100.019 99.211 99.211 99.211 99.211 100.003 100.003 100.003 100.003 100.016 100.016 100.016 100.016 100 100 100 100 98.1454 98.1454 98.1454 98.1454 100.004 100.004 100.004 100.004 100 100 100 100 100.003 100.003 100.003 100.003 100.003 100.003 100.003 100.003 98.3085 98.3085 98.3085 98.3085 100.001 100.001 100.001 100.001 98.6911 98.6911 98.6911 98.6911 100.003 100.003 100.003 100.003 100.003 100.003 100.003 100.003 98.5398 98.5398 98.5398 98.5398 100.015 100.015 100.015 100.015 98.0652 98.0652 98.0652 98.0652 98.497 98.497 98.497 98.497 98.8993 98.8993 98.8993 98.8993 100.004 100.004 100.004 100.004 100.004 100.004 100.004 100.004 100.001 100.001 100.001 100.001 98.9084 98.9084 98.9084 98.9084 100.014 100.014 100.014 100.014 100.002 100.002 100.002 100.002 100.005 100.005 100.005 100.005 99.0696 99.0696 99.0696 99.0696 98.9638 98.9638 98.9638 98.9638 99.0403 99.0403 99.0403 99.0403 100.006 100.006 100.006 100.006 98.7131 98.7131 98.7131 98.7131 98.4454 98.4454 98.4454 98.4454 99.0697 99.0697 99.0697 99.0697 99.2506 99.2506 99.2506 99.2506 99.0212 99.0212 99.0212 99.0212 98.9694 98.9694 98.9694 98.9694 100.008 100.008 100.008 100.008 98.4741 98.4741 98.4741 98.4741 99.2199 99.2199 99.2199 99.2199 99.1157 99.1157 99.1157 99.1157 99.2923 99.2923 99.2923 99.2923 100.014 100.014 100.014 100.014 100.017 100.017 100.017 100.017 98.5585 98.5585 98.5585 98.5585 99.224 99.224 99.224 99.224 99.0481 99.0481 99.0481 99.0481 99.0375 99.0375 99.0375 99.0375 98.9063 98.9063 98.9063 98.9063 100.025 100.025 100.025 100.025 99.1877 99.1877 99.1877 99.1877 99.4063 99.4063 99.4063 99.4063 100.005 100.005 100.005 100.005 99.2303 99.2303 99.2303 99.2303 99.1635 99.1635 99.1635 99.1635 99.1456 99.1456 99.1456 99.1456 98.8051 98.8051 98.8051 98.8051 98.9738 98.9738 98.9738 98.9738 98.8896 98.8896 98.8896 98.8896 99.1188 99.1188 99.1188 99.1188 99.04 99.04 99.04 99.04 99.1897 99.1897 99.1897 99.1897 99.1884 99.1884 99.1884 99.1884 98.9456 98.9456 98.9456 98.9456 98.7975 98.7975 98.7975 98.7975 100.008 100.008 100.008 100.008 99.1455 99.1455 99.1455 99.1455 98.3563 98.3563 98.3563 98.3563 99.0891 99.0891 99.0891 99.0891 98.2757 98.2757 98.2757 98.2757 98.6759 98.6759 98.6759 98.6759 98.8991 98.8991 98.8991 98.8991 99.1425 99.1425 99.1425 99.1425 100.014 100.014 100.014 100.014 99.2703 99.2703 99.2703 99.2703 99.1057 99.1057 99.1057 99.1057 99.3091 99.3091 99.3091 99.3091 98.9072 98.9072 98.9072 98.9072 98.7222 98.7222 98.7222 98.7222 98.398 98.398 98.398 98.398 99.0078 99.0078 99.0078 99.0078 98.6348 98.6348 98.6348 98.6348 98.681 98.681 98.681 98.681 100.004 100.004 100.004 100.004 98.8158 98.8158 98.8158 98.8158 99.3311 99.3311 99.3311 99.3311 98.8884 98.8884 98.8884 98.8884 98.9259 98.9259 98.9259 98.9259 98.8806 98.8806 98.8806 98.8806 99.0629 99.0629 99.0629 99.0629 98.7981 98.7981 98.7981 98.7981 99.0201 99.0201 99.0201 99.0201 98.8283 98.8283 98.8283 98.8283 98.8575 98.8575 98.8575 98.8575 99.1879 99.1879 99.1879 99.1879 98.8005 98.8005 98.8005 98.8005 100.011 100.011 100.011 100.011 100.014 100.014 100.014 100.014 100.017 100.017 100.017 100.017 100.009 100.009 100.009 100.009 100.014 100.014 100.014 100.014 100.014 100.014 100.014 100.014 100.017 100.017 100.017 100.017 100.018 100.018 100.018 100.018 100.012 100.012 100.012 100.012 100.024 100.024 100.024 100.024 100.022 100.022 100.022 100.022 100.016 100.016 100.016 100.016 99.9216 99.9216 99.9216 99.9216 99.974 99.974 99.974 99.974 100.006 100.006 100.006 100.006 100.02 100.02 100.02 100.02 100.017 100.017 100.017 100.017 100.018 100.018 100.018 100.018 100.015 100.015 100.015 100.015 100.012 100.012 100.012 100.012 100.013 100.013 100.013 100.013 100.01 100.01 100.01 100.01 99.8093 99.8093 99.8093 99.8093 99.8467 99.8467 99.8467 99.8467 100.006 100.006 100.006 100.006 100.018 100.018 100.018 100.018 100.008 100.008 100.008 100.008 100.013 100.013 100.013 100.013 100.012 100.012 100.012 100.012 100.01 100.01 100.01 100.01 100.012 100.012 100.012 100.012 99.9471 99.9471 99.9471 99.9471 99.7802 99.7802 99.7802 99.7802 99.868 99.868 99.868 99.868 99.7775 99.7775 99.7775 99.7775 99.8166 99.8166 99.8166 99.8166 99.981 99.981 99.981 99.981 100.019 100.019 100.019 100.019 100.022 100.022 100.022 100.022 99.9627 99.9627 99.9627 99.9627 99.8201 99.8201 99.8201 99.8201 98.8116 98.8116 98.8116 98.8116 98.9326 98.9326 98.9326 98.9326 99.9957 99.9957 99.9957 99.9957 99.9548 99.9548 99.9548 99.9548 99.9811 99.9811 99.9811 99.9811 99.8643 99.8643 99.8643 99.8643 99.9675 99.9675 99.9675 99.9675 99.9649 99.9649 99.9649 99.9649 99.9571 99.9571 99.9571 99.9571 99.8652 99.8652 99.8652 99.8652 99.922 99.922 99.922 99.922 99.919 99.919 99.919 99.919 99.9058 99.9058 99.9058 99.9058 99.8798 99.8798 99.8798 99.8798 100.008 100.008 100.008 100.008 100.01 100.01 100.01 100.01 99.9265 99.9265 99.9265 99.9265 99.7489 99.7489 99.7489 99.7489 99.9619 99.9619 99.9619 99.9619 99.966 99.966 99.966 99.966 
VECTORS Displacement float 
-9.20092e-06 -0.000147097 0.098688 
-3.47517e-06 -0.000146964 0.0986993 
-1.35697e-06 -0.000148799 0.0986918 
5.92922e-06 -0.00017377 -0.00131939 
-3.5487e-05 -0.000137721 0.0986921 
-1.97879e-05 -0.000140651 0.0987051 
-2.16307e-05 -0.000144661 0.0986907 
-1.23897e-05 -0.000165768 -0.001311 
1.51333e-05 -0.000147592 0.0986913 
1.09603e-05 -0.000149052 0.0986906 
1.10645e-05 -0.000146442 0.0987008 
1.35607e-05 -0.000163785 0.0466232 
2.35597e-05 -0.000161767 0.0986395 
4.35822e-05 -0.000169423 -0.00134958 
1.61102e-05 -0.000160731 0.0986629 
2.50191e-05 -0.000151151 0.0986616 
4.35822e-05 -0.000169423 -0.00134958 
1.58635e-05 -0.000154156 0.0986802 
1.61102e-05 -0.000160731 0.0986629 
2.50191e-05 -0.000151151 0.0986616 
-1.35697e-06 -0.000148799 0.0986918 
5.92922e-06 -0.00017377 -0.00131939 
-3.47517e-06 -0.000146964 0.0986993 
8.83356e-06 -0.00016042 0.0425174 
-3.02799e-05 -0.000135485 0.0987059 
-1.52417e-05 -0.000139456 0.0987176 
-1.97879e-05 -0.000140651 0.0987051 
-2.52783e-05 -0.000159931 -0.00131456 
-9.20092e-06 -0.000147097 0.098688 
-2.16307e-05 -0.000144661 0.0986907 
-9.32072e-06 -0.000144178 0.0987023 
-4.8952e-06 -0.000157118 0.0428225 
1.51333e-05 -0.000147592 0.0986913 
1.10645e-05 -0.000146442 0.0987008 
1.56859e-05 -0.000145437 0.0986993 
2.59774e-05 -0.000156671 0.0483951 
-7.26374e-06 -0.000142568 0.0987131 
-1.52417e-05 -0.000139456 0.0987176 
-7.22207e-06 -0.000141663 0.0987201 
-4.8952e-06 -0.000157118 0.0428225 
4.17963e-06 -0.000134045 0.0987388 
7.17475e-06 -0.000125914 0.0987388 
9.78998e-06 -0.000135056 0.098732 
1.58993e-05 -0.000176087 -0.00127622 
-9.20092e-06 -0.000147097 0.098688 
-1.35697e-06 -0.000148799 0.0986918 
-1.08845e-06 -0.000153903 0.0986772 
5.92922e-06 -0.00017377 -0.00131939 
1.6006e-05 -0.000135598 0.0987214 
2.18868e-05 -0.000128332 0.0987097 
2.93679e-05 -0.000174876 -0.00128526 
1.29342e-05 -0.000130464 0.0987272 
1.51333e-05 -0.000147592 0.0986913 
2.80312e-05 -0.000172858 -0.00131306 
1.10645e-05 -0.000146442 0.0987008 
2.59774e-05 -0.000156671 0.0483951 
-3.02799e-05 -0.000135485 0.0987059 
-2.3949e-05 -0.000132971 0.0987162 
-1.52417e-05 -0.000139456 0.0987176 
-1.81255e-05 -0.000163842 -0.00129823 
1.6006e-05 -0.000135598 0.0987214 
2.93679e-05 -0.000174876 -0.00128526 
9.78998e-06 -0.000135056 0.098732 
1.29342e-05 -0.000130464 0.0987272 
-7.22207e-06 -0.000141663 0.0987201 
-1.52417e-05 -0.000139456 0.0987176 
-4.81241e-06 -0.00014148 0.0987264 
-1.04661e-05 -0.000164324 -0.00128991 
4.23688e-05 -0.000168894 -0.00131195 
2.61773e-05 -0.0001358 0.0987025 
2.18868e-05 -0.000128332 0.0987097 
1.6006e-05 -0.000135598 0.0987214 
6.74801e-05 -0.000129824 0.0986545 
6.68373e-05 -0.000156372 -0.00135423 
9.82497e-05 -0.000127142 0.0986226 
6.23988e-05 -0.000133868 0.0986476 
1.61102e-05 -0.000160731 0.0986629 
3.54649e-05 -0.000172983 -0.00138368 
2.35597e-05 -0.000161767 0.0986395 
1.72939e-05 -0.000176191 0.098641 
4.15961e-05 -0.000140705 0.0986683 
4.0577e-05 -0.000148248 0.0986525 
2.88882e-05 -0.000145317 0.0986738 
3.46293e-05 -0.000159403 0.0409227 
2.61773e-05 -0.0001358 0.0987025 
1.6006e-05 -0.000135598 0.0987214 
4.23688e-05 -0.000168894 -0.00131195 
2.77962e-05 -0.000151929 0.0528799 
1.58635e-05 -0.000154156 0.0986802 
2.50191e-05 -0.000151151 0.0986616 
4.35822e-05 -0.000169423 -0.00134958 
3.46293e-05 -0.000159403 0.0409227 
-9.20092e-06 -0.000147097 0.098688 
-3.47517e-06 -0.000146964 0.0986993 
5.92922e-06 -0.00017377 -0.00131939 
-4.8952e-06 -0.000157118 0.0428225 
9.49835e-05 -0.000132818 0.0986134 
7.70838e-05 -0.000143042 0.0986031 
4.96904e-05 -0.000127011 -0.0014198 
0.000116719 -0.000139122 0.0985767 
7.70838e-05 -0.000143042 0.0986031 
6.08174e-05 -0.000140316 0.0986379 
6.23933e-05 -0.00015712 -0.00136928 
5.62725e-05 -0.000152373 0.0986219 
1.0826e-06 -0.000165882 0.0986512 
9.00141e-06 -0.000168589 0.0986608 
9.86446e-06 -0.000192269 0.0986345 
9.77578e-06 -0.000171668 -0.00135998 
2.50191e-05 -0.000151151 0.0986616 
2.35597e-05 -0.000161767 0.0986395 
4.35822e-05 -0.000169423 -0.00134958 
3.49636e-05 -0.000156752 0.0986336 
9.35615e-06 -0.000155277 0.0986781 
1.61102e-05 -0.000160731 0.0986629 
9.00141e-06 -0.000168589 0.0986608 
1.35607e-05 -0.000163785 0.0466232 
-1.17395e-05 -0.000136227 0.0987276 
-1.52417e-05 -0.000139456 0.0987176 
-2.3949e-05 -0.000132971 0.0987162 
-1.81255e-05 -0.000163842 -0.00129823 
-1.08845e-06 -0.000153903 0.0986772 
9.00141e-06 -0.000168589 0.0986608 
9.77578e-06 -0.000171668 -0.00135998 
1.35607e-05 -0.000163785 0.0466232 
-4.54848e-05 -0.00012794 0.0987006 
-4.51503e-05 -0.000118954 0.0987137 
-1.95371e-05 -0.000158434 -0.00132214 
-8.53275e-05 -0.000100946 0.0986885 
-4.51911e-06 -0.000138143 0.0987322 
-4.81241e-06 -0.00014148 0.0987264 
-1.17395e-05 -0.000136227 0.0987276 
3.64478e-06 -0.000156409 0.0406113 
1.94676e-05 -0.000115176 0.0987166 
4.23688e-05 -0.000168894 -0.00131195 
3.41961e-05 -0.000112834 0.0986923 
2.18868e-05 -0.000128332 0.0987097 
-6.81769e-05 -0.000130198 0.0986878 
-4.54848e-05 -0.00012794 0.0987006 
-3.02799e-05 -0.000135485 0.0987059 
-2.52783e-05 -0.000159931 -0.00131456 
4.07179e-05 -0.00012503 0.0986871 
2.61773e-05 -0.0001358 0.0987025 
4.23688e-05 -0.000168894 -0.00131195 
4.84141e-05 -0.00014909 0.047456 
7.28359e-05 -0.000143035 -0.00139749 
6.08174e-05 -0.000140316 0.0986379 
7.70838e-05 -0.000143042 0.0986031 
9.49835e-05 -0.000132818 0.0986134 
-3.5487e-05 -0.000137721 0.0986921 
-5.99953e-05 -0.000136715 0.0986759 
-6.81769e-05 -0.000130198 0.0986878 
-2.52783e-05 -0.000159931 -0.00131456 
1.3111e-05 -0.000144837 0.0987066 
1.10645e-05 -0.000146442 0.0987008 
9.54234e-06 -0.000145571 0.0987084 
2.59774e-05 -0.000156671 0.0483951 
1.51333e-05 -0.000147592 0.0986913 
1.10645e-05 -0.000146442 0.0987008 
2.80312e-05 -0.000172858 -0.00131306 
1.35607e-05 -0.000163785 0.0466232 
6.74801e-05 -0.000129824 0.0986545 
6.23988e-05 -0.000133868 0.0986476 
4.11676e-05 -0.00013732 0.0986738 
4.84141e-05 -0.00014909 0.047456 
1.46834e-05 -0.000284854 0.0985782 
2.39463e-05 -0.000126831 -0.00137216 
2.06478e-05 -0.000232154 0.0986109 
2.78402e-05 -0.000275851 0.098578 
-9.20092e-06 -0.000147097 0.098688 
-1.08845e-06 -0.000153903 0.0986772 
-1.3287e-05 -0.000157715 0.0986654 
-8.08439e-06 -0.000166666 -0.00134179 
1.07972e-05 -0.000144509 0.0987131 
1.45742e-05 -0.000143765 0.0987128 
1.3111e-05 -0.000144837 0.0987066 
2.59774e-05 -0.000156671 0.0483951 
-1.04661e-05 -0.000164324 -0.00128991 
-1.17395e-05 -0.000136227 0.0987276 
-4.81241e-06 -0.00014148 0.0987264 
3.64478e-06 -0.000156409 0.0406113 
3.99923e-05 -0.000133451 0.0986804 
2.61773e-05 -0.0001358 0.0987025 
4.07179e-05 -0.00012503 0.0986871 
4.84141e-05 -0.00014909 0.047456 
4.82001e-05 -0.000156877 -0.00139387 
7.76625e-05 -0.00016456 0.0985853 
5.62725e-05 -0.000152373 0.0986219 
5.24145e-05 -0.000173747 0.0986015 
1.58635e-05 -0.000154156 0.0986802 
2.0664e-05 -0.000148267 0.0986791 
2.50191e-05 -0.000151151 0.0986616 
3.46293e-05 -0.000159403 0.0409227 
1.45742e-05 -0.000143765 0.0987128 
1.99599e-05 -0.000142453 0.0987033 
1.7244e-05 -0.000144349 0.0987042 
3.58157e-05 -0.000153601 0.0478757 
-1.08845e-06 -0.000153903 0.0986772 
9.00141e-06 -0.000168589 0.0986608 
1.0826e-06 -0.000165882 0.0986512 
9.77578e-06 -0.000171668 -0.00135998 
1.72939e-05 -0.000176191 0.098641 
1.61102e-05 -0.000160731 0.0986629 
2.49048e-05 -0.000176828 -0.00134508 
9.00141e-06 -0.000168589 0.0986608 
9.86446e-06 -0.000192269 0.0986345 
-4.99163e-06 -0.000189575 0.0986234 
1.0826e-06 -0.000165882 0.0986512 
9.77578e-06 -0.000171668 -0.00135998 
1.58635e-05 -0.000154156 0.0986802 
2.49048e-05 -0.000176828 -0.00134508 
4.35822e-05 -0.000169423 -0.00134958 
1.61102e-05 -0.000160731 0.0986629 
-1.3287e-05 -0.000157715 0.0986654 
-1.08845e-06 -0.000153903 0.0986772 
1.0826e-06 -0.000165882 0.0986512 
9.77578e-06 -0.000171668 -0.00135998 
-1.17395e-05 -0.000136227 0.0987276 
-4.81241e-06 -0.00014148 0.0987264 
-1.52417e-05 -0.000139456 0.0987176 
-1.04661e-05 -0.000164324 -0.00128991 
-7.22207e-06 -0.000141663 0.0987201 
-1.04661e-05 -0.000164324 -0.00128991 
-4.81241e-06 -0.00014148 0.0987264 
5.10469e-06 -0.000156292 0.0438041 
-3.47517e-06 -0.000146964 0.0986993 
-9.20092e-06 -0.000147097 0.098688 
-9.32072e-06 -0.000144178 0.0987023 
-4.8952e-06 -0.000157118 0.0428225 
1.94676e-05 -0.000115176 0.0987166 
2.93679e-05 -0.000174876 -0.00128526 
2.18868e-05 -0.000128332 0.0987097 
1.29342e-05 -0.000130464 0.0987272 
5.62725e-05 -0.000152373 0.0986219 
4.0577e-05 -0.000148248 0.0986525 
4.82001e-05 -0.000156877 -0.00139387 
3.49636e-05 -0.000156752 0.0986336 
4.35822e-05 -0.000169423 -0.00134958 
3.54649e-05 -0.000172983 -0.00138368 
2.35597e-05 -0.000161767 0.0986395 
1.61102e-05 -0.000160731 0.0986629 
-1.97879e-05 -0.000140651 0.0987051 
-9.32072e-06 -0.000144178 0.0987023 
-2.16307e-05 -0.000144661 0.0986907 
-4.8952e-06 -0.000157118 0.0428225 
-1.3287e-05 -0.000157715 0.0986654 
1.0826e-06 -0.000165882 0.0986512 
-1.07643e-05 -0.000166677 0.0986426 
9.77578e-06 -0.000171668 -0.00135998 
-3.5487e-05 -0.000137721 0.0986921 
-1.97879e-05 -0.000140651 0.0987051 
-1.23897e-05 -0.000165768 -0.001311 
-2.52783e-05 -0.000159931 -0.00131456 
2.84947e-05 -0.000141786 0.0986892 
4.15961e-05 -0.000140705 0.0986683 
2.90976e-05 -0.000143215 0.0986845 
3.58157e-05 -0.000153601 0.0478757 
1.58635e-05 -0.000154156 0.0986802 
3.46293e-05 -0.000159403 0.0409227 
2.49048e-05 -0.000176828 -0.00134508 
1.35607e-05 -0.000163785 0.0466232 
1.51333e-05 -0.000147592 0.0986913 
1.56859e-05 -0.000145437 0.0986993 
2.12208e-05 -0.000145121 0.0986883 
2.59774e-05 -0.000156671 0.0483951 
7.17475e-06 -0.000125914 0.0987388 
9.78998e-06 -0.000135056 0.098732 
2.93679e-05 -0.000174876 -0.00128526 
1.29342e-05 -0.000130464 0.0987272 
-9.20092e-06 -0.000147097 0.098688 
-2.86808e-05 -0.000150788 0.0986701 
-2.16307e-05 -0.000144661 0.0986907 
-8.08439e-06 -0.000166666 -0.00134179 
7.17475e-06 -0.000125914 0.0987388 
2.93679e-05 -0.000174876 -0.00128526 
9.78998e-06 -0.000135056 0.098732 
1.58993e-05 -0.000176087 -0.00127622 
-4.54848e-05 -0.00012794 0.0987006 
-2.3949e-05 -0.000132971 0.0987162 
-3.02799e-05 -0.000135485 0.0987059 
-1.81255e-05 -0.000163842 -0.00129823 
4.35822e-05 -0.000169423 -0.00134958 
4.0577e-05 -0.000148248 0.0986525 
2.50191e-05 -0.000151151 0.0986616 
3.49636e-05 -0.000156752 0.0986336 
1.61102e-05 -0.000160731 0.0986629 
1.58635e-05 -0.000154156 0.0986802 
2.49048e-05 -0.000176828 -0.00134508 
1.35607e-05 -0.000163785 0.0466232 
4.17963e-06 -0.000134045 0.0987388 
-5.55276e-07 -0.000136947 0.0987369 
-3.40318e-06 -0.000125188 0.098744 
3.64478e-06 -0.000156409 0.0406113 
-7.26374e-06 -0.000142568 0.0987131 
-1.97879e-05 -0.000140651 0.0987051 
-1.52417e-05 -0.000139456 0.0987176 
-4.8952e-06 -0.000157118 0.0428225 
2.49659e-05 -0.000199876 0.0986139 
2.06478e-05 -0.000232154 0.0986109 
1.72939e-05 -0.000176191 0.098641 
1.82342e-05 -0.000171346 -0.001382 
-1.07643e-05 -0.000166677 0.0986426 
1.0826e-06 -0.000165882 0.0986512 
-4.99163e-06 -0.000189575 0.0986234 
9.77578e-06 -0.000171668 -0.00135998 
-1.3287e-05 -0.000157715 0.0986654 
-1.07643e-05 -0.000166677 0.0986426 
-3.2455e-05 -0.000162827 0.0986497 
8.73357e-06 -0.000153083 -0.00138324 
9.56593e-05 -0.000121409 0.098626 
6.79483e-05 -0.000152332 -0.00138148 
6.74801e-05 -0.000129824 0.0986545 
6.32439e-05 -0.000124317 0.0986584 
9.49126e-06 -0.000144124 0.0987197 
3.95555e-06 -0.000143564 0.0987253 
8.28895e-06 -0.000143238 0.0987259 
2.00483e-05 -0.000155385 0.0473114 
2.0664e-05 -0.000148267 0.0986791 
1.58635e-05 -0.000154156 0.0986802 
1.51333e-05 -0.000147592 0.0986913 
3.46293e-05 -0.000159403 0.0409227 
4.15961e-05 -0.000140705 0.0986683 
6.08174e-05 -0.000140316 0.0986379 
6.23933e-05 -0.00015712 -0.00136928 
6.23988e-05 -0.000133868 0.0986476 
-1.35697e-06 -0.000148799 0.0986918 
-3.47517e-06 -0.000146964 0.0986993 
2.28184e-06 -0.000146766 0.0987 
8.83356e-06 -0.00016042 0.0425174 
7.28359e-05 -0.000143035 -0.00139749 
6.08174e-05 -0.000140316 0.0986379 
9.49835e-05 -0.000132818 0.0986134 
6.23988e-05 -0.000133868 0.0986476 
1.69994e-05 -0.000142342 0.0987116 
1.99599e-05 -0.000142453 0.0987033 
1.45742e-05 -0.000143765 0.0987128 
2.77962e-05 -0.000151929 0.0528799 
3.10896e-05 -0.000166488 -0.0012867 
1.6006e-05 -0.000135598 0.0987214 
9.78998e-06 -0.000135056 0.098732 
1.53255e-05 -0.000156375 0.0414374 
2.35597e-05 -0.000161767 0.0986395 
3.40307e-05 -0.000174673 0.0986113 
3.54649e-05 -0.000172983 -0.00138368 
3.49636e-05 -0.000156752 0.0986336 
2.18868e-05 -0.000128332 0.0987097 
2.93679e-05 -0.000174876 -0.00128526 
4.23688e-05 -0.000168894 -0.00131195 
1.6006e-05 -0.000135598 0.0987214 
1.58993e-05 -0.000176087 -0.00127622 
-3.40318e-06 -0.000125188 0.098744 
4.17963e-06 -0.000134045 0.0987388 
4.14139e-07 -0.000116796 0.0987471 
4.96904e-05 -0.000127011 -0.0014198 
9.49835e-05 -0.000132818 0.0986134 
0.000116719 -0.000139122 0.0985767 
0.000151871 -0.000126869 0.0985826 
1.10645e-05 -0.000146442 0.0987008 
6.24499e-06 -0.00014552 0.0987067 
9.54234e-06 -0.000145571 0.0987084 
8.83356e-06 -0.00016042 0.0425174 
-1.97879e-05 -0.000140651 0.0987051 
-3.5487e-05 -0.000137721 0.0986921 
-3.02799e-05 -0.000135485 0.0987059 
-2.52783e-05 -0.000159931 -0.00131456 
9.78998e-06 -0.000135056 0.098732 
3.10896e-05 -0.000166488 -0.0012867 
2.93679e-05 -0.000174876 -0.00128526 
1.6006e-05 -0.000135598 0.0987214 
3.40307e-05 -0.000174673 0.0986113 
3.45111e-05 -0.000150898 -0.00141396 
3.69664e-05 -0.000241054 0.0985792 
2.49659e-05 -0.000199876 0.0986139 
-1.04661e-05 -0.000164324 -0.00128991 
-1.97879e-05 -0.000140651 0.0987051 
-1.52417e-05 -0.000139456 0.0987176 
-2.52783e-05 -0.000159931 -0.00131456 
1.3111e-05 -0.000144837 0.0987066 
1.56859e-05 -0.000145437 0.0986993 
1.10645e-05 -0.000146442 0.0987008 
2.59774e-05 -0.000156671 0.0483951 
2.58075e-05 -0.000208906 -0.00127313 
1.70095e-05 -8.50517e-05 0.0987243 
8.29905e-06 -0.000109342 0.0987371 
1.94676e-05 -0.000115176 0.0987166 
-3.47517e-06 -0.000146964 0.0986993 
8.83356e-06 -0.00016042 0.0425174 
5.92922e-06 -0.00017377 -0.00131939 
-4.8952e-06 -0.000157118 0.0428225 
1.51333e-05 -0.000147592 0.0986913 
3.46293e-05 -0.000159403 0.0409227 
1.58635e-05 -0.000154156 0.0986802 
1.35607e-05 -0.000163785 0.0466232 
1.3111e-05 -0.000144837 0.0987066 
1.45742e-05 -0.000143765 0.0987128 
1.7244e-05 -0.000144349 0.0987042 
2.59774e-05 -0.000156671 0.0483951 
2.61773e-05 -0.0001358 0.0987025 
4.07179e-05 -0.00012503 0.0986871 
4.23688e-05 -0.000168894 -0.00131195 
2.18868e-05 -0.000128332 0.0987097 
9.78998e-06 -0.000135056 0.098732 
1.6006e-05 -0.000135598 0.0987214 
1.22125e-05 -0.000140349 0.0987248 
1.53255e-05 -0.000156375 0.0414374 
-5.27775e-05 -0.000154192 0.0986567 
-2.86808e-05 -0.000150788 0.0986701 
-3.2455e-05 -0.000162827 0.0986497 
2.32823e-06 -0.000143339 -0.00136492 
9.86446e-06 -0.000192269 0.0986345 
9.00141e-06 -0.000168589 0.0986608 
1.72939e-05 -0.000176191 0.098641 
1.82342e-05 -0.000171346 -0.001382 
-0.000263143 -0.000126712 0.0986073 
-0.000292233 -9.22848e-05 0.0492037 
-0.00021618 -0.000118373 0.0986262 
1.80333e-05 -0.00013585 -0.00108575 
2.12208e-05 -0.000145121 0.0986883 
2.1596e-05 -0.000144465 0.0986954 
2.90976e-05 -0.000143215 0.0986845 
3.46293e-05 -0.000159403 0.0409227 
8.22433e-05 -8.68109e-05 0.0986341 
9.01957e-06 -0.00019633 -0.00132427 
5.76615e-05 -0.000108231 0.0986621 
6.78629e-05 -7.62124e-05 0.0986654 
8.73357e-06 -0.000153083 -0.00138324 
-1.3287e-05 -0.000157715 0.0986654 
-1.07643e-05 -0.000166677 0.0986426 
9.77578e-06 -0.000171668 -0.00135998 
-2.16307e-05 -0.000144661 0.0986907 
-3.5487e-05 -0.000137721 0.0986921 
-1.23897e-05 -0.000165768 -0.001311 
-2.14513e-05 -0.000155711 -0.00133944 
1.5664e-05 -0.00034645 0.0985479 
1.62353e-05 -9.76496e-05 -0.00129637 
1.46602e-05 -0.000399625 0.0491102 
2.74148e-05 -9.60089e-05 -0.00122111 
3.54649e-05 -0.000172983 -0.00138368 
4.35822e-05 -0.000169423 -0.00134958 
2.35597e-05 -0.000161767 0.0986395 
3.49636e-05 -0.000156752 0.0986336 
1.61102e-05 -0.000160731 0.0986629 
2.49048e-05 -0.000176828 -0.00134508 
3.54649e-05 -0.000172983 -0.00138368 
1.72939e-05 -0.000176191 0.098641 
6.79483e-05 -0.000152332 -0.00138148 
6.74801e-05 -0.000129824 0.0986545 
6.68373e-05 -0.000156372 -0.00135423 
9.82497e-05 -0.000127142 0.0986226 
1.94676e-05 -0.000115176 0.0987166 
2.93679e-05 -0.000174876 -0.00128526 
4.23688e-05 -0.000168894 -0.00131195 
2.18868e-05 -0.000128332 0.0987097 
-2.52783e-05 -0.000159931 -0.00131456 
-4.54848e-05 -0.00012794 0.0987006 
-3.02799e-05 -0.000135485 0.0987059 
-1.81255e-05 -0.000163842 -0.00129823 
7.70838e-05 -0.000143042 0.0986031 
0.000126173 -0.000161717 0.0985607 
4.96904e-05 -0.000127011 -0.0014198 
0.000116719 -0.000139122 0.0985767 
3.41961e-05 -0.000112834 0.0986923 
4.23688e-05 -0.000168894 -0.00131195 
4.07179e-05 -0.00012503 0.0986871 
2.18868e-05 -0.000128332 0.0987097 
2.49048e-05 -0.000176828 -0.00134508 
1.58635e-05 -0.000154156 0.0986802 
4.35822e-05 -0.000169423 -0.00134958 
3.46293e-05 -0.000159403 0.0409227 
-1.22698e-05 -0.000127505 0.0987371 
-4.51911e-06 -0.000138143 0.0987322 
-1.17395e-05 -0.000136227 0.0987276 
3.64478e-06 -0.000156409 0.0406113 
9.49126e-06 -0.000144124 0.0987197 
1.07972e-05 -0.000144509 0.0987131 
7.10638e-06 -0.000144703 0.0987148 
1.57968e-05 -0.000158354 0.0409443 
1.22125e-05 -0.000140349 0.0987248 
1.53255e-05 -0.000156375 0.0414374 
1.6006e-05 -0.000135598 0.0987214 
2.77962e-05 -0.000151929 0.0528799 
4.0577e-05 -0.000148248 0.0986525 
4.35822e-05 -0.000169423 -0.00134958 
4.82001e-05 -0.000156877 -0.00139387 
3.49636e-05 -0.000156752 0.0986336 
2.22208e-05 -0.000143257 0.098697 
2.90976e-05 -0.000143215 0.0986845 
2.1596e-05 -0.000144465 0.0986954 
3.58157e-05 -0.000153601 0.0478757 
-1.97879e-05 -0.000140651 0.0987051 
-1.04661e-05 -0.000164324 -0.00128991 
-1.52417e-05 -0.000139456 0.0987176 
-4.8952e-06 -0.000157118 0.0428225 
4.15961e-05 -0.000140705 0.0986683 
6.23933e-05 -0.00015712 -0.00136928 
4.0577e-05 -0.000148248 0.0986525 
3.46293e-05 -0.000159403 0.0409227 
-3.46312e-07 -0.000145087 0.0987096 
-5.77733e-07 -0.000143366 0.0987195 
3.53522e-06 -0.000144725 0.0987148 
-4.8952e-06 -0.000157118 0.0428225 
-7.22207e-06 -0.000141663 0.0987201 
-5.77733e-07 -0.000143366 0.0987195 
-7.26374e-06 -0.000142568 0.0987131 
-4.8952e-06 -0.000157118 0.0428225 
-2.40418e-06 -0.000316898 0.0985423 
1.5664e-05 -0.00034645 0.0985479 
1.46602e-05 -0.000399625 0.0491102 
2.74148e-05 -9.60089e-05 -0.00122111 
5.07799e-05 -0.000164937 -0.00132455 
2.90976e-05 -0.000143215 0.0986845 
4.15961e-05 -0.000140705 0.0986683 
3.58157e-05 -0.000153601 0.0478757 
3.44599e-05 -0.000163493 -0.00137567 
5.76615e-05 -0.000108231 0.0986621 
9.38859e-05 -0.000104781 0.0986199 
8.22433e-05 -8.68109e-05 0.0986341 
4.15961e-05 -0.000140705 0.0986683 
2.88882e-05 -0.000145317 0.0986738 
2.90976e-05 -0.000143215 0.0986845 
3.46293e-05 -0.000159403 0.0409227 
-1.52417e-05 -0.000139456 0.0987176 
-1.17395e-05 -0.000136227 0.0987276 
-1.04661e-05 -0.000164324 -0.00128991 
-1.81255e-05 -0.000163842 -0.00129823 
-1.52417e-05 -0.000139456 0.0987176 
-1.04661e-05 -0.000164324 -0.00128991 
-7.22207e-06 -0.000141663 0.0987201 
-4.8952e-06 -0.000157118 0.0428225 
5.76615e-05 -0.000108231 0.0986621 
4.07179e-05 -0.00012503 0.0986871 
5.64954e-05 -0.0001623 -0.0013466 
6.32439e-05 -0.000124317 0.0986584 
-4.54848e-05 -0.00012794 0.0987006 
-1.95371e-05 -0.000158434 -0.00132214 
-4.51503e-05 -0.000118954 0.0987137 
-1.81255e-05 -0.000163842 -0.00129823 
-1.08845e-06 -0.000153903 0.0986772 
-1.3287e-05 -0.000157715 0.0986654 
-8.08439e-06 -0.000166666 -0.00134179 
9.77578e-06 -0.000171668 -0.00135998 
5.07799e-05 -0.000164937 -0.00132455 
3.58157e-05 -0.000153601 0.0478757 
4.15961e-05 -0.000140705 0.0986683 
4.84141e-05 -0.00014909 0.047456 
6.24499e-06 -0.00014552 0.0987067 
7.10638e-06 -0.000144703 0.0987148 
9.54234e-06 -0.000145571 0.0987084 
1.57968e-05 -0.000158354 0.0409443 
-0.000292233 -9.22848e-05 0.0492037 
-0.000263143 -0.000126712 0.0986073 
1.40833e-06 -0.00012084 -0.00128276 
1.80333e-05 -0.00013585 -0.00108575 
3.44599e-05 -0.000163493 -0.00137567 
9.01957e-06 -0.00019633 -0.00132427 
5.76615e-05 -0.000108231 0.0986621 
8.22433e-05 -8.68109e-05 0.0986341 
-1.22698e-05 -0.000127505 0.0987371 
1.02911e-05 -0.000184843 -0.00127057 
-3.40318e-06 -0.000125188 0.098744 
3.64478e-06 -0.000156409 0.0406113 
3.95555e-06 -0.000143564 0.0987253 
2.24402e-06 -0.000142345 0.0987313 
8.28895e-06 -0.000143238 0.0987259 
1.53255e-05 -0.000156375 0.0414374 
-1.17395e-05 -0.000136227 0.0987276 
-2.3949e-05 -0.000132971 0.0987162 
-2.02953e-05 -0.000129453 0.0987285 
-1.81255e-05 -0.000163842 -0.00129823 
-1.97879e-05 -0.000140651 0.0987051 
-2.52783e-05 -0.000159931 -0.00131456 
-1.04661e-05 -0.000164324 -0.00128991 
-4.8952e-06 -0.000157118 0.0428225 
0.000116719 -0.000139122 0.0985767 
0.000203037 -0.000149054 0.098534 
4.96904e-05 -0.000127011 -0.0014198 
0.000151871 -0.000126869 0.0985826 
9.00141e-06 -0.000168589 0.0986608 
-1.08845e-06 -0.000153903 0.0986772 
9.35615e-06 -0.000155277 0.0986781 
1.35607e-05 -0.000163785 0.0466232 
-5.99953e-05 -0.000136715 0.0986759 
-3.5487e-05 -0.000137721 0.0986921 
-2.14513e-05 -0.000155711 -0.00133944 
-2.52783e-05 -0.000159931 -0.00131456 
5.07799e-05 -0.000164937 -0.00132455 
4.15961e-05 -0.000140705 0.0986683 
2.90976e-05 -0.000143215 0.0986845 
3.46293e-05 -0.000159403 0.0409227 
9.82497e-05 -0.000127142 0.0986226 
6.79483e-05 -0.000152332 -0.00138148 
6.74801e-05 -0.000129824 0.0986545 
9.56593e-05 -0.000121409 0.098626 
7.62565e-07 -9.23891e-05 -0.00123046 
0.0003529 -6.73514e-05 0.0490939 
1.97204e-05 -0.000122198 -0.00128704 
0.000261222 -0.000110621 0.098529 
3.41961e-05 -0.000112834 0.0986923 
3.53679e-05 -0.000178603 -0.00133969 
3.82481e-05 -8.60176e-05 0.098698 
6.78629e-05 -7.62124e-05 0.0986654 
3.53522e-06 -0.000144725 0.0987148 
5.22721e-06 -0.000144263 0.0987198 
7.10638e-06 -0.000144703 0.0987148 
5.10469e-06 -0.000156292 0.0438041 
6.42127e-06 -0.000140011 0.0987325 
4.17963e-06 -0.000134045 0.0987388 
9.78998e-06 -0.000135056 0.098732 
1.53255e-05 -0.000156375 0.0414374 
-4.12602e-05 -0.000142929 0.0986749 
-2.16307e-05 -0.000144661 0.0986907 
-2.86808e-05 -0.000150788 0.0986701 
-2.14513e-05 -0.000155711 -0.00133944 
4.23688e-05 -0.000168894 -0.00131195 
1.6006e-05 -0.000135598 0.0987214 
3.10896e-05 -0.000166488 -0.0012867 
2.77962e-05 -0.000151929 0.0528799 
-1.35697e-06 -0.000148799 0.0986918 
-1.08845e-06 -0.000153903 0.0986772 
5.92922e-06 -0.00017377 -0.00131939 
1.35607e-05 -0.000163785 0.0466232 
-5.3681e-06 -9.10017e-05 0.0987516 
-3.40318e-06 -0.000125188 0.098744 
1.02911e-05 -0.000184843 -0.00127057 
4.14139e-07 -0.000116796 0.0987471 
6.23933e-05 -0.00015712 -0.00136928 
6.68373e-05 -0.000156372 -0.00135423 
4.15961e-05 -0.000140705 0.0986683 
6.23988e-05 -0.000133868 0.0986476 
-3.5487e-05 -0.000137721 0.0986921 
-2.16307e-05 -0.000144661 0.0986907 
-4.12602e-05 -0.000142929 0.0986749 
-2.14513e-05 -0.000155711 -0.00133944 
2.06478e-05 -0.000232154 0.0986109 
4.74991e-06 -0.000232419 0.0986012 
9.86446e-06 -0.000192269 0.0986345 
1.82342e-05 -0.000171346 -0.001382 
-9.20092e-06 -0.000147097 0.098688 
-1.23897e-05 -0.000165768 -0.001311 
-2.16307e-05 -0.000144661 0.0986907 
-4.8952e-06 -0.000157118 0.0428225 
7.28359e-05 -0.000143035 -0.00139749 
9.49835e-05 -0.000132818 0.0986134 
9.82497e-05 -0.000127142 0.0986226 
6.23988e-05 -0.000133868 0.0986476 
2.93679e-05 -0.000174876 -0.00128526 
9.78998e-06 -0.000135056 0.098732 
1.58993e-05 -0.000176087 -0.00127622 
1.53255e-05 -0.000156375 0.0414374 
-8.08439e-06 -0.000166666 -0.00134179 
-9.20092e-06 -0.000147097 0.098688 
-1.08845e-06 -0.000153903 0.0986772 
5.92922e-06 -0.00017377 -0.00131939 
0.000134709 -0.000110226 0.098578 
3.44599e-05 -0.000163493 -0.00137567 
3.96079e-05 -0.000144888 -0.00137149 
9.56593e-05 -0.000121409 0.098626 
3.49636e-05 -0.000156752 0.0986336 
3.40307e-05 -0.000174673 0.0986113 
4.82001e-05 -0.000156877 -0.00139387 
5.24145e-05 -0.000173747 0.0986015 
-6.81769e-05 -0.000130198 0.0986878 
-5.99953e-05 -0.000136715 0.0986759 
-2.26655e-05 -0.000147925 -0.00132947 
-2.52783e-05 -0.000159931 -0.00131456 
6.08174e-05 -0.000140316 0.0986379 
6.23933e-05 -0.00015712 -0.00136928 
7.28359e-05 -0.000143035 -0.00139749 
7.70838e-05 -0.000143042 0.0986031 
6.74801e-05 -0.000129824 0.0986545 
3.99923e-05 -0.000133451 0.0986804 
6.32439e-05 -0.000124317 0.0986584 
4.84141e-05 -0.00014909 0.047456 
1.72939e-05 -0.000176191 0.098641 
3.54649e-05 -0.000172983 -0.00138368 
2.35597e-05 -0.000161767 0.0986395 
2.49659e-05 -0.000199876 0.0986139 
-1.97879e-05 -0.000140651 0.0987051 
-2.16307e-05 -0.000144661 0.0986907 
-1.23897e-05 -0.000165768 -0.001311 
-4.8952e-06 -0.000157118 0.0428225 
-3.5487e-05 -0.000137721 0.0986921 
-6.81769e-05 -0.000130198 0.0986878 
-3.02799e-05 -0.000135485 0.0987059 
-2.52783e-05 -0.000159931 -0.00131456 
-4.25467e-05 -0.000106974 0.0987268 
-7.5038e-05 -9.11398e-05 0.0987054 
-9.37577e-05 -7.09436e-05 0.0987112 
3.36941e-05 -0.000210672 -0.00123649 
2.80312e-05 -0.000172858 -0.00131306 
8.83356e-06 -0.00016042 0.0425174 
1.10645e-05 -0.000146442 0.0987008 
2.59774e-05 -0.000156671 0.0483951 
-2.3949e-05 -0.000132971 0.0987162 
-4.54848e-05 -0.00012794 0.0987006 
-4.51503e-05 -0.000118954 0.0987137 
-1.81255e-05 -0.000163842 -0.00129823 
3.53522e-06 -0.000144725 0.0987148 
6.24499e-06 -0.00014552 0.0987067 
-3.46312e-07 -0.000145087 0.0987096 
8.83356e-06 -0.00016042 0.0425174 
1.82342e-05 -0.000171346 -0.001382 
9.86446e-06 -0.000192269 0.0986345 
9.00141e-06 -0.000168589 0.0986608 
9.77578e-06 -0.000171668 -0.00135998 
7.76625e-05 -0.00016456 0.0985853 
4.82001e-05 -0.000156877 -0.00139387 
2.68573e-05 -0.000129781 -0.00141274 
5.24145e-05 -0.000173747 0.0986015 
1.62353e-05 -9.76496e-05 -0.00129637 
2.39463e-05 -0.000126831 -0.00137216 
1.46834e-05 -0.000284854 0.0985782 
2.78402e-05 -0.000275851 0.098578 
1.58635e-05 -0.000154156 0.0986802 
1.09603e-05 -0.000149052 0.0986906 
1.51333e-05 -0.000147592 0.0986913 
1.35607e-05 -0.000163785 0.0466232 
2.93679e-05 -0.000174876 -0.00128526 
3.10896e-05 -0.000166488 -0.0012867 
9.78998e-06 -0.000135056 0.098732 
1.53255e-05 -0.000156375 0.0414374 
-2.16307e-05 -0.000144661 0.0986907 
-9.20092e-06 -0.000147097 0.098688 
-8.08439e-06 -0.000166666 -0.00134179 
-1.23897e-05 -0.000165768 -0.001311 
2.88882e-05 -0.000145317 0.0986738 
4.0577e-05 -0.000148248 0.0986525 
2.50191e-05 -0.000151151 0.0986616 
3.46293e-05 -0.000159403 0.0409227 
6.23933e-05 -0.00015712 -0.00136928 
6.08174e-05 -0.000140316 0.0986379 
4.0577e-05 -0.000148248 0.0986525 
5.62725e-05 -0.000152373 0.0986219 
3.44599e-05 -0.000163493 -0.00137567 
9.38859e-05 -0.000104781 0.0986199 
5.76615e-05 -0.000108231 0.0986621 
6.32439e-05 -0.000124317 0.0986584 
0.000154201 -0.000116364 0.0985857 
0.000134709 -0.000110226 0.098578 
3.96079e-05 -0.000144888 -0.00137149 
9.56593e-05 -0.000121409 0.098626 
-1.23897e-05 -0.000165768 -0.001311 
-2.52783e-05 -0.000159931 -0.00131456 
-1.97879e-05 -0.000140651 0.0987051 
-4.8952e-06 -0.000157118 0.0428225 
3.44599e-05 -0.000163493 -0.00137567 
0.000134709 -0.000110226 0.098578 
9.38859e-05 -0.000104781 0.0986199 
9.56593e-05 -0.000121409 0.098626 
9.82497e-05 -0.000127142 0.0986226 
6.68373e-05 -0.000156372 -0.00135423 
7.28359e-05 -0.000143035 -0.00139749 
6.23988e-05 -0.000133868 0.0986476 
2.49048e-05 -0.000176828 -0.00134508 
9.77578e-06 -0.000171668 -0.00135998 
9.00141e-06 -0.000168589 0.0986608 
1.35607e-05 -0.000163785 0.0466232 
-0.000123353 -0.000204751 0.0985958 
-9.44893e-05 -0.000170583 0.0986275 
-6.38574e-05 -0.000184374 0.0986254 
5.63222e-05 -9.9888e-05 -0.00125556 
4.17963e-06 -0.000134045 0.0987388 
1.58993e-05 -0.000176087 -0.00127622 
9.78998e-06 -0.000135056 0.098732 
1.53255e-05 -0.000156375 0.0414374 
-0.000115557 -7.78762e-05 0.0986784 
6.77956e-05 -0.00020131 -0.00114161 
-9.37577e-05 -7.09436e-05 0.0987112 
-7.5038e-05 -9.11398e-05 0.0987054 
-1.04661e-05 -0.000164324 -0.00128991 
-4.81241e-06 -0.00014148 0.0987264 
5.10469e-06 -0.000156292 0.0438041 
3.64478e-06 -0.000156409 0.0406113 
9.38859e-05 -0.000104781 0.0986199 
3.44599e-05 -0.000163493 -0.00137567 
9.56593e-05 -0.000121409 0.098626 
6.32439e-05 -0.000124317 0.0986584 
2.78402e-05 -0.000275851 0.098578 
1.62353e-05 -9.76496e-05 -0.00129637 
1.33805e-05 -7.61533e-05 -0.00128907 
4.20888e-05 -0.000288366 0.0985388 
4.79245e-06 -0.000148983 0.0986899 
-1.35697e-06 -0.000148799 0.0986918 
2.28184e-06 -0.000146766 0.0987 
8.83356e-06 -0.00016042 0.0425174 
-1.22698e-05 -0.000127505 0.0987371 
-1.17395e-05 -0.000136227 0.0987276 
-2.02953e-05 -0.000129453 0.0987285 
-1.54401e-06 -0.000169172 -0.00127717 
3.53522e-06 -0.000144725 0.0987148 
7.10638e-06 -0.000144703 0.0987148 
6.24499e-06 -0.00014552 0.0987067 
1.57968e-05 -0.000158354 0.0409443 
-3.14663e-06 3.87181e-05 0.0987687 
1.12975e-05 -2.79494e-05 0.0494737 
1.01766e-05 3.04368e-05 0.0987567 
2.33455e-05 -0.000333042 -0.00108295 
2.06478e-05 -0.000232154 0.0986109 
2.39463e-05 -0.000126831 -0.00137216 
1.46834e-05 -0.000284854 0.0985782 
2.07774e-05 -0.000143446 -0.00137342 
5.24145e-05 -0.000173747 0.0986015 
3.40307e-05 -0.000174673 0.0986113 
3.45111e-05 -0.000150898 -0.00141396 
5.65055e-05 -0.00020177 0.0985809 
1.46834e-05 -0.000284854 0.0985782 
1.5664e-05 -0.00034645 0.0985479 
1.62353e-05 -9.76496e-05 -0.00129637 
2.78402e-05 -0.000275851 0.098578 
9.00141e-06 -0.000168589 0.0986608 
2.49048e-05 -0.000176828 -0.00134508 
1.72939e-05 -0.000176191 0.098641 
1.82342e-05 -0.000171346 -0.001382 
5.22721e-06 -0.000144263 0.0987198 
3.95555e-06 -0.000143564 0.0987253 
9.49126e-06 -0.000144124 0.0987197 
5.10469e-06 -0.000156292 0.0438041 
5.76615e-05 -0.000108231 0.0986621 
5.64954e-05 -0.0001623 -0.0013466 
3.44599e-05 -0.000163493 -0.00137567 
6.32439e-05 -0.000124317 0.0986584 
-7.5038e-05 -9.11398e-05 0.0987054 
6.77956e-05 -0.00020131 -0.00114161 
-9.37577e-05 -7.09436e-05 0.0987112 
6.95253e-05 -0.000222819 -0.00121223 
1.76637e-05 -0.000140062 0.0987148 
1.22125e-05 -0.000140349 0.0987248 
1.6006e-05 -0.000135598 0.0987214 
2.77962e-05 -0.000151929 0.0528799 
-3.47517e-06 -0.000146964 0.0986993 
-3.46312e-07 -0.000145087 0.0987096 
2.28184e-06 -0.000146766 0.0987 
8.83356e-06 -0.00016042 0.0425174 
4.23444e-06 -0.000180791 -0.00127789 
-2.04563e-05 -0.000106953 0.0987433 
-1.22698e-05 -0.000127505 0.0987371 
1.02911e-05 -0.000184843 -0.00127057 
3.54649e-05 -0.000172983 -0.00138368 
4.35822e-05 -0.000169423 -0.00134958 
2.49048e-05 -0.000176828 -0.00134508 
1.61102e-05 -0.000160731 0.0986629 
-5.99953e-05 -0.000136715 0.0986759 
-3.5487e-05 -0.000137721 0.0986921 
-4.12602e-05 -0.000142929 0.0986749 
-2.14513e-05 -0.000155711 -0.00133944 
5.64954e-05 -0.0001623 -0.0013466 
4.07179e-05 -0.00012503 0.0986871 
4.23688e-05 -0.000168894 -0.00131195 
4.84141e-05 -0.00014909 0.047456 
6.23933e-05 -0.00015712 -0.00136928 
5.24052e-05 -0.000136181 -0.00141726 
7.70838e-05 -0.000143042 0.0986031 
5.62725e-05 -0.000152373 0.0986219 
2.78402e-05 -0.000275851 0.098578 
1.5664e-05 -0.00034645 0.0985479 
1.62353e-05 -9.76496e-05 -0.00129637 
4.20888e-05 -0.000288366 0.0985388 
-3.40318e-06 -0.000125188 0.098744 
-1.22698e-05 -0.000127505 0.0987371 
-2.04563e-05 -0.000106953 0.0987433 
1.02911e-05 -0.000184843 -0.00127057 
1.45742e-05 -0.000143765 0.0987128 
1.7244e-05 -0.000144349 0.0987042 
2.59774e-05 -0.000156671 0.0483951 
3.58157e-05 -0.000153601 0.0478757 
-1.72961e-05 -0.000218404 -0.00121381 
9.01957e-06 -0.00019633 -0.00132427 
9.05187e-05 -4.35611e-05 0.0986288 
6.78629e-05 -7.62124e-05 0.0986654 
8.29905e-06 -0.000109342 0.0987371 
2.93679e-05 -0.000174876 -0.00128526 
1.94676e-05 -0.000115176 0.0987166 
1.29342e-05 -0.000130464 0.0987272 
5.76615e-05 -0.000108231 0.0986621 
3.53679e-05 -0.000178603 -0.00133969 
4.07179e-05 -0.00012503 0.0986871 
3.41961e-05 -0.000112834 0.0986923 
-5.27775e-05 -0.000154192 0.0986567 
-9.2961e-05 -0.000141415 0.0986549 
-4.12602e-05 -0.000142929 0.0986749 
-2.14513e-05 -0.000155711 -0.00133944 
6.79483e-05 -0.000152332 -0.00138148 
5.64954e-05 -0.0001623 -0.0013466 
6.74801e-05 -0.000129824 0.0986545 
6.32439e-05 -0.000124317 0.0986584 
4.0577e-05 -0.000148248 0.0986525 
4.82001e-05 -0.000156877 -0.00139387 
6.23933e-05 -0.00015712 -0.00136928 
5.62725e-05 -0.000152373 0.0986219 
0.000167915 -8.46023e-05 0.0985589 
0.000134709 -0.000110226 0.098578 
9.38859e-05 -0.000104781 0.0986199 
3.44599e-05 -0.000163493 -0.00137567 
-1.35697e-06 -0.000148799 0.0986918 
4.79245e-06 -0.000148983 0.0986899 
-1.08845e-06 -0.000153903 0.0986772 
1.35607e-05 -0.000163785 0.0466232 
4.96904e-05 -0.000127011 -0.0014198 
7.28359e-05 -0.000143035 -0.00139749 
7.70838e-05 -0.000143042 0.0986031 
9.49835e-05 -0.000132818 0.0986134 
2.49659e-05 -0.000199876 0.0986139 
1.72939e-05 -0.000176191 0.098641 
3.54649e-05 -0.000172983 -0.00138368 
1.82342e-05 -0.000171346 -0.001382 
-1.22698e-05 -0.000127505 0.0987371 
-2.02953e-05 -0.000129453 0.0987285 
-2.04563e-05 -0.000106953 0.0987433 
4.23444e-06 -0.000180791 -0.00127789 
8.29905e-06 -0.000109342 0.0987371 
2.93679e-05 -0.000174876 -0.00128526 
7.17475e-06 -0.000125914 0.0987388 
2.00105e-05 -0.000204078 -0.00126963 
-4.99163e-06 -0.000189575 0.0986234 
9.86446e-06 -0.000192269 0.0986345 
1.4915e-05 -0.000155121 -0.00138766 
9.77578e-06 -0.000171668 -0.00135998 
4.0577e-05 -0.000148248 0.0986525 
6.08174e-05 -0.000140316 0.0986379 
6.23933e-05 -0.00015712 -0.00136928 
4.15961e-05 -0.000140705 0.0986683 
5.23806e-05 -0.000163024 -0.00131404 
2.61773e-05 -0.0001358 0.0987025 
4.23688e-05 -0.000168894 -0.00131195 
2.77962e-05 -0.000151929 0.0528799 
1.10645e-05 -0.000146442 0.0987008 
1.57968e-05 -0.000158354 0.0409443 
9.54234e-06 -0.000145571 0.0987084 
2.59774e-05 -0.000156671 0.0483951 
-4.12602e-05 -0.000142929 0.0986749 
-9.2961e-05 -0.000141415 0.0986549 
-5.99953e-05 -0.000136715 0.0986759 
-2.14513e-05 -0.000155711 -0.00133944 
4.23688e-05 -0.000168894 -0.00131195 
2.61773e-05 -0.0001358 0.0987025 
5.23806e-05 -0.000163024 -0.00131404 
4.84141e-05 -0.00014909 0.047456 
8.22433e-05 -8.68109e-05 0.0986341 
9.38859e-05 -0.000104781 0.0986199 
-2.04216e-06 -0.000176081 -0.00137487 
0.000123985 -5.89767e-05 0.0985898 
2.49048e-05 -0.000176828 -0.00134508 
9.00141e-06 -0.000168589 0.0986608 
1.61102e-05 -0.000160731 0.0986629 
1.35607e-05 -0.000163785 0.0466232 
2.49659e-05 -0.000199876 0.0986139 
2.06478e-05 -0.000232154 0.0986109 
2.39463e-05 -0.000126831 -0.00137216 
2.78402e-05 -0.000275851 0.098578 
1.10645e-05 -0.000146442 0.0987008 
8.83356e-06 -0.00016042 0.0425174 
1.57968e-05 -0.000158354 0.0409443 
2.59774e-05 -0.000156671 0.0483951 
3.40307e-05 -0.000174673 0.0986113 
4.82001e-05 -0.000156877 -0.00139387 
3.54649e-05 -0.000172983 -0.00138368 
3.49636e-05 -0.000156752 0.0986336 
4.35822e-05 -0.000169423 -0.00134958 
2.50191e-05 -0.000151151 0.0986616 
4.0577e-05 -0.000148248 0.0986525 
3.46293e-05 -0.000159403 0.0409227 
5.07799e-05 -0.000164937 -0.00132455 
4.15961e-05 -0.000140705 0.0986683 
6.68373e-05 -0.000156372 -0.00135423 
4.84141e-05 -0.00014909 0.047456 
-1.81255e-05 -0.000163842 -0.00129823 
-2.02953e-05 -0.000129453 0.0987285 
-1.17395e-05 -0.000136227 0.0987276 
-1.54401e-06 -0.000169172 -0.00127717 
2.93679e-05 -0.000174876 -0.00128526 
8.29905e-06 -0.000109342 0.0987371 
7.17475e-06 -0.000125914 0.0987388 
1.29342e-05 -0.000130464 0.0987272 
3.49636e-05 -0.000156752 0.0986336 
4.82001e-05 -0.000156877 -0.00139387 
5.62725e-05 -0.000152373 0.0986219 
5.24145e-05 -0.000173747 0.0986015 
1.76637e-05 -0.000140062 0.0987148 
1.6006e-05 -0.000135598 0.0987214 
2.61773e-05 -0.0001358 0.0987025 
2.77962e-05 -0.000151929 0.0528799 
-6.57453e-05 -0.000222756 0.0490282 
-9.62771e-05 -0.000260633 0.0985874 
-5.89576e-05 -0.000270146 0.0985699 
5.86183e-05 -6.1291e-05 -0.00118045 
3.53522e-06 -0.000144725 0.0987148 
8.83356e-06 -0.00016042 0.0425174 
-3.46312e-07 -0.000145087 0.0987096 
-4.8952e-06 -0.000157118 0.0428225 
2.00105e-05 -0.000204078 -0.00126963 
7.17475e-06 -0.000125914 0.0987388 
8.29905e-06 -0.000109342 0.0987371 
4.14139e-07 -0.000116796 0.0987471 
3.40307e-05 -0.000174673 0.0986113 
3.54649e-05 -0.000172983 -0.00138368 
3.45111e-05 -0.000150898 -0.00141396 
2.49659e-05 -0.000199876 0.0986139 
3.53522e-06 -0.000144725 0.0987148 
1.57968e-05 -0.000158354 0.0409443 
8.83356e-06 -0.00016042 0.0425174 
5.10469e-06 -0.000156292 0.0438041 
4.74991e-06 -0.000232419 0.0986012 
-4.99163e-06 -0.000189575 0.0986234 
9.86446e-06 -0.000192269 0.0986345 
1.4915e-05 -0.000155121 -0.00138766 
-9.20092e-06 -0.000147097 0.098688 
5.92922e-06 -0.00017377 -0.00131939 
-1.23897e-05 -0.000165768 -0.001311 
-4.8952e-06 -0.000157118 0.0428225 
3.54649e-05 -0.000172983 -0.00138368 
3.40307e-05 -0.000174673 0.0986113 
2.35597e-05 -0.000161767 0.0986395 
2.49659e-05 -0.000199876 0.0986139 
9.77578e-06 -0.000171668 -0.00135998 
5.92922e-06 -0.00017377 -0.00131939 
-1.08845e-06 -0.000153903 0.0986772 
1.35607e-05 -0.000163785 0.0466232 
3.40307e-05 -0.000174673 0.0986113 
3.69664e-05 -0.000241054 0.0985792 
3.45111e-05 -0.000150898 -0.00141396 
5.65055e-05 -0.00020177 0.0985809 
1.34344e-05 -0.000183091 -0.00127837 
-1.95371e-05 -0.000158434 -0.00132214 
-4.51503e-05 -0.000118954 0.0987137 
-8.53275e-05 -0.000100946 0.0986885 
1.07972e-05 -0.000144509 0.0987131 
1.45742e-05 -0.000143765 0.0987128 
2.59774e-05 -0.000156671 0.0483951 
2.00483e-05 -0.000155385 0.0473114 
-5.55276e-07 -0.000136947 0.0987369 
-1.22698e-05 -0.000127505 0.0987371 
-3.40318e-06 -0.000125188 0.098744 
3.64478e-06 -0.000156409 0.0406113 
2.39463e-05 -0.000126831 -0.00137216 
2.06478e-05 -0.000232154 0.0986109 
2.49659e-05 -0.000199876 0.0986139 
1.82342e-05 -0.000171346 -0.001382 
1.10645e-05 -0.000146442 0.0987008 
8.83356e-06 -0.00016042 0.0425174 
2.80312e-05 -0.000172858 -0.00131306 
1.35607e-05 -0.000163785 0.0466232 
7.76625e-05 -0.00016456 0.0985853 
5.24052e-05 -0.000136181 -0.00141726 
4.82001e-05 -0.000156877 -0.00139387 
5.62725e-05 -0.000152373 0.0986219 
-0.000226698 -8.6118e-05 0.0490204 
-0.00016144 -0.000100696 0.0986497 
1.80333e-05 -0.00013585 -0.00108575 
-0.000136161 -8.15112e-05 0.049051 
-4.51503e-05 -0.000118954 0.0987137 
-4.25467e-05 -0.000106974 0.0987268 
-2.02953e-05 -0.000129453 0.0987285 
4.23444e-06 -0.000180791 -0.00127789 
4.74991e-06 -0.000232419 0.0986012 
2.06478e-05 -0.000232154 0.0986109 
1.46834e-05 -0.000284854 0.0985782 
2.07774e-05 -0.000143446 -0.00137342 
6.82846e-05 -0.000111718 -0.00113941 
-0.000240345 -0.000128944 0.049116 
-0.000263143 -0.000126712 0.0986073 
1.40833e-06 -0.00012084 -0.00128276 
1.33805e-05 -7.61533e-05 -0.00128907 
6.5259e-05 -0.000303662 0.0489591 
8.52804e-05 -0.000241998 0.0489192 
4.20888e-05 -0.000288366 0.0985388 
7.28359e-05 -0.000143035 -0.00139749 
6.23933e-05 -0.00015712 -0.00136928 
6.08174e-05 -0.000140316 0.0986379 
6.23988e-05 -0.000133868 0.0986476 
3.44599e-05 -0.000163493 -0.00137567 
9.38859e-05 -0.000104781 0.0986199 
-2.04216e-06 -0.000176081 -0.00137487 
8.22433e-05 -8.68109e-05 0.0986341 
-6.38574e-05 -0.000184374 0.0986254 
-3.2455e-05 -0.000162827 0.0986497 
-3.24313e-05 -0.000194462 0.0986156 
8.73357e-06 -0.000153083 -0.00138324 
-2.14513e-05 -0.000155711 -0.00133944 
-9.2961e-05 -0.000141415 0.0986549 
-5.99953e-05 -0.000136715 0.0986759 
-2.26655e-05 -0.000147925 -0.00132947 
-7.22207e-06 -0.000141663 0.0987201 
-1.04661e-05 -0.000164324 -0.00128991 
5.10469e-06 -0.000156292 0.0438041 
-4.8952e-06 -0.000157118 0.0428225 
1.34344e-05 -0.000183091 -0.00127837 
-7.5038e-05 -9.11398e-05 0.0987054 
-4.25467e-05 -0.000106974 0.0987268 
3.36941e-05 -0.000210672 -0.00123649 
-4.51503e-05 -0.000118954 0.0987137 
-2.02953e-05 -0.000129453 0.0987285 
-2.3949e-05 -0.000132971 0.0987162 
-1.81255e-05 -0.000163842 -0.00129823 
-4.51503e-05 -0.000118954 0.0987137 
-2.02953e-05 -0.000129453 0.0987285 
-1.81255e-05 -0.000163842 -0.00129823 
4.23444e-06 -0.000180791 -0.00127789 
-8.08439e-06 -0.000166666 -0.00134179 
-2.86808e-05 -0.000150788 0.0986701 
-2.16307e-05 -0.000144661 0.0986907 
-2.14513e-05 -0.000155711 -0.00133944 
1.72939e-05 -0.000176191 0.098641 
2.06478e-05 -0.000232154 0.0986109 
9.86446e-06 -0.000192269 0.0986345 
1.82342e-05 -0.000171346 -0.001382 
-2.86808e-05 -0.000150788 0.0986701 
-5.27775e-05 -0.000154192 0.0986567 
-4.12602e-05 -0.000142929 0.0986749 
-2.14513e-05 -0.000155711 -0.00133944 
2.74148e-05 -9.60089e-05 -0.00122111 
1.46834e-05 -0.000284854 0.0985782 
1.62353e-05 -9.76496e-05 -0.00129637 
2.07774e-05 -0.000143446 -0.00137342 
0.0003529 -6.73514e-05 0.0490939 
0.000237452 -0.000102962 0.0985348 
1.97204e-05 -0.000122198 -0.00128704 
0.000261222 -0.000110621 0.098529 
5.64954e-05 -0.0001623 -0.0013466 
6.68373e-05 -0.000156372 -0.00135423 
6.74801e-05 -0.000129824 0.0986545 
4.84141e-05 -0.00014909 0.047456 
1.4915e-05 -0.000155121 -0.00138766 
9.86446e-06 -0.000192269 0.0986345 
4.74991e-06 -0.000232419 0.0986012 
1.82342e-05 -0.000171346 -0.001382 
9.82497e-05 -0.000127142 0.0986226 
0.000154201 -0.000116364 0.0985857 
6.79483e-05 -0.000152332 -0.00138148 
9.56593e-05 -0.000121409 0.098626 
4.07179e-05 -0.00012503 0.0986871 
5.64954e-05 -0.0001623 -0.0013466 
3.53679e-05 -0.000178603 -0.00133969 
5.76615e-05 -0.000108231 0.0986621 
-4.54848e-05 -0.00012794 0.0987006 
-6.81769e-05 -0.000130198 0.0986878 
-1.95371e-05 -0.000158434 -0.00132214 
-2.52783e-05 -0.000159931 -0.00131456 
-1.04661e-05 -0.000164324 -0.00128991 
-1.54401e-06 -0.000169172 -0.00127717 
-1.17395e-05 -0.000136227 0.0987276 
3.64478e-06 -0.000156409 0.0406113 
0.000126173 -0.000161717 0.0985607 
0.000203037 -0.000149054 0.098534 
4.96904e-05 -0.000127011 -0.0014198 
0.000116719 -0.000139122 0.0985767 
2.15707e-05 -0.000134769 -0.00138911 
-3.24313e-05 -0.000194462 0.0986156 
-4.99163e-06 -0.000189575 0.0986234 
8.73357e-06 -0.000153083 -0.00138324 
6.68373e-05 -0.000156372 -0.00135423 
6.23988e-05 -0.000133868 0.0986476 
6.74801e-05 -0.000129824 0.0986545 
4.84141e-05 -0.00014909 0.047456 
0.000154201 -0.000116364 0.0985857 
6.79483e-05 -0.000152332 -0.00138148 
6.59247e-05 -0.00013142 -0.00140624 
9.82497e-05 -0.000127142 0.0986226 
-6.03005e-06 -2.62884e-05 0.0492289 
3.40833e-05 -0.000302413 -0.00104097 
-2.24766e-05 -2.21132e-05 0.098766 
-3.212e-05 -7.16127e-05 0.0492171 
-8.08439e-06 -0.000166666 -0.00134179 
-3.2455e-05 -0.000162827 0.0986497 
-2.86808e-05 -0.000150788 0.0986701 
2.32823e-06 -0.000143339 -0.00136492 
3.10896e-05 -0.000166488 -0.0012867 
4.23688e-05 -0.000168894 -0.00131195 
2.93679e-05 -0.000174876 -0.00128526 
1.6006e-05 -0.000135598 0.0987214 
1.12975e-05 -2.79494e-05 0.0494737 
1.81464e-05 -0.000339866 -0.00110665 
1.01766e-05 3.04368e-05 0.0987567 
2.33455e-05 -0.000333042 -0.00108295 
2.58075e-05 -0.000208906 -0.00127313 
3.05461e-05 -0.000190184 -0.00130485 
1.70095e-05 -8.50517e-05 0.0987243 
1.94676e-05 -0.000115176 0.0987166 
3.96079e-05 -0.000144888 -0.00137149 
3.44599e-05 -0.000163493 -0.00137567 
0.000134709 -0.000110226 0.098578 
-2.8967e-05 -0.00014331 -0.00126731 
4.23688e-05 -0.000168894 -0.00131195 
3.05461e-05 -0.000190184 -0.00130485 
1.94676e-05 -0.000115176 0.0987166 
3.41961e-05 -0.000112834 0.0986923 
7.76625e-05 -0.00016456 0.0985853 
1.9803e-06 -9.14571e-05 -0.00137857 
0.000126173 -0.000161717 0.0985607 
0.000130569 -0.000213373 0.098537 
2.80312e-05 -0.000172858 -0.00131306 
2.59774e-05 -0.000156671 0.0483951 
1.51333e-05 -0.000147592 0.0986913 
3.46293e-05 -0.000159403 0.0409227 
1.02911e-05 -0.000184843 -0.00127057 
-2.04563e-05 -0.000106953 0.0987433 
-5.3681e-06 -9.10017e-05 0.0987516 
2.0372e-05 -0.000214172 -0.0012522 
1.10645e-05 -0.000146442 0.0987008 
9.54234e-06 -0.000145571 0.0987084 
1.57968e-05 -0.000158354 0.0409443 
8.83356e-06 -0.00016042 0.0425174 
1.51333e-05 -0.000147592 0.0986913 
2.12208e-05 -0.000145121 0.0986883 
2.0664e-05 -0.000148267 0.0986791 
3.46293e-05 -0.000159403 0.0409227 
2.00105e-05 -0.000204078 -0.00126963 
-5.3681e-06 -9.10017e-05 0.0987516 
4.14139e-07 -0.000116796 0.0987471 
-3.12835e-06 -4.04236e-05 0.0987595 
-7.22207e-06 -0.000141663 0.0987201 
5.10469e-06 -0.000156292 0.0438041 
-5.77733e-07 -0.000143366 0.0987195 
-4.8952e-06 -0.000157118 0.0428225 
1.80333e-05 -0.00013585 -0.00108575 
-0.00021618 -0.000118373 0.0986262 
-0.00016144 -0.000100696 0.0986497 
-0.000226698 -8.6118e-05 0.0490204 
8.52804e-05 -0.000241998 0.0489192 
0.00011182 -0.000227273 0.0488881 
-8.46924e-06 -7.96082e-05 -0.00125366 
0.000116697 -0.000241367 0.0985268 
-2.86808e-05 -0.000150788 0.0986701 
-9.20092e-06 -0.000147097 0.098688 
-1.3287e-05 -0.000157715 0.0986654 
-8.08439e-06 -0.000166666 -0.00134179 
4.07179e-05 -0.00012503 0.0986871 
3.53679e-05 -0.000178603 -0.00133969 
4.23688e-05 -0.000168894 -0.00131195 
3.41961e-05 -0.000112834 0.0986923 
-8.46924e-06 -7.96082e-05 -0.00125366 
8.7723e-05 -0.000206549 0.0985646 
0.000116697 -0.000241367 0.0985268 
0.000130569 -0.000213373 0.098537 
-0.000114028 -6.95729e-05 0.0490184 
-0.000136161 -8.15112e-05 0.049051 
6.77956e-05 -0.00020131 -0.00114161 
-0.000115557 -7.78762e-05 0.0986784 
6.21552e-06 -2.57463e-05 0.0494472 
3.40833e-05 -0.000302413 -0.00104097 
-3.14663e-06 3.87181e-05 0.0987687 
-6.03005e-06 -2.62884e-05 0.0492289 
2.12208e-05 -0.000145121 0.0986883 
2.59774e-05 -0.000156671 0.0483951 
2.1596e-05 -0.000144465 0.0986954 
3.46293e-05 -0.000159403 0.0409227 
3.53522e-06 -0.000144725 0.0987148 
5.10469e-06 -0.000156292 0.0438041 
8.83356e-06 -0.00016042 0.0425174 
-4.8952e-06 -0.000157118 0.0428225 
-3.24313e-05 -0.000194462 0.0986156 
-1.07643e-05 -0.000166677 0.0986426 
-4.99163e-06 -0.000189575 0.0986234 
8.73357e-06 -0.000153083 -0.00138324 
1.51333e-05 -0.000147592 0.0986913 
2.59774e-05 -0.000156671 0.0483951 
2.12208e-05 -0.000145121 0.0986883 
3.46293e-05 -0.000159403 0.0409227 
3.40833e-05 -0.000302413 -0.00104097 
5.04847e-05 -0.000273356 -0.00117868 
-2.24766e-05 -2.21132e-05 0.098766 
-3.212e-05 -7.16127e-05 0.0492171 
6.50557e-05 -6.37892e-05 0.0490272 
5.66904e-05 -1.30172e-05 0.0987075 
-3.01594e-05 -0.0002853 -0.00107604 
9.02248e-05 -9.35233e-06 0.0986701 
8.7723e-05 -0.000206549 0.0985646 
1.9803e-06 -9.14571e-05 -0.00137857 
7.76625e-05 -0.00016456 0.0985853 
0.000130569 -0.000213373 0.098537 
-0.000240345 -0.000128944 0.049116 
-0.000263143 -0.000126712 0.0986073 
-0.00017295 -0.000150118 0.0986149 
6.82846e-05 -0.000111718 -0.00113941 
-0.000110215 -0.000183504 0.0490469 
-0.000167727 -0.000173271 0.049019 
-0.000176737 -0.000192527 0.0985956 
6.82846e-05 -0.000111718 -0.00113941 
-8.53275e-05 -0.000100946 0.0986885 
6.77956e-05 -0.00020131 -0.00114161 
3.71057e-05 -0.000167443 -0.00130614 
-0.000115557 -7.78762e-05 0.0986784 
9.05187e-05 -4.35611e-05 0.0986288 
-1.72961e-05 -0.000218404 -0.00121381 
0.000102697 -6.06244e-05 0.0488981 
0.000123985 -5.89767e-05 0.0985898 
7.62565e-07 -9.23891e-05 -0.00123046 
3.1492e-06 -0.000102326 -0.00134989 
0.000292305 -0.00010822 0.0489622 
0.000261222 -0.000110621 0.098529 
-5.77733e-07 -0.000143366 0.0987195 
5.10469e-06 -0.000156292 0.0438041 
3.53522e-06 -0.000144725 0.0987148 
-4.8952e-06 -0.000157118 0.0428225 
-3.01594e-05 -0.0002853 -0.00107604 
6.32739e-05 -7.85215e-05 0.049145 
6.50557e-05 -6.37892e-05 0.0490272 
9.02248e-05 -9.35233e-06 0.0986701 
3.40307e-05 -0.000174673 0.0986113 
3.45111e-05 -0.000150898 -0.00141396 
4.82001e-05 -0.000156877 -0.00139387 
5.24145e-05 -0.000173747 0.0986015 
4.17963e-06 -0.000134045 0.0987388 
-3.40318e-06 -0.000125188 0.098744 
1.58993e-05 -0.000176087 -0.00127622 
3.64478e-06 -0.000156409 0.0406113 
-1.72961e-05 -0.000218404 -0.00121381 
0.000102697 -6.06244e-05 0.0488981 
9.02248e-05 -9.35233e-06 0.0986701 
9.05187e-05 -4.35611e-05 0.0986288 
-3.14663e-06 3.87181e-05 0.0987687 
2.33455e-05 -0.000333042 -0.00108295 
3.40833e-05 -0.000302413 -0.00104097 
6.21552e-06 -2.57463e-05 0.0494472 
-1.54401e-06 -0.000169172 -0.00127717 
4.23444e-06 -0.000180791 -0.00127789 
-1.22698e-05 -0.000127505 0.0987371 
1.02911e-05 -0.000184843 -0.00127057 
-3.49461e-05 -0.000289927 0.0490166 
-4.26277e-05 -0.000332007 0.0985467 
-5.84543e-06 -0.000354631 0.0490231 
3.81869e-05 -9.48355e-05 -0.00134206 
2.0372e-05 -0.000214172 -0.0012522 
-2.04563e-05 -0.000106953 0.0987433 
-5.3681e-06 -9.10017e-05 0.0987516 
-1.68326e-05 -5.64173e-05 0.0987538 
1.34344e-05 -0.000183091 -0.00127837 
6.77956e-05 -0.00020131 -0.00114161 
-7.5038e-05 -9.11398e-05 0.0987054 
6.95253e-05 -0.000222819 -0.00121223 
3.45111e-05 -0.000150898 -0.00141396 
2.39463e-05 -0.000126831 -0.00137216 
3.69664e-05 -0.000241054 0.0985792 
2.49659e-05 -0.000199876 0.0986139 
7.28359e-05 -0.000143035 -0.00139749 
9.49835e-05 -0.000132818 0.0986134 
0.000151871 -0.000126869 0.0985826 
9.82497e-05 -0.000127142 0.0986226 
2.61773e-05 -0.0001358 0.0987025 
2.77962e-05 -0.000151929 0.0528799 
5.23806e-05 -0.000163024 -0.00131404 
4.84141e-05 -0.00014909 0.047456 
0.000151871 -0.000126869 0.0985826 
0.000154201 -0.000116364 0.0985857 
6.59247e-05 -0.00013142 -0.00140624 
9.82497e-05 -0.000127142 0.0986226 
3.44599e-05 -0.000163493 -0.00137567 
0.000167915 -8.46023e-05 0.0985589 
0.000134709 -0.000110226 0.098578 
-2.8967e-05 -0.00014331 -0.00126731 
0.000116697 -0.000241367 0.0985268 
0.000136285 -0.000203404 0.0489122 
-8.46924e-06 -7.96082e-05 -0.00125366 
0.000130569 -0.000213373 0.098537 
3.53522e-06 -0.000144725 0.0987148 
1.57968e-05 -0.000158354 0.0409443 
6.24499e-06 -0.00014552 0.0987067 
8.83356e-06 -0.00016042 0.0425174 
9.41511e-05 -0.000250563 0.0985415 
8.52804e-05 -0.000241998 0.0489192 
-8.46924e-06 -7.96082e-05 -0.00125366 
0.000116697 -0.000241367 0.0985268 
-1.22698e-05 -0.000127505 0.0987371 
-2.02953e-05 -0.000129453 0.0987285 
4.23444e-06 -0.000180791 -0.00127789 
-1.54401e-06 -0.000169172 -0.00127717 
-4.99163e-06 -0.000189575 0.0986234 
-1.61271e-05 -0.000219308 0.0985911 
-3.24313e-05 -0.000194462 0.0986156 
2.15707e-05 -0.000134769 -0.00138911 
2.58075e-05 -0.000208906 -0.00127313 
8.29905e-06 -0.000109342 0.0987371 
1.01837e-05 -7.7034e-05 0.0987494 
2.00105e-05 -0.000204078 -0.00126963 
1.84621e-05 -0.000267791 -0.00121211 
-3.14663e-06 3.87181e-05 0.0987687 
2.33455e-05 -0.000333042 -0.00108295 
-3.12835e-06 -4.04236e-05 0.0987595 
3.45111e-05 -0.000150898 -0.00141396 
2.68573e-05 -0.000129781 -0.00141274 
5.24145e-05 -0.000173747 0.0986015 
5.65055e-05 -0.00020177 0.0985809 
3.69664e-05 -0.000241054 0.0985792 
3.31128e-06 -9.7394e-05 -0.00141165 
3.45111e-05 -0.000150898 -0.00141396 
5.65055e-05 -0.00020177 0.0985809 
-1.14174e-05 -0.000146933 -0.00130294 
-1.95371e-05 -0.000158434 -0.00132214 
-0.000111037 -0.000119808 0.0986719 
-6.81769e-05 -0.000130198 0.0986878 
4.85794e-06 -0.000298849 -0.00114089 
3.94514e-05 -4.31783e-05 0.0491683 
5.66904e-05 -1.30172e-05 0.0987075 
-3.01594e-05 -0.0002853 -0.00107604 
-9.62771e-05 -0.000260633 0.0985874 
-0.000123353 -0.000204751 0.0985958 
-6.38574e-05 -0.000184374 0.0986254 
5.63222e-05 -9.9888e-05 -0.00125556 
3.69664e-05 -0.000241054 0.0985792 
1.33805e-05 -7.61533e-05 -0.00128907 
3.31128e-06 -9.7394e-05 -0.00141165 
4.20888e-05 -0.000288366 0.0985388 
6.42127e-06 -0.000140011 0.0987325 
-5.55276e-07 -0.000136947 0.0987369 
4.17963e-06 -0.000134045 0.0987388 
3.64478e-06 -0.000156409 0.0406113 
1.3111e-05 -0.000144837 0.0987066 
9.54234e-06 -0.000145571 0.0987084 
1.57968e-05 -0.000158354 0.0409443 
2.59774e-05 -0.000156671 0.0483951 
5.64954e-05 -0.0001623 -0.0013466 
6.74801e-05 -0.000129824 0.0986545 
6.32439e-05 -0.000124317 0.0986584 
4.84141e-05 -0.00014909 0.047456 
6.42127e-06 -0.000140011 0.0987325 
3.64478e-06 -0.000156409 0.0406113 
4.17963e-06 -0.000134045 0.0987388 
1.53255e-05 -0.000156375 0.0414374 
-1.22698e-05 -0.000127505 0.0987371 
-1.54401e-06 -0.000169172 -0.00127717 
1.02911e-05 -0.000184843 -0.00127057 
3.64478e-06 -0.000156409 0.0406113 
6.32739e-05 -7.85215e-05 0.049145 
-1.72961e-05 -0.000218404 -0.00121381 
0.000102697 -6.06244e-05 0.0488981 
9.02248e-05 -9.35233e-06 0.0986701 
1.84621e-05 -0.000267791 -0.00121211 
-3.14663e-06 3.87181e-05 0.0987687 
1.01766e-05 3.04368e-05 0.0987567 
2.33455e-05 -0.000333042 -0.00108295 
0.00012768 -6.52837e-05 0.0489526 
0.000102697 -6.06244e-05 0.0488981 
-1.72961e-05 -0.000218404 -0.00121381 
0.000123985 -5.89767e-05 0.0985898 
-1.61271e-05 -0.000219308 0.0985911 
4.74991e-06 -0.000232419 0.0986012 
3.81869e-05 -9.48355e-05 -0.00134206 
1.4915e-05 -0.000155121 -0.00138766 
-1.3287e-05 -0.000157715 0.0986654 
-3.2455e-05 -0.000162827 0.0986497 
-2.86808e-05 -0.000150788 0.0986701 
-8.08439e-06 -0.000166666 -0.00134179 
-5.89576e-05 -0.000270146 0.0985699 
-4.9081e-05 -0.000261716 0.0488964 
-6.57453e-05 -0.000222756 0.0490282 
5.86183e-05 -6.1291e-05 -0.00118045 
6.77956e-05 -0.00020131 -0.00114161 
-0.000114028 -6.95729e-05 0.0490184 
-0.000115557 -7.78762e-05 0.0986784 
-7.78798e-05 -7.26825e-05 0.0490634 
5.65055e-05 -0.00020177 0.0985809 
3.31128e-06 -9.7394e-05 -0.00141165 
2.68573e-05 -0.000129781 -0.00141274 
8.7723e-05 -0.000206549 0.0985646 
4.35822e-05 -0.000169423 -0.00134958 
3.54649e-05 -0.000172983 -0.00138368 
4.82001e-05 -0.000156877 -0.00139387 
3.49636e-05 -0.000156752 0.0986336 
-5.84543e-06 -0.000354631 0.0490231 
-2.40418e-06 -0.000316898 0.0985423 
1.46602e-05 -0.000399625 0.0491102 
2.74148e-05 -9.60089e-05 -0.00122111 
3.40833e-05 -0.000302413 -0.00104097 
-2.24766e-05 -2.21132e-05 0.098766 
-3.14663e-06 3.87181e-05 0.0987687 
-6.03005e-06 -2.62884e-05 0.0492289 
-4.99163e-06 -0.000189575 0.0986234 
1.4915e-05 -0.000155121 -0.00138766 
2.15707e-05 -0.000134769 -0.00138911 
8.73357e-06 -0.000153083 -0.00138324 
5.65055e-05 -0.00020177 0.0985809 
2.68573e-05 -0.000129781 -0.00141274 
5.24145e-05 -0.000173747 0.0986015 
8.7723e-05 -0.000206549 0.0985646 
2.24402e-06 -0.000142345 0.0987313 
3.95555e-06 -0.000143564 0.0987253 
-4.81241e-06 -0.00014148 0.0987264 
5.10469e-06 -0.000156292 0.0438041 
-0.000111037 -0.000119808 0.0986719 
-0.000111047 -0.00012518 0.0986562 
-1.14174e-05 -0.000146933 -0.00130294 
-6.81769e-05 -0.000130198 0.0986878 
-8.08439e-06 -0.000166666 -0.00134179 
-1.3287e-05 -0.000157715 0.0986654 
-3.2455e-05 -0.000162827 0.0986497 
8.73357e-06 -0.000153083 -0.00138324 
1.81464e-05 -0.000339866 -0.00110665 
4.85794e-06 -0.000298849 -0.00114089 
7.8153e-06 -2.434e-05 0.0493142 
2.22232e-05 6.85568e-06 0.0987367 
8.7723e-05 -0.000206549 0.0985646 
9.41511e-05 -0.000250563 0.0985415 
-8.46924e-06 -7.96082e-05 -0.00125366 
0.000116697 -0.000241367 0.0985268 
3.95555e-06 -0.000143564 0.0987253 
5.10469e-06 -0.000156292 0.0438041 
2.24402e-06 -0.000142345 0.0987313 
1.53255e-05 -0.000156375 0.0414374 
9.77578e-06 -0.000171668 -0.00135998 
-8.08439e-06 -0.000166666 -0.00134179 
-1.08845e-06 -0.000153903 0.0986772 
5.92922e-06 -0.00017377 -0.00131939 
-6.05035e-05 -1.87932e-05 0.0987547 
-2.24766e-05 -2.21132e-05 0.098766 
5.04847e-05 -0.000273356 -0.00117868 
-3.212e-05 -7.16127e-05 0.0492171 
2.12162e-05 -0.000140924 0.098706 
2.61773e-05 -0.0001358 0.0987025 
2.68017e-05 -0.00013944 0.0986946 
2.77962e-05 -0.000151929 0.0528799 
2.68573e-05 -0.000129781 -0.00141274 
7.76625e-05 -0.00016456 0.0985853 
5.24145e-05 -0.000173747 0.0986015 
8.7723e-05 -0.000206549 0.0985646 
2.39463e-05 -0.000126831 -0.00137216 
3.69664e-05 -0.000241054 0.0985792 
2.78402e-05 -0.000275851 0.098578 
4.20888e-05 -0.000288366 0.0985388 
6.79483e-05 -0.000152332 -0.00138148 
0.000154201 -0.000116364 0.0985857 
3.96079e-05 -0.000144888 -0.00137149 
9.56593e-05 -0.000121409 0.098626 
7.76625e-05 -0.00016456 0.0985853 
1.9803e-06 -9.14571e-05 -0.00137857 
5.24052e-05 -0.000136181 -0.00141726 
0.000126173 -0.000161717 0.0985607 
5.65055e-05 -0.00020177 0.0985809 
9.41511e-05 -0.000250563 0.0985415 
3.31128e-06 -9.7394e-05 -0.00141165 
8.7723e-05 -0.000206549 0.0985646 
1.51333e-05 -0.000147592 0.0986913 
2.80312e-05 -0.000172858 -0.00131306 
3.46293e-05 -0.000159403 0.0409227 
1.35607e-05 -0.000163785 0.0466232 
3.40833e-05 -0.000302413 -0.00104097 
-2.24766e-05 -2.21132e-05 0.098766 
5.04847e-05 -0.000273356 -0.00117868 
-1.68326e-05 -5.64173e-05 0.0987538 
6.68373e-05 -0.000156372 -0.00135423 
5.64954e-05 -0.0001623 -0.0013466 
6.74801e-05 -0.000129824 0.0986545 
6.79483e-05 -0.000152332 -0.00138148 
-2.04216e-06 -0.000176081 -0.00137487 
0.000167915 -8.46023e-05 0.0985589 
9.38859e-05 -0.000104781 0.0986199 
3.44599e-05 -0.000163493 -0.00137567 
5.84535e-05 -0.000109071 -0.0013096 
-0.000110215 -0.000183504 0.0490469 
-0.000176737 -0.000192527 0.0985956 
6.82846e-05 -0.000111718 -0.00113941 
2.00105e-05 -0.000204078 -0.00126963 
-5.3681e-06 -9.10017e-05 0.0987516 
1.02911e-05 -0.000184843 -0.00127057 
4.14139e-07 -0.000116796 0.0987471 
-2.04216e-06 -0.000176081 -0.00137487 
0.00012768 -6.52837e-05 0.0489526 
-1.72961e-05 -0.000218404 -0.00121381 
0.000123985 -5.89767e-05 0.0985898 
9.38859e-05 -0.000104781 0.0986199 
0.000167915 -8.46023e-05 0.0985589 
-2.04216e-06 -0.000176081 -0.00137487 
0.000123985 -5.89767e-05 0.0985898 
7.76625e-05 -0.00016456 0.0985853 
2.68573e-05 -0.000129781 -0.00141274 
1.9803e-06 -9.14571e-05 -0.00137857 
8.7723e-05 -0.000206549 0.0985646 
2.07774e-05 -0.000143446 -0.00137342 
3.81869e-05 -9.48355e-05 -0.00134206 
4.74991e-06 -0.000232419 0.0986012 
1.4915e-05 -0.000155121 -0.00138766 
5.63222e-05 -9.9888e-05 -0.00125556 
-0.000123353 -0.000204751 0.0985958 
-9.44893e-05 -0.000170583 0.0986275 
5.84535e-05 -0.000109071 -0.0013096 
-3.5487e-05 -0.000137721 0.0986921 
-1.23897e-05 -0.000165768 -0.001311 
-2.14513e-05 -0.000155711 -0.00133944 
-2.52783e-05 -0.000159931 -0.00131456 
6.79483e-05 -0.000152332 -0.00138148 
3.96079e-05 -0.000144888 -0.00137149 
3.44599e-05 -0.000163493 -0.00137567 
9.56593e-05 -0.000121409 0.098626 
3.94514e-05 -4.31783e-05 0.0491683 
6.50557e-05 -6.37892e-05 0.0490272 
5.66904e-05 -1.30172e-05 0.0987075 
-3.01594e-05 -0.0002853 -0.00107604 
2.42056e-05 -0.000247059 -0.00120125 
-2.24766e-05 -2.21132e-05 0.098766 
3.40833e-05 -0.000302413 -0.00104097 
-1.68326e-05 -5.64173e-05 0.0987538 
5.07799e-05 -0.000164937 -0.00132455 
6.23933e-05 -0.00015712 -0.00136928 
4.15961e-05 -0.000140705 0.0986683 
3.46293e-05 -0.000159403 0.0409227 
-3.40318e-06 -0.000125188 0.098744 
1.02911e-05 -0.000184843 -0.00127057 
1.58993e-05 -0.000176087 -0.00127622 
3.64478e-06 -0.000156409 0.0406113 
-5.27775e-05 -0.000154192 0.0986567 
-9.44893e-05 -0.000170583 0.0986275 
-9.2961e-05 -0.000141415 0.0986549 
-8.18745e-06 -0.000136981 -0.00134904 
3.81869e-05 -9.48355e-05 -0.00134206 
5.86183e-05 -6.1291e-05 -0.00118045 
-5.89576e-05 -0.000270146 0.0985699 
2.15707e-05 -0.000134769 -0.00138911 
-9.44893e-05 -0.000170583 0.0986275 
-6.38574e-05 -0.000184374 0.0986254 
5.63222e-05 -9.9888e-05 -0.00125556 
2.32823e-06 -0.000143339 -0.00136492 
2.33455e-05 -0.000333042 -0.00108295 
-3.14663e-06 3.87181e-05 0.0987687 
1.12975e-05 -2.79494e-05 0.0494737 
6.21552e-06 -2.57463e-05 0.0494472 
2.0372e-05 -0.000214172 -0.0012522 
4.23444e-06 -0.000180791 -0.00127789 
-2.04563e-05 -0.000106953 0.0987433 
3.36941e-05 -0.000210672 -0.00123649 
1.99599e-05 -0.000142453 0.0987033 
1.45742e-05 -0.000143765 0.0987128 
2.00483e-05 -0.000155385 0.0473114 
3.58157e-05 -0.000153601 0.0478757 
-4.26277e-05 -0.000332007 0.0985467 
-2.40418e-06 -0.000316898 0.0985423 
-5.84543e-06 -0.000354631 0.0490231 
3.81869e-05 -9.48355e-05 -0.00134206 
2.00105e-05 -0.000204078 -0.00126963 
1.01837e-05 -7.7034e-05 0.0987494 
1.84621e-05 -0.000267791 -0.00121211 
-3.12835e-06 -4.04236e-05 0.0987595 
8.22433e-05 -8.68109e-05 0.0986341 
9.05187e-05 -4.35611e-05 0.0986288 
9.01957e-06 -0.00019633 -0.00132427 
6.78629e-05 -7.62124e-05 0.0986654 
-1.81255e-05 -0.000163842 -0.00129823 
-1.17395e-05 -0.000136227 0.0987276 
-1.04661e-05 -0.000164324 -0.00128991 
-1.54401e-06 -0.000169172 -0.00127717 
3.31128e-06 -9.7394e-05 -0.00141165 
1.33805e-05 -7.61533e-05 -0.00128907 
8.52804e-05 -0.000241998 0.0489192 
4.20888e-05 -0.000288366 0.0985388 
6.59247e-05 -0.00013142 -0.00140624 
1.97204e-05 -0.000122198 -0.00128704 
0.000154201 -0.000116364 0.0985857 
0.000261222 -0.000110621 0.098529 
0.00026686 -5.53287e-05 0.0490687 
0.0003529 -6.73514e-05 0.0490939 
0.000237452 -0.000102962 0.0985348 
1.97204e-05 -0.000122198 -0.00128704 
2.00105e-05 -0.000204078 -0.00126963 
8.29905e-06 -0.000109342 0.0987371 
1.01837e-05 -7.7034e-05 0.0987494 
4.14139e-07 -0.000116796 0.0987471 
-4.54848e-05 -0.00012794 0.0987006 
-1.95371e-05 -0.000158434 -0.00132214 
-0.000111037 -0.000119808 0.0986719 
-8.53275e-05 -0.000100946 0.0986885 
-0.000115557 -7.78762e-05 0.0986784 
-9.37577e-05 -7.09436e-05 0.0987112 
6.77956e-05 -0.00020131 -0.00114161 
-7.78798e-05 -7.26825e-05 0.0490634 
-7.5038e-05 -9.11398e-05 0.0987054 
-4.51503e-05 -0.000118954 0.0987137 
1.34344e-05 -0.000183091 -0.00127837 
-4.25467e-05 -0.000106974 0.0987268 
1.07972e-05 -0.000144509 0.0987131 
1.3111e-05 -0.000144837 0.0987066 
1.57968e-05 -0.000158354 0.0409443 
2.59774e-05 -0.000156671 0.0483951 
3.53679e-05 -0.000178603 -0.00133969 
-9.8449e-06 -0.000237959 -0.00130224 
3.82481e-05 -8.60176e-05 0.098698 
6.78629e-05 -7.62124e-05 0.0986654 
-0.000240345 -0.000128944 0.049116 
-0.000292233 -9.22848e-05 0.0492037 
-0.000263143 -0.000126712 0.0986073 
1.40833e-06 -0.00012084 -0.00128276 
3.53679e-05 -0.000178603 -0.00133969 
3.82481e-05 -8.60176e-05 0.098698 
3.05461e-05 -0.000190184 -0.00130485 
3.41961e-05 -0.000112834 0.0986923 
1.01837e-05 -7.7034e-05 0.0987494 
2.00105e-05 -0.000204078 -0.00126963 
4.14139e-07 -0.000116796 0.0987471 
-3.12835e-06 -4.04236e-05 0.0987595 
0.000201692 -0.000194003 0.0985189 
1.9803e-06 -9.14571e-05 -0.00137857 
0.000136285 -0.000203404 0.0489122 
0.000130569 -0.000213373 0.098537 
1.61102e-05 -0.000160731 0.0986629 
9.35615e-06 -0.000155277 0.0986781 
1.58635e-05 -0.000154156 0.0986802 
1.35607e-05 -0.000163785 0.0466232 
7.17475e-06 -0.000125914 0.0987388 
2.93679e-05 -0.000174876 -0.00128526 
1.58993e-05 -0.000176087 -0.00127622 
2.00105e-05 -0.000204078 -0.00126963 
5.24052e-05 -0.000136181 -0.00141726 
7.76625e-05 -0.00016456 0.0985853 
7.70838e-05 -0.000143042 0.0986031 
5.62725e-05 -0.000152373 0.0986219 
1.97204e-05 -0.000122198 -0.00128704 
0.000237452 -0.000102962 0.0985348 
0.000154201 -0.000116364 0.0985857 
0.000261222 -0.000110621 0.098529 
9.05187e-05 -4.35611e-05 0.0986288 
-9.8449e-06 -0.000237959 -0.00130224 
-1.72961e-05 -0.000218404 -0.00121381 
6.78629e-05 -7.62124e-05 0.0986654 
1.61452e-05 -3.13073e-05 0.0987437 
1.01837e-05 -7.7034e-05 0.0987494 
1.01766e-05 3.04368e-05 0.0987567 
1.84621e-05 -0.000267791 -0.00121211 
4.85794e-06 -0.000298849 -0.00114089 
3.94514e-05 -4.31783e-05 0.0491683 
7.8153e-06 -2.434e-05 0.0493142 
2.22232e-05 6.85568e-06 0.0987367 
2.58075e-05 -0.000208906 -0.00127313 
1.01837e-05 -7.7034e-05 0.0987494 
1.61452e-05 -3.13073e-05 0.0987437 
1.84621e-05 -0.000267791 -0.00121211 
-5.84543e-06 -0.000354631 0.0490231 
-2.40418e-06 -0.000316898 0.0985423 
2.74148e-05 -9.60089e-05 -0.00122111 
3.81869e-05 -9.48355e-05 -0.00134206 
2.74148e-05 -9.60089e-05 -0.00122111 
-2.40418e-06 -0.000316898 0.0985423 
1.46834e-05 -0.000284854 0.0985782 
2.07774e-05 -0.000143446 -0.00137342 
-2.26655e-05 -0.000147925 -0.00132947 
-8.18745e-06 -0.000136981 -0.00134904 
-9.2961e-05 -0.000141415 0.0986549 
1.40833e-06 -0.00012084 -0.00128276 
4.0577e-05 -0.000148248 0.0986525 
6.23933e-05 -0.00015712 -0.00136928 
4.35822e-05 -0.000169423 -0.00134958 
3.46293e-05 -0.000159403 0.0409227 
1.82342e-05 -0.000171346 -0.001382 
1.4915e-05 -0.000155121 -0.00138766 
9.86446e-06 -0.000192269 0.0986345 
9.77578e-06 -0.000171668 -0.00135998 
-4.9081e-05 -0.000261716 0.0488964 
-5.89576e-05 -0.000270146 0.0985699 
-4.26277e-05 -0.000332007 0.0985467 
5.86183e-05 -6.1291e-05 -0.00118045 
1.01766e-05 3.04368e-05 0.0987567 
-3.14663e-06 3.87181e-05 0.0987687 
1.84621e-05 -0.000267791 -0.00121211 
-3.12835e-06 -4.04236e-05 0.0987595 
-2.26655e-05 -0.000147925 -0.00132947 
-5.99953e-05 -0.000136715 0.0986759 
-2.14513e-05 -0.000155711 -0.00133944 
-2.52783e-05 -0.000159931 -0.00131456 
-3.40318e-06 -0.000125188 0.098744 
-2.04563e-05 -0.000106953 0.0987433 
-5.3681e-06 -9.10017e-05 0.0987516 
1.02911e-05 -0.000184843 -0.00127057 
0.000201692 -0.000194003 0.0985189 
0.000210288 -0.000154494 0.0488888 
-1.14611e-05 -9.5964e-05 -0.00138108 
0.000203037 -0.000149054 0.098534 
3.81869e-05 -9.48355e-05 -0.00134206 
4.74991e-06 -0.000232419 0.0986012 
-2.40418e-06 -0.000316898 0.0985423 
2.07774e-05 -0.000143446 -0.00137342 
1.9803e-06 -9.14571e-05 -0.00137857 
0.000136285 -0.000203404 0.0489122 
0.000142806 -0.000174911 0.0489794 
0.000201692 -0.000194003 0.0985189 
1.3111e-05 -0.000144837 0.0987066 
9.54234e-06 -0.000145571 0.0987084 
1.07972e-05 -0.000144509 0.0987131 
1.57968e-05 -0.000158354 0.0409443 
0.000261222 -0.000110621 0.098529 
3.1492e-06 -0.000102326 -0.00134989 
0.000203037 -0.000149054 0.098534 
0.000151871 -0.000126869 0.0985826 
6.59247e-05 -0.00013142 -0.00140624 
3.1492e-06 -0.000102326 -0.00134989 
0.000261222 -0.000110621 0.098529 
0.000151871 -0.000126869 0.0985826 
1.82342e-05 -0.000171346 -0.001382 
9.00141e-06 -0.000168589 0.0986608 
2.49048e-05 -0.000176828 -0.00134508 
9.77578e-06 -0.000171668 -0.00135998 
-5.3681e-06 -9.10017e-05 0.0987516 
2.00105e-05 -0.000204078 -0.00126963 
2.42056e-05 -0.000247059 -0.00120125 
-3.12835e-06 -4.04236e-05 0.0987595 
-2.40418e-06 -0.000316898 0.0985423 
-1.61271e-05 -0.000219308 0.0985911 
4.74991e-06 -0.000232419 0.0986012 
3.81869e-05 -9.48355e-05 -0.00134206 
2.1596e-05 -0.000144465 0.0986954 
2.59774e-05 -0.000156671 0.0483951 
2.90976e-05 -0.000143215 0.0986845 
3.46293e-05 -0.000159403 0.0409227 
-2.04563e-05 -0.000106953 0.0987433 
2.0372e-05 -0.000214172 -0.0012522 
3.36941e-05 -0.000210672 -0.00123649 
-4.66989e-05 -6.397e-05 0.0987407 
4.54217e-05 -9.5322e-05 -0.0013817 
-6.38574e-05 -0.000184374 0.0986254 
-3.24313e-05 -0.000194462 0.0986156 
8.73357e-06 -0.000153083 -0.00138324 
5.86183e-05 -6.1291e-05 -0.00118045 
-5.89576e-05 -0.000270146 0.0985699 
-4.26277e-05 -0.000332007 0.0985467 
3.81869e-05 -9.48355e-05 -0.00134206 
6.59247e-05 -0.00013142 -0.00140624 
3.1492e-06 -0.000102326 -0.00134989 
7.62565e-07 -9.23891e-05 -0.00123046 
0.000261222 -0.000110621 0.098529 
2.39463e-05 -0.000126831 -0.00137216 
1.62353e-05 -9.76496e-05 -0.00129637 
1.33805e-05 -7.61533e-05 -0.00128907 
2.78402e-05 -0.000275851 0.098578 
6.23933e-05 -0.00015712 -0.00136928 
4.35822e-05 -0.000169423 -0.00134958 
4.82001e-05 -0.000156877 -0.00139387 
4.0577e-05 -0.000148248 0.0986525 
-4.66989e-05 -6.397e-05 0.0987407 
-8.31007e-05 -3.46911e-05 0.0987316 
-6.05035e-05 -1.87932e-05 0.0987547 
6.75e-05 -0.000265508 -0.00102705 
-4.51503e-05 -0.000118954 0.0987137 
1.34344e-05 -0.000183091 -0.00127837 
-8.53275e-05 -0.000100946 0.0986885 
-7.5038e-05 -9.11398e-05 0.0987054 
0.000203037 -0.000149054 0.098534 
3.1492e-06 -0.000102326 -0.00134989 
4.96904e-05 -0.000127011 -0.0014198 
0.000151871 -0.000126869 0.0985826 
9.01957e-06 -0.00019633 -0.00132427 
-1.72961e-05 -0.000218404 -0.00121381 
-9.8449e-06 -0.000237959 -0.00130224 
6.78629e-05 -7.62124e-05 0.0986654 
5.07799e-05 -0.000164937 -0.00132455 
6.23933e-05 -0.00015712 -0.00136928 
6.68373e-05 -0.000156372 -0.00135423 
4.15961e-05 -0.000140705 0.0986683 
3.95555e-06 -0.000143564 0.0987253 
2.00483e-05 -0.000155385 0.0473114 
9.49126e-06 -0.000144124 0.0987197 
5.10469e-06 -0.000156292 0.0438041 
5.92922e-06 -0.00017377 -0.00131939 
8.83356e-06 -0.00016042 0.0425174 
-1.35697e-06 -0.000148799 0.0986918 
1.35607e-05 -0.000163785 0.0466232 
3.69664e-05 -0.000241054 0.0985792 
2.39463e-05 -0.000126831 -0.00137216 
1.33805e-05 -7.61533e-05 -0.00128907 
4.20888e-05 -0.000288366 0.0985388 
2.90976e-05 -0.000143215 0.0986845 
2.59774e-05 -0.000156671 0.0483951 
2.1596e-05 -0.000144465 0.0986954 
3.58157e-05 -0.000153601 0.0478757 
4.23444e-06 -0.000180791 -0.00127789 
-4.25467e-05 -0.000106974 0.0987268 
-2.04563e-05 -0.000106953 0.0987433 
3.36941e-05 -0.000210672 -0.00123649 
9.49835e-05 -0.000132818 0.0986134 
4.96904e-05 -0.000127011 -0.0014198 
7.28359e-05 -0.000143035 -0.00139749 
0.000151871 -0.000126869 0.0985826 
-4.9081e-05 -0.000261716 0.0488964 
-4.26277e-05 -0.000332007 0.0985467 
-3.49461e-05 -0.000289927 0.0490166 
5.86183e-05 -6.1291e-05 -0.00118045 
6.59247e-05 -0.00013142 -0.00140624 
4.96904e-05 -0.000127011 -0.0014198 
3.1492e-06 -0.000102326 -0.00134989 
0.000151871 -0.000126869 0.0985826 
1.81464e-05 -0.000339866 -0.00110665 
1.61452e-05 -3.13073e-05 0.0987437 
4.85794e-06 -0.000298849 -0.00114089 
2.22232e-05 6.85568e-06 0.0987367 
1.10645e-05 -0.000146442 0.0987008 
7.23125e-06 -0.000147016 0.0986987 
6.24499e-06 -0.00014552 0.0987067 
8.83356e-06 -0.00016042 0.0425174 
2.0372e-05 -0.000214172 -0.0012522 
-5.3681e-06 -9.10017e-05 0.0987516 
2.42056e-05 -0.000247059 -0.00120125 
-1.68326e-05 -5.64173e-05 0.0987538 
-2.04216e-06 -0.000176081 -0.00137487 
9.01957e-06 -0.00019633 -0.00132427 
3.44599e-05 -0.000163493 -0.00137567 
8.22433e-05 -8.68109e-05 0.0986341 
7.28359e-05 -0.000143035 -0.00139749 
6.79483e-05 -0.000152332 -0.00138148 
6.68373e-05 -0.000156372 -0.00135423 
9.82497e-05 -0.000127142 0.0986226 
-5.98821e-05 -6.31522e-05 0.0490398 
-6.05035e-05 -1.87932e-05 0.0987547 
-8.31007e-05 -3.46911e-05 0.0987316 
6.75e-05 -0.000265508 -0.00102705 
2.28184e-06 -0.000146766 0.0987 
7.23125e-06 -0.000147016 0.0986987 
4.79245e-06 -0.000148983 0.0986899 
8.83356e-06 -0.00016042 0.0425174 
8.7723e-05 -0.000206549 0.0985646 
-8.46924e-06 -7.96082e-05 -0.00125366 
1.9803e-06 -9.14571e-05 -0.00137857 
0.000130569 -0.000213373 0.098537 
3.2689e-05 -0.000357082 0.0490366 
6.5259e-05 -0.000303662 0.0489591 
1.33805e-05 -7.61533e-05 -0.00128907 
4.20888e-05 -0.000288366 0.0985388 
5.66904e-05 -1.30172e-05 0.0987075 
3.94514e-05 -4.31783e-05 0.0491683 
4.85794e-06 -0.000298849 -0.00114089 
2.22232e-05 6.85568e-06 0.0987367 
-8.46924e-06 -7.96082e-05 -0.00125366 
0.00011182 -0.000227273 0.0488881 
0.000136285 -0.000203404 0.0489122 
0.000116697 -0.000241367 0.0985268 
-2.24766e-05 -2.21132e-05 0.098766 
2.42056e-05 -0.000247059 -0.00120125 
3.40833e-05 -0.000302413 -0.00104097 
-3.12835e-06 -4.04236e-05 0.0987595 
-6.57453e-05 -0.000222756 0.0490282 
-0.000102369 -0.000218348 0.0489163 
-9.62771e-05 -0.000260633 0.0985874 
5.63222e-05 -9.9888e-05 -0.00125556 
4.74991e-06 -0.000232419 0.0986012 
2.06478e-05 -0.000232154 0.0986109 
2.07774e-05 -0.000143446 -0.00137342 
1.82342e-05 -0.000171346 -0.001382 
4.54217e-05 -9.5322e-05 -0.0013817 
-5.89576e-05 -0.000270146 0.0985699 
-9.62771e-05 -0.000260633 0.0985874 
5.86183e-05 -6.1291e-05 -0.00118045 
2.78402e-05 -0.000275851 0.098578 
1.33805e-05 -7.61533e-05 -0.00128907 
2.39463e-05 -0.000126831 -0.00137216 
4.20888e-05 -0.000288366 0.0985388 
4.54217e-05 -9.5322e-05 -0.0013817 
-3.24313e-05 -0.000194462 0.0986156 
-5.89576e-05 -0.000270146 0.0985699 
2.15707e-05 -0.000134769 -0.00138911 
0.000203037 -0.000149054 0.098534 
0.000292305 -0.00010822 0.0489622 
3.1492e-06 -0.000102326 -0.00134989 
0.000261222 -0.000110621 0.098529 
4.79245e-06 -0.000148983 0.0986899 
-1.35697e-06 -0.000148799 0.0986918 
8.83356e-06 -0.00016042 0.0425174 
1.35607e-05 -0.000163785 0.0466232 
2.12208e-05 -0.000145121 0.0986883 
1.56859e-05 -0.000145437 0.0986993 
2.1596e-05 -0.000144465 0.0986954 
2.59774e-05 -0.000156671 0.0483951 
2.39463e-05 -0.000126831 -0.00137216 
1.62353e-05 -9.76496e-05 -0.00129637 
1.46834e-05 -0.000284854 0.0985782 
2.07774e-05 -0.000143446 -0.00137342 
2.22208e-05 -0.000143257 0.098697 
1.7244e-05 -0.000144349 0.0987042 
1.99599e-05 -0.000142453 0.0987033 
3.58157e-05 -0.000153601 0.0478757 
1.80333e-05 -0.00013585 -0.00108575 
-0.000292233 -9.22848e-05 0.0492037 
-0.00021618 -0.000118373 0.0986262 
-0.000226698 -8.6118e-05 0.0490204 
-0.000240345 -0.000128944 0.049116 
-0.00017295 -0.000150118 0.0986149 
-0.000167727 -0.000173271 0.049019 
6.82846e-05 -0.000111718 -0.00113941 
-4.25467e-05 -0.000106974 0.0987268 
-4.51503e-05 -0.000118954 0.0987137 
1.34344e-05 -0.000183091 -0.00127837 
4.23444e-06 -0.000180791 -0.00127789 
-5.98821e-05 -6.31522e-05 0.0490398 
-3.212e-05 -7.16127e-05 0.0492171 
-6.05035e-05 -1.87932e-05 0.0987547 
6.75e-05 -0.000265508 -0.00102705 
6.24499e-06 -0.00014552 0.0987067 
1.57968e-05 -0.000158354 0.0409443 
9.54234e-06 -0.000145571 0.0987084 
8.83356e-06 -0.00016042 0.0425174 
-1.61271e-05 -0.000219308 0.0985911 
-4.99163e-06 -0.000189575 0.0986234 
1.4915e-05 -0.000155121 -0.00138766 
2.15707e-05 -0.000134769 -0.00138911 
8.73357e-06 -0.000153083 -0.00138324 
-8.08439e-06 -0.000166666 -0.00134179 
-1.3287e-05 -0.000157715 0.0986654 
9.77578e-06 -0.000171668 -0.00135998 
-7.78798e-05 -7.26825e-05 0.0490634 
-9.37577e-05 -7.09436e-05 0.0987112 
6.77956e-05 -0.00020131 -0.00114161 
6.95253e-05 -0.000222819 -0.00121223 
1.97204e-05 -0.000122198 -0.00128704 
0.000154201 -0.000116364 0.0985857 
3.96079e-05 -0.000144888 -0.00137149 
6.59247e-05 -0.00013142 -0.00140624 
5.76615e-05 -0.000108231 0.0986621 
5.64954e-05 -0.0001623 -0.0013466 
3.53679e-05 -0.000178603 -0.00133969 
3.44599e-05 -0.000163493 -0.00137567 
2.90976e-05 -0.000143215 0.0986845 
5.07799e-05 -0.000164937 -0.00132455 
3.46293e-05 -0.000159403 0.0409227 
3.58157e-05 -0.000153601 0.0478757 
-1.95371e-05 -0.000158434 -0.00132214 
-1.14174e-05 -0.000146933 -0.00130294 
-2.26655e-05 -0.000147925 -0.00132947 
-6.81769e-05 -0.000130198 0.0986878 
2.42056e-05 -0.000247059 -0.00120125 
1.02911e-05 -0.000184843 -0.00127057 
-5.3681e-06 -9.10017e-05 0.0987516 
2.0372e-05 -0.000214172 -0.0012522 
3.36941e-05 -0.000210672 -0.00123649 
-4.25467e-05 -0.000106974 0.0987268 
-2.04563e-05 -0.000106953 0.0987433 
-4.66989e-05 -6.397e-05 0.0987407 
-9.2961e-05 -0.000141415 0.0986549 
-0.000111047 -0.00012518 0.0986562 
-2.26655e-05 -0.000147925 -0.00132947 
1.40833e-06 -0.00012084 -0.00128276 
0.000167915 -8.46023e-05 0.0985589 
0.00012768 -6.52837e-05 0.0489526 
-2.04216e-06 -0.000176081 -0.00137487 
0.000123985 -5.89767e-05 0.0985898 
-2.14513e-05 -0.000155711 -0.00133944 
-5.27775e-05 -0.000154192 0.0986567 
-9.2961e-05 -0.000141415 0.0986549 
-8.18745e-06 -0.000136981 -0.00134904 
5.76615e-05 -0.000108231 0.0986621 
3.53679e-05 -0.000178603 -0.00133969 
3.41961e-05 -0.000112834 0.0986923 
6.78629e-05 -7.62124e-05 0.0986654 
0.000142806 -0.000174911 0.0489794 
0.000210288 -0.000154494 0.0488888 
-1.14611e-05 -9.5964e-05 -0.00138108 
0.000201692 -0.000194003 0.0985189 
-1.95371e-05 -0.000158434 -0.00132214 
-0.000111037 -0.000119808 0.0986719 
-6.81769e-05 -0.000130198 0.0986878 
-4.54848e-05 -0.00012794 0.0987006 
8.29905e-06 -0.000109342 0.0987371 
1.01837e-05 -7.7034e-05 0.0987494 
1.61452e-05 -3.13073e-05 0.0987437 
2.58075e-05 -0.000208906 -0.00127313 
1.30646e-05 -0.000142502 0.0987191 
1.53255e-05 -0.000156375 0.0414374 
1.22125e-05 -0.000140349 0.0987248 
2.77962e-05 -0.000151929 0.0528799 
1.30646e-05 -0.000142502 0.0987191 
8.28895e-06 -0.000143238 0.0987259 
1.22125e-05 -0.000140349 0.0987248 
1.53255e-05 -0.000156375 0.0414374 
8.73357e-06 -0.000153083 -0.00138324 
-6.38574e-05 -0.000184374 0.0986254 
-3.2455e-05 -0.000162827 0.0986497 
2.32823e-06 -0.000143339 -0.00136492 
-0.00017295 -0.000150118 0.0986149 
-0.000176737 -0.000192527 0.0985956 
-0.000167727 -0.000173271 0.049019 
6.82846e-05 -0.000111718 -0.00113941 
6.59247e-05 -0.00013142 -0.00140624 
7.28359e-05 -0.000143035 -0.00139749 
0.000151871 -0.000126869 0.0985826 
9.82497e-05 -0.000127142 0.0986226 
-0.000111047 -0.00012518 0.0986562 
-2.26655e-05 -0.000147925 -0.00132947 
-1.14174e-05 -0.000146933 -0.00130294 
-6.81769e-05 -0.000130198 0.0986878 
-2.52783e-05 -0.000159931 -0.00131456 
-1.95371e-05 -0.000158434 -0.00132214 
-4.54848e-05 -0.00012794 0.0987006 
-1.81255e-05 -0.000163842 -0.00129823 
1.70095e-05 -8.50517e-05 0.0987243 
5.66904e-05 -1.30172e-05 0.0987075 
1.63327e-05 -0.000238465 -0.00126514 
2.22232e-05 6.85568e-06 0.0987367 
-8.53275e-05 -0.000100946 0.0986885 
3.71057e-05 -0.000167443 -0.00130614 
-0.00016144 -0.000100696 0.0986497 
-0.000115557 -7.78762e-05 0.0986784 
8.29905e-06 -0.000109342 0.0987371 
1.61452e-05 -3.13073e-05 0.0987437 
1.70095e-05 -8.50517e-05 0.0987243 
2.58075e-05 -0.000208906 -0.00127313 
2.49659e-05 -0.000199876 0.0986139 
2.39463e-05 -0.000126831 -0.00137216 
3.69664e-05 -0.000241054 0.0985792 
2.78402e-05 -0.000275851 0.098578 
4.96904e-05 -0.000127011 -0.0014198 
5.24052e-05 -0.000136181 -0.00141726 
0.000126173 -0.000161717 0.0985607 
7.70838e-05 -0.000143042 0.0986031 
6.59247e-05 -0.00013142 -0.00140624 
7.62565e-07 -9.23891e-05 -0.00123046 
1.97204e-05 -0.000122198 -0.00128704 
0.000261222 -0.000110621 0.098529 
3.40833e-05 -0.000302413 -0.00104097 
2.42056e-05 -0.000247059 -0.00120125 
2.33455e-05 -0.000333042 -0.00108295 
-3.12835e-06 -4.04236e-05 0.0987595 
1.61452e-05 -3.13073e-05 0.0987437 
1.81464e-05 -0.000339866 -0.00110665 
2.58075e-05 -0.000208906 -0.00127313 
1.84621e-05 -0.000267791 -0.00121211 
1.81464e-05 -0.000339866 -0.00110665 
4.85794e-06 -0.000298849 -0.00114089 
1.61452e-05 -3.13073e-05 0.0987437 
2.58075e-05 -0.000208906 -0.00127313 
3.40833e-05 -0.000302413 -0.00104097 
5.04847e-05 -0.000273356 -0.00117868 
2.42056e-05 -0.000247059 -0.00120125 
-1.68326e-05 -5.64173e-05 0.0987538 
-9.62771e-05 -0.000260633 0.0985874 
-6.57453e-05 -0.000222756 0.0490282 
4.54217e-05 -9.5322e-05 -0.0013817 
5.86183e-05 -6.1291e-05 -0.00118045 
0.000154201 -0.000116364 0.0985857 
0.000134709 -0.000110226 0.098578 
0.000237452 -0.000102962 0.0985348 
3.96079e-05 -0.000144888 -0.00137149 
-4.51503e-05 -0.000118954 0.0987137 
-1.95371e-05 -0.000158434 -0.00132214 
1.34344e-05 -0.000183091 -0.00127837 
-1.81255e-05 -0.000163842 -0.00129823 
0.000292305 -0.00010822 0.0489622 
0.0003529 -6.73514e-05 0.0490939 
7.62565e-07 -9.23891e-05 -0.00123046 
0.000261222 -0.000110621 0.098529 
3.05461e-05 -0.000190184 -0.00130485 
2.93679e-05 -0.000174876 -0.00128526 
4.23688e-05 -0.000168894 -0.00131195 
1.94676e-05 -0.000115176 0.0987166 
-1.14611e-05 -9.5964e-05 -0.00138108 
1.9803e-06 -9.14571e-05 -0.00137857 
0.000142806 -0.000174911 0.0489794 
0.000201692 -0.000194003 0.0985189 
-0.000123353 -0.000204751 0.0985958 
-0.000110215 -0.000183504 0.0490469 
-0.000176737 -0.000192527 0.0985956 
5.84535e-05 -0.000109071 -0.0013096 
1.40833e-06 -0.00012084 -0.00128276 
-0.000263143 -0.000126712 0.0986073 
-0.00021618 -0.000118373 0.0986262 
1.80333e-05 -0.00013585 -0.00108575 
-0.000123353 -0.000204751 0.0985958 
-9.62771e-05 -0.000260633 0.0985874 
-0.000102369 -0.000218348 0.0489163 
5.63222e-05 -9.9888e-05 -0.00125556 
3.2689e-05 -0.000357082 0.0490366 
1.62353e-05 -9.76496e-05 -0.00129637 
1.46602e-05 -0.000399625 0.0491102 
1.5664e-05 -0.00034645 0.0985479 
3.53679e-05 -0.000178603 -0.00133969 
5.76615e-05 -0.000108231 0.0986621 
9.01957e-06 -0.00019633 -0.00132427 
6.78629e-05 -7.62124e-05 0.0986654 
9.41511e-05 -0.000250563 0.0985415 
-8.46924e-06 -7.96082e-05 -0.00125366 
3.31128e-06 -9.7394e-05 -0.00141165 
8.7723e-05 -0.000206549 0.0985646 
1.9803e-06 -9.14571e-05 -0.00137857 
-8.46924e-06 -7.96082e-05 -0.00125366 
0.000136285 -0.000203404 0.0489122 
0.000130569 -0.000213373 0.098537 
5.24052e-05 -0.000136181 -0.00141726 
7.28359e-05 -0.000143035 -0.00139749 
6.23933e-05 -0.00015712 -0.00136928 
7.70838e-05 -0.000143042 0.0986031 
1.81464e-05 -0.000339866 -0.00110665 
7.8153e-06 -2.434e-05 0.0493142 
1.12975e-05 -2.79494e-05 0.0494737 
1.01766e-05 3.04368e-05 0.0987567 
3.05461e-05 -0.000190184 -0.00130485 
3.82481e-05 -8.60176e-05 0.098698 
1.70095e-05 -8.50517e-05 0.0987243 
1.94676e-05 -0.000115176 0.0987166 
1.02911e-05 -0.000184843 -0.00127057 
-5.3681e-06 -9.10017e-05 0.0987516 
2.00105e-05 -0.000204078 -0.00126963 
2.42056e-05 -0.000247059 -0.00120125 
1.94676e-05 -0.000115176 0.0987166 
3.05461e-05 -0.000190184 -0.00130485 
3.82481e-05 -8.60176e-05 0.098698 
3.41961e-05 -0.000112834 0.0986923 
0.00026686 -5.53287e-05 0.0490687 
0.000237452 -0.000102962 0.0985348 
-2.8967e-05 -0.00014331 -0.00126731 
1.97204e-05 -0.000122198 -0.00128704 
3.71057e-05 -0.000167443 -0.00130614 
1.34344e-05 -0.000183091 -0.00127837 
6.77956e-05 -0.00020131 -0.00114161 
-8.53275e-05 -0.000100946 0.0986885 
1.76637e-05 -0.000140062 0.0987148 
1.30646e-05 -0.000142502 0.0987191 
1.22125e-05 -0.000140349 0.0987248 
2.77962e-05 -0.000151929 0.0528799 
5.24052e-05 -0.000136181 -0.00141726 
4.82001e-05 -0.000156877 -0.00139387 
2.68573e-05 -0.000129781 -0.00141274 
7.76625e-05 -0.00016456 0.0985853 
5.92922e-06 -0.00017377 -0.00131939 
-8.08439e-06 -0.000166666 -0.00134179 
-9.20092e-06 -0.000147097 0.098688 
-1.23897e-05 -0.000165768 -0.001311 
1.84621e-05 -0.000267791 -0.00121211 
2.58075e-05 -0.000208906 -0.00127313 
1.01837e-05 -7.7034e-05 0.0987494 
2.00105e-05 -0.000204078 -0.00126963 
-4.26277e-05 -0.000332007 0.0985467 
-3.49461e-05 -0.000289927 0.0490166 
5.86183e-05 -6.1291e-05 -0.00118045 
3.81869e-05 -9.48355e-05 -0.00134206 
-1.95371e-05 -0.000158434 -0.00132214 
3.71057e-05 -0.000167443 -0.00130614 
-0.000111037 -0.000119808 0.0986719 
-8.53275e-05 -0.000100946 0.0986885 
5.66904e-05 -1.30172e-05 0.0987075 
6.50557e-05 -6.37892e-05 0.0490272 
8.1177e-05 -3.99744e-05 0.0986789 
9.02248e-05 -9.35233e-06 0.0986701 
-4.66989e-05 -6.397e-05 0.0987407 
-6.05035e-05 -1.87932e-05 0.0987547 
5.04847e-05 -0.000273356 -0.00117868 
6.75e-05 -0.000265508 -0.00102705 
1.72939e-05 -0.000176191 0.098641 
2.49048e-05 -0.000176828 -0.00134508 
3.54649e-05 -0.000172983 -0.00138368 
1.82342e-05 -0.000171346 -0.001382 
3.96079e-05 -0.000144888 -0.00137149 
0.000237452 -0.000102962 0.0985348 
0.000154201 -0.000116364 0.0985857 
1.97204e-05 -0.000122198 -0.00128704 
-3.24313e-05 -0.000194462 0.0986156 
-3.2455e-05 -0.000162827 0.0986497 
-1.07643e-05 -0.000166677 0.0986426 
8.73357e-06 -0.000153083 -0.00138324 
9.41511e-05 -0.000250563 0.0985415 
3.31128e-06 -9.7394e-05 -0.00141165 
8.52804e-05 -0.000241998 0.0489192 
4.20888e-05 -0.000288366 0.0985388 
5.64954e-05 -0.0001623 -0.0013466 
3.53679e-05 -0.000178603 -0.00133969 
4.23688e-05 -0.000168894 -0.00131195 
4.07179e-05 -0.00012503 0.0986871 
7.28359e-05 -0.000143035 -0.00139749 
6.59247e-05 -0.00013142 -0.00140624 
6.79483e-05 -0.000152332 -0.00138148 
9.82497e-05 -0.000127142 0.0986226 
2.68573e-05 -0.000129781 -0.00141274 
3.31128e-06 -9.7394e-05 -0.00141165 
-8.46924e-06 -7.96082e-05 -0.00125366 
8.7723e-05 -0.000206549 0.0985646 
0.000210288 -0.000154494 0.0488888 
0.000292305 -0.00010822 0.0489622 
3.1492e-06 -0.000102326 -0.00134989 
0.000203037 -0.000149054 0.098534 
3.45111e-05 -0.000150898 -0.00141396 
4.82001e-05 -0.000156877 -0.00139387 
3.54649e-05 -0.000172983 -0.00138368 
3.40307e-05 -0.000174673 0.0986113 
-1.22698e-05 -0.000127505 0.0987371 
-1.17395e-05 -0.000136227 0.0987276 
-1.54401e-06 -0.000169172 -0.00127717 
3.64478e-06 -0.000156409 0.0406113 
-6.38574e-05 -0.000184374 0.0986254 
-9.62771e-05 -0.000260633 0.0985874 
5.63222e-05 -9.9888e-05 -0.00125556 
4.54217e-05 -9.5322e-05 -0.0013817 
-0.000123353 -0.000204751 0.0985958 
-0.000176737 -0.000192527 0.0985956 
-9.44893e-05 -0.000170583 0.0986275 
5.84535e-05 -0.000109071 -0.0013096 
6.50557e-05 -6.37892e-05 0.0490272 
6.32739e-05 -7.85215e-05 0.049145 
8.1177e-05 -3.99744e-05 0.0986789 
9.02248e-05 -9.35233e-06 0.0986701 
1.01766e-05 3.04368e-05 0.0987567 
1.81464e-05 -0.000339866 -0.00110665 
1.61452e-05 -3.13073e-05 0.0987437 
1.84621e-05 -0.000267791 -0.00121211 
-5.89576e-05 -0.000270146 0.0985699 
-1.61271e-05 -0.000219308 0.0985911 
3.81869e-05 -9.48355e-05 -0.00134206 
2.15707e-05 -0.000134769 -0.00138911 
-0.00021618 -0.000118373 0.0986262 
1.40833e-06 -0.00012084 -0.00128276 
1.80333e-05 -0.00013585 -0.00108575 
-1.14174e-05 -0.000146933 -0.00130294 
-2.04216e-06 -0.000176081 -0.00137487 
0.00012768 -6.52837e-05 0.0489526 
0.000167915 -8.46023e-05 0.0985589 
-2.8967e-05 -0.00014331 -0.00126731 
-9.8449e-06 -0.000237959 -0.00130224 
3.82481e-05 -8.60176e-05 0.098698 
5.66904e-05 -1.30172e-05 0.0987075 
1.63327e-05 -0.000238465 -0.00126514 
3.44599e-05 -0.000163493 -0.00137567 
-2.04216e-06 -0.000176081 -0.00137487 
0.000167915 -8.46023e-05 0.0985589 
-2.8967e-05 -0.00014331 -0.00126731 
3.10896e-05 -0.000166488 -0.0012867 
1.6006e-05 -0.000135598 0.0987214 
1.53255e-05 -0.000156375 0.0414374 
2.77962e-05 -0.000151929 0.0528799 
5.84535e-05 -0.000109071 -0.0013096 
-9.44893e-05 -0.000170583 0.0986275 
5.63222e-05 -9.9888e-05 -0.00125556 
2.32823e-06 -0.000143339 -0.00136492 
6.23933e-05 -0.00015712 -0.00136928 
7.28359e-05 -0.000143035 -0.00139749 
6.68373e-05 -0.000156372 -0.00135423 
6.23988e-05 -0.000133868 0.0986476 
-0.000111037 -0.000119808 0.0986719 
3.71057e-05 -0.000167443 -0.00130614 
-0.00016144 -0.000100696 0.0986497 
-8.53275e-05 -0.000100946 0.0986885 
-1.23897e-05 -0.000165768 -0.001311 
-8.08439e-06 -0.000166666 -0.00134179 
-2.16307e-05 -0.000144661 0.0986907 
-2.14513e-05 -0.000155711 -0.00133944 
1.99599e-05 -0.000142453 0.0987033 
2.00483e-05 -0.000155385 0.0473114 
1.45742e-05 -0.000143765 0.0987128 
2.77962e-05 -0.000151929 0.0528799 
9.54234e-06 -0.000145571 0.0987084 
7.10638e-06 -0.000144703 0.0987148 
1.07972e-05 -0.000144509 0.0987131 
1.57968e-05 -0.000158354 0.0409443 
5.24052e-05 -0.000136181 -0.00141726 
6.23933e-05 -0.00015712 -0.00136928 
4.82001e-05 -0.000156877 -0.00139387 
5.62725e-05 -0.000152373 0.0986219 
3.31128e-06 -9.7394e-05 -0.00141165 
2.39463e-05 -0.000126831 -0.00137216 
1.33805e-05 -7.61533e-05 -0.00128907 
3.69664e-05 -0.000241054 0.0985792 
5.04847e-05 -0.000273356 -0.00117868 
-6.05035e-05 -1.87932e-05 0.0987547 
-3.212e-05 -7.16127e-05 0.0492171 
6.75e-05 -0.000265508 -0.00102705 
-8.18745e-06 -0.000136981 -0.00134904 
-0.00017295 -0.000150118 0.0986149 
-9.2961e-05 -0.000141415 0.0986549 
1.40833e-06 -0.00012084 -0.00128276 
-8.18745e-06 -0.000136981 -0.00134904 
-5.27775e-05 -0.000154192 0.0986567 
-9.44893e-05 -0.000170583 0.0986275 
2.32823e-06 -0.000143339 -0.00136492 
5.86183e-05 -6.1291e-05 -0.00118045 
4.54217e-05 -9.5322e-05 -0.0013817 
-5.89576e-05 -0.000270146 0.0985699 
2.15707e-05 -0.000134769 -0.00138911 
-6.05035e-05 -1.87932e-05 0.0987547 
5.04847e-05 -0.000273356 -0.00117868 
-2.24766e-05 -2.21132e-05 0.098766 
-1.68326e-05 -5.64173e-05 0.0987538 
1.84621e-05 -0.000267791 -0.00121211 
1.01837e-05 -7.7034e-05 0.0987494 
1.01766e-05 3.04368e-05 0.0987567 
-3.12835e-06 -4.04236e-05 0.0987595 
8.29905e-06 -0.000109342 0.0987371 
2.58075e-05 -0.000208906 -0.00127313 
2.93679e-05 -0.000174876 -0.00128526 
2.00105e-05 -0.000204078 -0.00126963 
2.90976e-05 -0.000143215 0.0986845 
3.46293e-05 -0.000159403 0.0409227 
2.59774e-05 -0.000156671 0.0483951 
3.58157e-05 -0.000153601 0.0478757 
2.22232e-05 6.85568e-06 0.0987367 
7.8153e-06 -2.434e-05 0.0493142 
1.81464e-05 -0.000339866 -0.00110665 
1.01766e-05 3.04368e-05 0.0987567 
-8.31007e-05 -3.46911e-05 0.0987316 
-7.78798e-05 -7.26825e-05 0.0490634 
6.75e-05 -0.000265508 -0.00102705 
6.95253e-05 -0.000222819 -0.00121223 
9.41511e-05 -0.000250563 0.0985415 
3.69664e-05 -0.000241054 0.0985792 
3.31128e-06 -9.7394e-05 -0.00141165 
4.20888e-05 -0.000288366 0.0985388 
0.000237452 -0.000102962 0.0985348 
0.000193677 -6.83678e-05 0.048846 
0.00026686 -5.53287e-05 0.0490687 
-2.8967e-05 -0.00014331 -0.00126731 
3.53522e-06 -0.000144725 0.0987148 
-5.77733e-07 -0.000143366 0.0987195 
5.22721e-06 -0.000144263 0.0987198 
5.10469e-06 -0.000156292 0.0438041 
-0.000263143 -0.000126712 0.0986073 
-0.00017295 -0.000150118 0.0986149 
6.82846e-05 -0.000111718 -0.00113941 
1.40833e-06 -0.00012084 -0.00128276 
1.70095e-05 -8.50517e-05 0.0987243 
5.66904e-05 -1.30172e-05 0.0987075 
3.82481e-05 -8.60176e-05 0.098698 
1.63327e-05 -0.000238465 -0.00126514 
-1.81255e-05 -0.000163842 -0.00129823 
1.34344e-05 -0.000183091 -0.00127837 
-4.51503e-05 -0.000118954 0.0987137 
4.23444e-06 -0.000180791 -0.00127789 
-6.05035e-05 -1.87932e-05 0.0987547 
-2.65287e-05 -4.34172e-05 0.0987705 
-2.24766e-05 -2.21132e-05 0.098766 
-3.212e-05 -7.16127e-05 0.0492171 
4.23444e-06 -0.000180791 -0.00127789 
-2.02953e-05 -0.000129453 0.0987285 
-1.81255e-05 -0.000163842 -0.00129823 
-1.54401e-06 -0.000169172 -0.00127717 
3.53522e-06 -0.000144725 0.0987148 
7.10638e-06 -0.000144703 0.0987148 
1.57968e-05 -0.000158354 0.0409443 
5.10469e-06 -0.000156292 0.0438041 
2.39463e-05 -0.000126831 -0.00137216 
3.45111e-05 -0.000150898 -0.00141396 
3.54649e-05 -0.000172983 -0.00138368 
2.49659e-05 -0.000199876 0.0986139 
5.24052e-05 -0.000136181 -0.00141726 
4.96904e-05 -0.000127011 -0.0014198 
7.28359e-05 -0.000143035 -0.00139749 
7.70838e-05 -0.000143042 0.0986031 
3.31128e-06 -9.7394e-05 -0.00141165 
3.69664e-05 -0.000241054 0.0985792 
9.41511e-05 -0.000250563 0.0985415 
5.65055e-05 -0.00020177 0.0985809 
2.68017e-05 -0.00013944 0.0986946 
2.77962e-05 -0.000151929 0.0528799 
2.61773e-05 -0.0001358 0.0987025 
4.84141e-05 -0.00014909 0.047456 
5.76615e-05 -0.000108231 0.0986621 
3.53679e-05 -0.000178603 -0.00133969 
9.01957e-06 -0.00019633 -0.00132427 
3.44599e-05 -0.000163493 -0.00137567 
2.49659e-05 -0.000199876 0.0986139 
3.54649e-05 -0.000172983 -0.00138368 
2.39463e-05 -0.000126831 -0.00137216 
1.82342e-05 -0.000171346 -0.001382 
1.07972e-05 -0.000144509 0.0987131 
1.57968e-05 -0.000158354 0.0409443 
9.49126e-06 -0.000144124 0.0987197 
2.00483e-05 -0.000155385 0.0473114 
0.00011182 -0.000227273 0.0488881 
-8.46924e-06 -7.96082e-05 -0.00125366 
-8.78961e-05 3.71185e-05 -0.000635115 
8.52804e-05 -0.000241998 0.0489192 
4.96904e-05 -0.000127011 -0.0014198 
-1.14611e-05 -9.5964e-05 -0.00138108 
0.000203037 -0.000149054 0.098534 
0.000126173 -0.000161717 0.0985607 
-9.8449e-06 -0.000237959 -0.00130224 
6.32739e-05 -7.85215e-05 0.049145 
-3.01594e-05 -0.0002853 -0.00107604 
9.02248e-05 -9.35233e-06 0.0986701 
3.71057e-05 -0.000167443 -0.00130614 
1.80333e-05 -0.00013585 -0.00108575 
-0.00016144 -0.000100696 0.0986497 
-0.000136161 -8.15112e-05 0.049051 
-0.000176737 -0.000192527 0.0985956 
-0.00017295 -0.000150118 0.0986149 
5.84535e-05 -0.000109071 -0.0013096 
6.82846e-05 -0.000111718 -0.00113941 
0.00012768 -6.52837e-05 0.0489526 
0.000193677 -6.83678e-05 0.048846 
0.000167915 -8.46023e-05 0.0985589 
-2.8967e-05 -0.00014331 -0.00126731 
-0.000136161 -8.15112e-05 0.049051 
-0.000114028 -6.95729e-05 0.0490184 
-0.000105702 -8.14495e-05 0.0986264 
-0.000115557 -7.78762e-05 0.0986784 
-1.14611e-05 -9.5964e-05 -0.00138108 
5.24052e-05 -0.000136181 -0.00141726 
1.9803e-06 -9.14571e-05 -0.00137857 
0.000126173 -0.000161717 0.0985607 
-7.78798e-05 -7.26825e-05 0.0490634 
-5.98821e-05 -6.31522e-05 0.0490398 
-8.31007e-05 -3.46911e-05 0.0987316 
6.75e-05 -0.000265508 -0.00102705 
1.02911e-05 -0.000184843 -0.00127057 
4.23444e-06 -0.000180791 -0.00127789 
-2.04563e-05 -0.000106953 0.0987433 
2.0372e-05 -0.000214172 -0.0012522 
0.000102697 -6.06244e-05 0.0488981 
6.56697e-05 -1.0594e-05 0.098628 
9.02248e-05 -9.35233e-06 0.0986701 
9.05187e-05 -4.35611e-05 0.0986288 
-8.48685e-05 -6.33643e-05 0.0986786 
-0.000115557 -7.78762e-05 0.0986784 
-0.000114028 -6.95729e-05 0.0490184 
-7.78798e-05 -7.26825e-05 0.0490634 
-5.89576e-05 -0.000270146 0.0985699 
-1.61271e-05 -0.000219308 0.0985911 
-4.26277e-05 -0.000332007 0.0985467 
3.81869e-05 -9.48355e-05 -0.00134206 
-4.81241e-06 -0.00014148 0.0987264 
-4.51911e-06 -0.000138143 0.0987322 
2.24402e-06 -0.000142345 0.0987313 
3.64478e-06 -0.000156409 0.0406113 
3.1492e-06 -0.000102326 -0.00134989 
-1.14611e-05 -9.5964e-05 -0.00138108 
0.000210288 -0.000154494 0.0488888 
0.000203037 -0.000149054 0.098534 
8.52804e-05 -0.000241998 0.0489192 
-8.46924e-06 -7.96082e-05 -0.00125366 
3.31128e-06 -9.7394e-05 -0.00141165 
9.41511e-05 -0.000250563 0.0985415 
1.63327e-05 -0.000238465 -0.00126514 
5.66904e-05 -1.30172e-05 0.0987075 
4.85794e-06 -0.000298849 -0.00114089 
2.22232e-05 6.85568e-06 0.0987367 
-9.8449e-06 -0.000237959 -0.00130224 
-1.72961e-05 -0.000218404 -0.00121381 
6.32739e-05 -7.85215e-05 0.049145 
9.02248e-05 -9.35233e-06 0.0986701 
9.05187e-05 -4.35611e-05 0.0986288 
9.02248e-05 -9.35233e-06 0.0986701 
-9.8449e-06 -0.000237959 -0.00130224 
6.78629e-05 -7.62124e-05 0.0986654 
2.68573e-05 -0.000129781 -0.00141274 
3.45111e-05 -0.000150898 -0.00141396 
3.31128e-06 -9.7394e-05 -0.00141165 
5.65055e-05 -0.00020177 0.0985809 
2.80312e-05 -0.000172858 -0.00131306 
2.49048e-05 -0.000176828 -0.00134508 
3.46293e-05 -0.000159403 0.0409227 
1.35607e-05 -0.000163785 0.0466232 
-0.000105702 -8.14495e-05 0.0986264 
-0.00016144 -0.000100696 0.0986497 
-0.000136161 -8.15112e-05 0.049051 
-0.000115557 -7.78762e-05 0.0986784 
-2.02953e-05 -0.000129453 0.0987285 
-4.25467e-05 -0.000106974 0.0987268 
-2.04563e-05 -0.000106953 0.0987433 
4.23444e-06 -0.000180791 -0.00127789 
5.66904e-05 -1.30172e-05 0.0987075 
-3.01594e-05 -0.0002853 -0.00107604 
-9.8449e-06 -0.000237959 -0.00130224 
1.63327e-05 -0.000238465 -0.00126514 
-4.81241e-06 -0.00014148 0.0987264 
2.24402e-06 -0.000142345 0.0987313 
5.10469e-06 -0.000156292 0.0438041 
3.64478e-06 -0.000156409 0.0406113 
-6.03005e-06 -2.62884e-05 0.0492289 
-2.24766e-05 -2.21132e-05 0.098766 
-2.65287e-05 -4.34172e-05 0.0987705 
-3.212e-05 -7.16127e-05 0.0492171 
-9.62771e-05 -0.000260633 0.0985874 
-6.38574e-05 -0.000184374 0.0986254 
-3.24313e-05 -0.000194462 0.0986156 
4.54217e-05 -9.5322e-05 -0.0013817 
-3.24313e-05 -0.000194462 0.0986156 
-5.89576e-05 -0.000270146 0.0985699 
-9.62771e-05 -0.000260633 0.0985874 
4.54217e-05 -9.5322e-05 -0.0013817 
8.52804e-05 -0.000241998 0.0489192 
6.5259e-05 -0.000303662 0.0489591 
6.09343e-05 -0.000251581 0.0984915 
4.20888e-05 -0.000288366 0.0985388 
6.56697e-05 -1.0594e-05 0.098628 
6.32739e-05 -7.85215e-05 0.049145 
0.000102697 -6.06244e-05 0.0488981 
9.02248e-05 -9.35233e-06 0.0986701 
6.79483e-05 -0.000152332 -0.00138148 
3.96079e-05 -0.000144888 -0.00137149 
0.000154201 -0.000116364 0.0985857 
6.59247e-05 -0.00013142 -0.00140624 
-0.000110215 -0.000183504 0.0490469 
-0.000123353 -0.000204751 0.0985958 
5.63222e-05 -9.9888e-05 -0.00125556 
5.84535e-05 -0.000109071 -0.0013096 
-2.26655e-05 -0.000147925 -0.00132947 
-1.95371e-05 -0.000158434 -0.00132214 
-6.81769e-05 -0.000130198 0.0986878 
-2.52783e-05 -0.000159931 -0.00131456 
-3.24313e-05 -0.000194462 0.0986156 
-1.61271e-05 -0.000219308 0.0985911 
-5.89576e-05 -0.000270146 0.0985699 
2.15707e-05 -0.000134769 -0.00138911 
-2.40418e-06 -0.000316898 0.0985423 
4.74991e-06 -0.000232419 0.0986012 
1.46834e-05 -0.000284854 0.0985782 
2.07774e-05 -0.000143446 -0.00137342 
9.05187e-05 -4.35611e-05 0.0986288 
0.000102697 -6.06244e-05 0.0488981 
0.000108851 -5.99394e-05 0.0985754 
0.000123985 -5.89767e-05 0.0985898 
2.07774e-05 -0.000143446 -0.00137342 
2.06478e-05 -0.000232154 0.0986109 
2.39463e-05 -0.000126831 -0.00137216 
1.82342e-05 -0.000171346 -0.001382 
-9.8449e-06 -0.000237959 -0.00130224 
5.66904e-05 -1.30172e-05 0.0987075 
3.82481e-05 -8.60176e-05 0.098698 
9.02248e-05 -9.35233e-06 0.0986701 
-1.23897e-05 -0.000165768 -0.001311 
-1.04661e-05 -0.000164324 -0.00128991 
-2.52783e-05 -0.000159931 -0.00131456 
-4.8952e-06 -0.000157118 0.0428225 
-8.46924e-06 -7.96082e-05 -0.00125366 
1.9803e-06 -9.14571e-05 -0.00137857 
2.68573e-05 -0.000129781 -0.00141274 
8.7723e-05 -0.000206549 0.0985646 
6.5259e-05 -0.000303662 0.0489591 
-3.79177e-05 6.74583e-05 -0.000652891 
1.33805e-05 -7.61533e-05 -0.00128907 
8.52804e-05 -0.000241998 0.0489192 
-0.000110215 -0.000183504 0.0490469 
-0.000123353 -0.000204751 0.0985958 
-0.000102369 -0.000218348 0.0489163 
5.63222e-05 -9.9888e-05 -0.00125556 
1.22125e-05 -0.000140349 0.0987248 
6.42127e-06 -0.000140011 0.0987325 
9.78998e-06 -0.000135056 0.098732 
1.53255e-05 -0.000156375 0.0414374 
-3.01594e-05 -0.0002853 -0.00107604 
5.66904e-05 -1.30172e-05 0.0987075 
4.85794e-06 -0.000298849 -0.00114089 
1.63327e-05 -0.000238465 -0.00126514 
-9.2961e-05 -0.000141415 0.0986549 
-0.000111047 -0.00012518 0.0986562 
-5.99953e-05 -0.000136715 0.0986759 
-2.26655e-05 -0.000147925 -0.00132947 
-3.46312e-07 -0.000145087 0.0987096 
-7.26374e-06 -0.000142568 0.0987131 
-5.77733e-07 -0.000143366 0.0987195 
-4.8952e-06 -0.000157118 0.0428225 
-0.00017295 -0.000150118 0.0986149 
-0.000111047 -0.00012518 0.0986562 
-9.2961e-05 -0.000141415 0.0986549 
1.40833e-06 -0.00012084 -0.00128276 
2.42056e-05 -0.000247059 -0.00120125 
2.00105e-05 -0.000204078 -0.00126963 
1.84621e-05 -0.000267791 -0.00121211 
-3.12835e-06 -4.04236e-05 0.0987595 
5.24052e-05 -0.000136181 -0.00141726 
7.76625e-05 -0.00016456 0.0985853 
0.000126173 -0.000161717 0.0985607 
7.70838e-05 -0.000143042 0.0986031 
-2.26655e-05 -0.000147925 -0.00132947 
-0.000111047 -0.00012518 0.0986562 
-5.99953e-05 -0.000136715 0.0986759 
-6.81769e-05 -0.000130198 0.0986878 
0.00012768 -6.52837e-05 0.0489526 
0.000108851 -5.99394e-05 0.0985754 
0.000102697 -6.06244e-05 0.0488981 
0.000123985 -5.89767e-05 0.0985898 
-0.000176737 -0.000192527 0.0985956 
-0.00017295 -0.000150118 0.0986149 
-9.44893e-05 -0.000170583 0.0986275 
5.84535e-05 -0.000109071 -0.0013096 
-3.46312e-07 -0.000145087 0.0987096 
6.24499e-06 -0.00014552 0.0987067 
2.28184e-06 -0.000146766 0.0987 
8.83356e-06 -0.00016042 0.0425174 
-0.000110215 -0.000183504 0.0490469 
0.000213645 -6.18491e-05 -0.00048265 
-0.000167727 -0.000173271 0.049019 
6.82846e-05 -0.000111718 -0.00113941 
-2.8967e-05 -0.00014331 -0.00126731 
0.000237452 -0.000102962 0.0985348 
3.96079e-05 -0.000144888 -0.00137149 
1.97204e-05 -0.000122198 -0.00128704 
-6.03005e-06 -2.62884e-05 0.0492289 
0.000104744 -0.000440165 -0.000331161 
3.40833e-05 -0.000302413 -0.00104097 
-3.212e-05 -7.16127e-05 0.0492171 
2.22232e-05 6.85568e-06 0.0987367 
1.81464e-05 -0.000339866 -0.00110665 
1.61452e-05 -3.13073e-05 0.0987437 
1.01766e-05 3.04368e-05 0.0987567 
5.66904e-05 -1.30172e-05 0.0987075 
6.50557e-05 -6.37892e-05 0.0490272 
3.94514e-05 -4.31783e-05 0.0491683 
3.30413e-05 -2.77078e-05 0.0987212 
4.85794e-06 -0.000298849 -0.00114089 
-6.37255e-05 -0.000417909 -0.000367367 
3.94514e-05 -4.31783e-05 0.0491683 
-3.01594e-05 -0.0002853 -0.00107604 
-9.2961e-05 -0.000141415 0.0986549 
-2.14513e-05 -0.000155711 -0.00133944 
-8.18745e-06 -0.000136981 -0.00134904 
-2.26655e-05 -0.000147925 -0.00132947 
3.45111e-05 -0.000150898 -0.00141396 
2.68573e-05 -0.000129781 -0.00141274 
4.82001e-05 -0.000156877 -0.00139387 
5.24145e-05 -0.000173747 0.0986015 
2.0372e-05 -0.000214172 -0.0012522 
-2.04563e-05 -0.000106953 0.0987433 
-1.68326e-05 -5.64173e-05 0.0987538 
-4.66989e-05 -6.397e-05 0.0987407 
2.59774e-05 -0.000156671 0.0483951 
2.00483e-05 -0.000155385 0.0473114 
1.45742e-05 -0.000143765 0.0987128 
3.58157e-05 -0.000153601 0.0478757 
5.24052e-05 -0.000136181 -0.00141726 
2.68573e-05 -0.000129781 -0.00141274 
1.9803e-06 -9.14571e-05 -0.00137857 
7.76625e-05 -0.00016456 0.0985853 
-0.000226698 -8.6118e-05 0.0490204 
1.80333e-05 -0.00013585 -0.00108575 
0.000237887 -0.000118559 -0.000347688 
-0.000136161 -8.15112e-05 0.049051 
-6.6197e-05 -0.000224688 0.0985424 
-5.89576e-05 -0.000270146 0.0985699 
-4.9081e-05 -0.000261716 0.0488964 
-6.57453e-05 -0.000222756 0.0490282 
-2.40418e-06 -0.000316898 0.0985423 
2.74148e-05 -9.60089e-05 -0.00122111 
3.81869e-05 -9.48355e-05 -0.00134206 
2.07774e-05 -0.000143446 -0.00137342 
6.75e-05 -0.000265508 -0.00102705 
3.36941e-05 -0.000210672 -0.00123649 
-8.31007e-05 -3.46911e-05 0.0987316 
6.95253e-05 -0.000222819 -0.00121223 
-5.89576e-05 -0.000270146 0.0985699 
-6.6197e-05 -0.000224688 0.0985424 
-9.62771e-05 -0.000260633 0.0985874 
-6.57453e-05 -0.000222756 0.0490282 
-0.00017295 -0.000150118 0.0986149 
-8.18745e-06 -0.000136981 -0.00134904 
6.82846e-05 -0.000111718 -0.00113941 
1.40833e-06 -0.00012084 -0.00128276 
8.73357e-06 -0.000153083 -0.00138324 
4.54217e-05 -9.5322e-05 -0.0013817 
-6.38574e-05 -0.000184374 0.0986254 
2.32823e-06 -0.000143339 -0.00136492 
1.01766e-05 3.04368e-05 0.0987567 
1.81464e-05 -0.000339866 -0.00110665 
1.84621e-05 -0.000267791 -0.00121211 
2.33455e-05 -0.000333042 -0.00108295 
-9.37577e-05 -7.09436e-05 0.0987112 
-0.000115557 -7.78762e-05 0.0986784 
-8.48685e-05 -6.33643e-05 0.0986786 
-7.78798e-05 -7.26825e-05 0.0490634 
0.000102697 -6.06244e-05 0.0488981 
-1.72961e-05 -0.000218404 -0.00121381 
-0.000158406 -0.000266296 -0.000566591 
0.00012768 -6.52837e-05 0.0489526 
8.28895e-06 -0.000143238 0.0987259 
1.30646e-05 -0.000142502 0.0987191 
9.49126e-06 -0.000144124 0.0987197 
2.00483e-05 -0.000155385 0.0473114 
4.85794e-06 -0.000298849 -0.00114089 
7.8153e-06 -2.434e-05 0.0493142 
6.09008e-06 -0.000512256 -0.000159843 
1.81464e-05 -0.000339866 -0.00110665 
7.8153e-06 -2.434e-05 0.0493142 
6.09008e-06 -0.000512256 -0.000159843 
3.94514e-05 -4.31783e-05 0.0491683 
4.85794e-06 -0.000298849 -0.00114089 
5.04847e-05 -0.000273356 -0.00117868 
2.0372e-05 -0.000214172 -0.0012522 
-1.68326e-05 -5.64173e-05 0.0987538 
-4.66989e-05 -6.397e-05 0.0987407 
1.07972e-05 -0.000144509 0.0987131 
9.49126e-06 -0.000144124 0.0987197 
1.45742e-05 -0.000143765 0.0987128 
2.00483e-05 -0.000155385 0.0473114 
-9.62771e-05 -0.000260633 0.0985874 
-6.57453e-05 -0.000222756 0.0490282 
5.63222e-05 -9.9888e-05 -0.00125556 
4.54217e-05 -9.5322e-05 -0.0013817 
-1.14611e-05 -9.5964e-05 -0.00138108 
0.000201692 -0.000194003 0.0985189 
0.000203037 -0.000149054 0.098534 
0.000126173 -0.000161717 0.0985607 
-5.84543e-06 -0.000354631 0.0490231 
-2.46153e-05 -0.000320305 0.0984903 
-4.26277e-05 -0.000332007 0.0985467 
-3.49461e-05 -0.000289927 0.0490166 
6.50557e-05 -6.37892e-05 0.0490272 
3.94514e-05 -4.31783e-05 0.0491683 
-6.37255e-05 -0.000417909 -0.000367367 
-3.01594e-05 -0.0002853 -0.00107604 
3.94514e-05 -4.31783e-05 0.0491683 
5.66904e-05 -1.30172e-05 0.0987075 
3.30413e-05 -2.77078e-05 0.0987212 
2.22232e-05 6.85568e-06 0.0987367 
2.39463e-05 -0.000126831 -0.00137216 
3.31128e-06 -9.7394e-05 -0.00141165 
3.45111e-05 -0.000150898 -0.00141396 
3.69664e-05 -0.000241054 0.0985792 
3.05461e-05 -0.000190184 -0.00130485 
1.70095e-05 -8.50517e-05 0.0987243 
3.82481e-05 -8.60176e-05 0.098698 
1.63327e-05 -0.000238465 -0.00126514 
-9.8449e-06 -0.000237959 -0.00130224 
-3.01594e-05 -0.0002853 -0.00107604 
5.66904e-05 -1.30172e-05 0.0987075 
9.02248e-05 -9.35233e-06 0.0986701 
-4.26277e-05 -0.000332007 0.0985467 
-1.61271e-05 -0.000219308 0.0985911 
-2.40418e-06 -0.000316898 0.0985423 
3.81869e-05 -9.48355e-05 -0.00134206 
3.05461e-05 -0.000190184 -0.00130485 
-9.8449e-06 -0.000237959 -0.00130224 
3.82481e-05 -8.60176e-05 0.098698 
3.53679e-05 -0.000178603 -0.00133969 
4.74991e-06 -0.000232419 0.0986012 
2.07774e-05 -0.000143446 -0.00137342 
1.4915e-05 -0.000155121 -0.00138766 
1.82342e-05 -0.000171346 -0.001382 
1.07972e-05 -0.000144509 0.0987131 
2.59774e-05 -0.000156671 0.0483951 
1.57968e-05 -0.000158354 0.0409443 
2.00483e-05 -0.000155385 0.0473114 
9.02248e-05 -9.35233e-06 0.0986701 
-9.8449e-06 -0.000237959 -0.00130224 
-1.72961e-05 -0.000218404 -0.00121381 
9.05187e-05 -4.35611e-05 0.0986288 
9.41511e-05 -0.000250563 0.0985415 
8.52804e-05 -0.000241998 0.0489192 
6.09343e-05 -0.000251581 0.0984915 
4.20888e-05 -0.000288366 0.0985388 
-5.77733e-07 -0.000143366 0.0987195 
-7.22207e-06 -0.000141663 0.0987201 
-4.81241e-06 -0.00014148 0.0987264 
5.10469e-06 -0.000156292 0.0438041 
4.96904e-05 -0.000127011 -0.0014198 
-1.14611e-05 -9.5964e-05 -0.00138108 
3.1492e-06 -0.000102326 -0.00134989 
0.000203037 -0.000149054 0.098534 
0.000136285 -0.000203404 0.0489122 
-0.000146707 -7.93778e-06 -0.000625577 
1.9803e-06 -9.14571e-05 -0.00137857 
0.000142806 -0.000174911 0.0489794 
-8.18745e-06 -0.000136981 -0.00134904 
-9.44893e-05 -0.000170583 0.0986275 
-0.00017295 -0.000150118 0.0986149 
5.84535e-05 -0.000109071 -0.0013096 
5.23806e-05 -0.000163024 -0.00131404 
5.64954e-05 -0.0001623 -0.0013466 
4.23688e-05 -0.000168894 -0.00131195 
4.84141e-05 -0.00014909 0.047456 
0.000213577 -0.000125901 0.0984496 
0.000292305 -0.00010822 0.0489622 
0.000210288 -0.000154494 0.0488888 
0.000203037 -0.000149054 0.098534 
5.84535e-05 -0.000109071 -0.0013096 
-0.00017295 -0.000150118 0.0986149 
-8.18745e-06 -0.000136981 -0.00134904 
6.82846e-05 -0.000111718 -0.00113941 
0.00012768 -6.52837e-05 0.0489526 
-1.72961e-05 -0.000218404 -0.00121381 
-0.000158406 -0.000266296 -0.000566591 
-2.04216e-06 -0.000176081 -0.00137487 
4.17963e-06 -0.000134045 0.0987388 
3.64478e-06 -0.000156409 0.0406113 
1.58993e-05 -0.000176087 -0.00127622 
1.53255e-05 -0.000156375 0.0414374 
4.74991e-06 -0.000232419 0.0986012 
-1.61271e-05 -0.000219308 0.0985911 
-4.99163e-06 -0.000189575 0.0986234 
1.4915e-05 -0.000155121 -0.00138766 
1.40833e-06 -0.00012084 -0.00128276 
-0.00021618 -0.000118373 0.0986262 
-0.000111047 -0.00012518 0.0986562 
-1.14174e-05 -0.000146933 -0.00130294 
5.04847e-05 -0.000273356 -0.00117868 
2.0372e-05 -0.000214172 -0.0012522 
2.42056e-05 -0.000247059 -0.00120125 
-1.68326e-05 -5.64173e-05 0.0987538 
0.000210288 -0.000154494 0.0488888 
-1.14611e-05 -9.5964e-05 -0.00138108 
-0.000162328 -3.85641e-05 -0.000600437 
0.000142806 -0.000174911 0.0489794 
-0.00017295 -0.000150118 0.0986149 
-0.000263143 -0.000126712 0.0986073 
-0.000111047 -0.00012518 0.0986562 
1.40833e-06 -0.00012084 -0.00128276 
-0.000136161 -8.15112e-05 0.049051 
6.77956e-05 -0.00020131 -0.00114161 
0.000211184 -0.000204671 -0.00047908 
-0.000114028 -6.95729e-05 0.0490184 
3.05461e-05 -0.000190184 -0.00130485 
4.23688e-05 -0.000168894 -0.00131195 
3.53679e-05 -0.000178603 -0.00133969 
3.41961e-05 -0.000112834 0.0986923 
0.000237452 -0.000102962 0.0985348 
0.000167915 -8.46023e-05 0.0985589 
0.000193677 -6.83678e-05 0.048846 
-2.8967e-05 -0.00014331 -0.00126731 
-0.000114028 -6.95729e-05 0.0490184 
6.77956e-05 -0.00020131 -0.00114161 
0.0002175 -0.000288704 -0.000414456 
-7.78798e-05 -7.26825e-05 0.0490634 
-0.000226698 -8.6118e-05 0.0490204 
-0.000166722 -7.19016e-05 0.0985762 
-0.00016144 -0.000100696 0.0986497 
-0.000136161 -8.15112e-05 0.049051 
0.000153132 1.9457e-05 -0.000585426 
-0.000102369 -0.000218348 0.0489163 
-6.57453e-05 -0.000222756 0.0490282 
5.63222e-05 -9.9888e-05 -0.00125556 
1.63327e-05 -0.000238465 -0.00126514 
3.05461e-05 -0.000190184 -0.00130485 
1.70095e-05 -8.50517e-05 0.0987243 
2.58075e-05 -0.000208906 -0.00127313 
-0.000263143 -0.000126712 0.0986073 
-0.00017295 -0.000150118 0.0986149 
-0.000182065 -0.000131911 0.098556 
-0.000240345 -0.000128944 0.049116 
-9.37577e-05 -7.09436e-05 0.0987112 
-8.31007e-05 -3.46911e-05 0.0987316 
3.36941e-05 -0.000210672 -0.00123649 
6.95253e-05 -0.000222819 -0.00121223 
-2.40418e-06 -0.000316898 0.0985423 
-2.46153e-05 -0.000320305 0.0984903 
-4.26277e-05 -0.000332007 0.0985467 
-5.84543e-06 -0.000354631 0.0490231 
-3.46312e-07 -0.000145087 0.0987096 
8.83356e-06 -0.00016042 0.0425174 
-3.47517e-06 -0.000146964 0.0986993 
-4.8952e-06 -0.000157118 0.0428225 
-0.000111047 -0.00012518 0.0986562 
-0.000263143 -0.000126712 0.0986073 
-0.00021618 -0.000118373 0.0986262 
1.40833e-06 -0.00012084 -0.00128276 
0.000213645 -6.18491e-05 -0.00048265 
-0.000110215 -0.000183504 0.0490469 
5.84535e-05 -0.000109071 -0.0013096 
6.82846e-05 -0.000111718 -0.00113941 
9.02248e-05 -9.35233e-06 0.0986701 
3.82481e-05 -8.60176e-05 0.098698 
-9.8449e-06 -0.000237959 -0.00130224 
6.78629e-05 -7.62124e-05 0.0986654 
0.000261222 -0.000110621 0.098529 
0.000154201 -0.000116364 0.0985857 
6.59247e-05 -0.00013142 -0.00140624 
0.000151871 -0.000126869 0.0985826 
3.71057e-05 -0.000167443 -0.00130614 
-1.95371e-05 -0.000158434 -0.00132214 
1.34344e-05 -0.000183091 -0.00127837 
-8.53275e-05 -0.000100946 0.0986885 
-6.38574e-05 -0.000184374 0.0986254 
-9.44893e-05 -0.000170583 0.0986275 
-5.27775e-05 -0.000154192 0.0986567 
2.32823e-06 -0.000143339 -0.00136492 
1.5664e-05 -0.00034645 0.0985479 
2.7554e-05 -0.000295876 0.0984742 
3.2689e-05 -0.000357082 0.0490366 
4.20888e-05 -0.000288366 0.0985388 
-0.000166722 -7.19016e-05 0.0985762 
-0.00016144 -0.000100696 0.0986497 
-0.00021618 -0.000118373 0.0986262 
-0.000226698 -8.6118e-05 0.0490204 
-9.44893e-05 -0.000170583 0.0986275 
-0.00017295 -0.000150118 0.0986149 
-9.2961e-05 -0.000141415 0.0986549 
-8.18745e-06 -0.000136981 -0.00134904 
-3.12835e-06 -4.04236e-05 0.0987595 
2.42056e-05 -0.000247059 -0.00120125 
-5.3681e-06 -9.10017e-05 0.0987516 
-1.68326e-05 -5.64173e-05 0.0987538 
-3.2455e-05 -0.000162827 0.0986497 
-8.08439e-06 -0.000166666 -0.00134179 
8.73357e-06 -0.000153083 -0.00138324 
2.32823e-06 -0.000143339 -0.00136492 
-2.24766e-05 -2.21132e-05 0.098766 
2.42056e-05 -0.000247059 -0.00120125 
-3.12835e-06 -4.04236e-05 0.0987595 
-1.68326e-05 -5.64173e-05 0.0987538 
0.000104744 -0.000440165 -0.000331161 
5.04847e-05 -0.000273356 -0.00117868 
3.40833e-05 -0.000302413 -0.00104097 
-3.212e-05 -7.16127e-05 0.0492171 
-8.46924e-06 -7.96082e-05 -0.00125366 
3.31128e-06 -9.7394e-05 -0.00141165 
-8.78961e-05 3.71185e-05 -0.000635115 
8.52804e-05 -0.000241998 0.0489192 
0.000201692 -0.000194003 0.0985189 
0.000136285 -0.000203404 0.0489122 
0.000165876 -0.000190339 0.0984885 
0.000130569 -0.000213373 0.098537 
-8.18745e-06 -0.000136981 -0.00134904 
-2.14513e-05 -0.000155711 -0.00133944 
-5.27775e-05 -0.000154192 0.0986567 
2.32823e-06 -0.000143339 -0.00136492 
4.54217e-05 -9.5322e-05 -0.0013817 
5.63222e-05 -9.9888e-05 -0.00125556 
-6.38574e-05 -0.000184374 0.0986254 
2.32823e-06 -0.000143339 -0.00136492 
-1.14174e-05 -0.000146933 -0.00130294 
-0.00021618 -0.000118373 0.0986262 
-0.000111047 -0.00012518 0.0986562 
-0.000111037 -0.000119808 0.0986719 
-4.66989e-05 -6.397e-05 0.0987407 
5.04847e-05 -0.000273356 -0.00117868 
3.36941e-05 -0.000210672 -0.00123649 
6.75e-05 -0.000265508 -0.00102705 
0.000142806 -0.000174911 0.0489794 
0.000136285 -0.000203404 0.0489122 
0.000165876 -0.000190339 0.0984885 
0.000201692 -0.000194003 0.0985189 
-6.38574e-05 -0.000184374 0.0986254 
-5.27775e-05 -0.000154192 0.0986567 
-3.2455e-05 -0.000162827 0.0986497 
2.32823e-06 -0.000143339 -0.00136492 
0.000203037 -0.000149054 0.098534 
0.000213577 -0.000125901 0.0984496 
0.000292305 -0.00010822 0.0489622 
0.000261222 -0.000110621 0.098529 
0.000193677 -6.83678e-05 0.048846 
0.000167915 -8.46023e-05 0.0985589 
0.000126637 -5.99167e-05 0.0985157 
0.00012768 -6.52837e-05 0.0489526 
0.00012768 -6.52837e-05 0.0489526 
-0.000183231 -0.000190066 -0.000588274 
0.000193677 -6.83678e-05 0.048846 
-2.8967e-05 -0.00014331 -0.00126731 
0.000138105 -0.000398809 -0.000347033 
-3.212e-05 -7.16127e-05 0.0492171 
-5.98821e-05 -6.31522e-05 0.0490398 
6.75e-05 -0.000265508 -0.00102705 
1.30646e-05 -0.000142502 0.0987191 
2.00483e-05 -0.000155385 0.0473114 
8.28895e-06 -0.000143238 0.0987259 
1.53255e-05 -0.000156375 0.0414374 
1.4915e-05 -0.000155121 -0.00138766 
3.81869e-05 -9.48355e-05 -0.00134206 
-1.61271e-05 -0.000219308 0.0985911 
2.15707e-05 -0.000134769 -0.00138911 
2.24402e-06 -0.000142345 0.0987313 
5.10469e-06 -0.000156292 0.0438041 
3.64478e-06 -0.000156409 0.0406113 
1.53255e-05 -0.000156375 0.0414374 
-9.37577e-05 -7.09436e-05 0.0987112 
-4.25467e-05 -0.000106974 0.0987268 
3.36941e-05 -0.000210672 -0.00123649 
-4.66989e-05 -6.397e-05 0.0987407 
8.28895e-06 -0.000143238 0.0987259 
2.24402e-06 -0.000142345 0.0987313 
6.42127e-06 -0.000140011 0.0987325 
1.53255e-05 -0.000156375 0.0414374 
2.93679e-05 -0.000174876 -0.00128526 
1.58993e-05 -0.000176087 -0.00127622 
3.10896e-05 -0.000166488 -0.0012867 
1.53255e-05 -0.000156375 0.0414374 
3.36941e-05 -0.000210672 -0.00123649 
-8.31007e-05 -3.46911e-05 0.0987316 
-9.37577e-05 -7.09436e-05 0.0987112 
-4.66989e-05 -6.397e-05 0.0987407 
-0.000102369 -0.000218348 0.0489163 
-9.62771e-05 -0.000260633 0.0985874 
-8.52525e-05 -0.000238897 0.0985575 
-6.57453e-05 -0.000222756 0.0490282 
-9.8449e-06 -0.000237959 -0.00130224 
3.53679e-05 -0.000178603 -0.00133969 
9.01957e-06 -0.00019633 -0.00132427 
6.78629e-05 -7.62124e-05 0.0986654 
-7.78798e-05 -7.26825e-05 0.0490634 
6.77956e-05 -0.00020131 -0.00114161 
0.0002175 -0.000288704 -0.000414456 
6.95253e-05 -0.000222819 -0.00121223 
2.33455e-05 -0.000333042 -0.00108295 
2.42056e-05 -0.000247059 -0.00120125 
1.84621e-05 -0.000267791 -0.00121211 
-3.12835e-06 -4.04236e-05 0.0987595 
-0.000102369 -0.000218348 0.0489163 
0.000199663 -2.48963e-05 -0.000530642 
-0.000110215 -0.000183504 0.0490469 
5.63222e-05 -9.9888e-05 -0.00125556 
-0.000107189 2.29758e-05 -0.000618906 
-8.46924e-06 -7.96082e-05 -0.00125366 
0.00011182 -0.000227273 0.0488881 
0.000136285 -0.000203404 0.0489122 
2.7554e-05 -0.000295876 0.0984742 
6.5259e-05 -0.000303662 0.0489591 
3.2689e-05 -0.000357082 0.0490366 
4.20888e-05 -0.000288366 0.0985388 
2.15707e-05 -0.000134769 -0.00138911 
4.54217e-05 -9.5322e-05 -0.0013817 
-3.24313e-05 -0.000194462 0.0986156 
8.73357e-06 -0.000153083 -0.00138324 
3.71057e-05 -0.000167443 -0.00130614 
-1.14174e-05 -0.000146933 -0.00130294 
-1.95371e-05 -0.000158434 -0.00132214 
-0.000111037 -0.000119808 0.0986719 
1.30646e-05 -0.000142502 0.0987191 
2.00483e-05 -0.000155385 0.0473114 
1.53255e-05 -0.000156375 0.0414374 
2.77962e-05 -0.000151929 0.0528799 
5.84535e-05 -0.000109071 -0.0013096 
-8.18745e-06 -0.000136981 -0.00134904 
-9.44893e-05 -0.000170583 0.0986275 
2.32823e-06 -0.000143339 -0.00136492 
-4.9081e-05 -0.000261716 0.0488964 
-3.49461e-05 -0.000289927 0.0490166 
6.66596e-05 8.2554e-05 -0.000504234 
5.86183e-05 -6.1291e-05 -0.00118045 
0.000187185 -0.000353979 -0.000367664 
-5.98821e-05 -6.31522e-05 0.0490398 
-7.78798e-05 -7.26825e-05 0.0490634 
6.75e-05 -0.000265508 -0.00102705 
-0.000167727 -0.000173271 0.049019 
-0.000176737 -0.000192527 0.0985956 
-0.000158819 -0.000187843 0.0985626 
-0.000110215 -0.000183504 0.0490469 
-3.14663e-06 3.87181e-05 0.0987687 
1.25301e-05 2.61427e-05 0.098778 
6.21552e-06 -2.57463e-05 0.0494472 
-6.03005e-06 -2.62884e-05 0.0492289 
-1.68326e-05 -5.64173e-05 0.0987538 
-6.05035e-05 -1.87932e-05 0.0987547 
5.04847e-05 -0.000273356 -0.00117868 
-4.66989e-05 -6.397e-05 0.0987407 
0.00012768 -6.52837e-05 0.0489526 
0.000167915 -8.46023e-05 0.0985589 
0.000126637 -5.99167e-05 0.0985157 
0.000123985 -5.89767e-05 0.0985898 
-0.000146707 -7.93778e-06 -0.000625577 
-1.14611e-05 -9.5964e-05 -0.00138108 
1.9803e-06 -9.14571e-05 -0.00137857 
0.000142806 -0.000174911 0.0489794 
1.5664e-05 -0.00034645 0.0985479 
1.46602e-05 -0.000399625 0.0491102 
1.1619e-05 -0.000327494 0.0984664 
-2.40418e-06 -0.000316898 0.0985423 
4.96904e-05 -0.000127011 -0.0014198 
6.59247e-05 -0.00013142 -0.00140624 
7.28359e-05 -0.000143035 -0.00139749 
0.000151871 -0.000126869 0.0985826 
0.000116697 -0.000241367 0.0985268 
0.000117365 -0.000216389 0.0984932 
0.000136285 -0.000203404 0.0489122 
0.000130569 -0.000213373 0.098537 
8.52804e-05 -0.000241998 0.0489192 
9.42323e-05 -0.000232994 0.0984942 
0.00011182 -0.000227273 0.0488881 
0.000116697 -0.000241367 0.0985268 
0.000136285 -0.000203404 0.0489122 
0.00011182 -0.000227273 0.0488881 
0.000117365 -0.000216389 0.0984932 
0.000116697 -0.000241367 0.0985268 
0.000186469 -0.000174861 0.098471 
0.000210288 -0.000154494 0.0488888 
0.000142806 -0.000174911 0.0489794 
0.000201692 -0.000194003 0.0985189 
-7.78798e-05 -7.26825e-05 0.0490634 
-8.31007e-05 -3.46911e-05 0.0987316 
-9.37577e-05 -7.09436e-05 0.0987112 
6.95253e-05 -0.000222819 -0.00121223 
1.81464e-05 -0.000339866 -0.00110665 
1.12975e-05 -2.79494e-05 0.0494737 
3.0601e-05 -0.000645159 0.0003263 
2.33455e-05 -0.000333042 -0.00108295 
-0.000183231 -0.000190066 -0.000588274 
0.00012768 -6.52837e-05 0.0489526 
-2.04216e-06 -0.000176081 -0.00137487 
-2.8967e-05 -0.00014331 -0.00126731 
-3.79177e-05 6.74583e-05 -0.000652891 
3.31128e-06 -9.7394e-05 -0.00141165 
1.33805e-05 -7.61533e-05 -0.00128907 
8.52804e-05 -0.000241998 0.0489192 
2.0664e-05 -0.000148267 0.0986791 
2.88882e-05 -0.000145317 0.0986738 
2.50191e-05 -0.000151151 0.0986616 
3.46293e-05 -0.000159403 0.0409227 
6.75e-05 -0.000265508 -0.00102705 
-7.78798e-05 -7.26825e-05 0.0490634 
0.000187185 -0.000353979 -0.000367664 
6.95253e-05 -0.000222819 -0.00121223 
-1.97879e-05 -0.000140651 0.0987051 
-7.26374e-06 -0.000142568 0.0987131 
-9.32072e-06 -0.000144178 0.0987023 
-4.8952e-06 -0.000157118 0.0428225 
-6.57453e-05 -0.000222756 0.0490282 
-4.9081e-05 -0.000261716 0.0488964 
0.000146268 4.23153e-05 -0.000564483 
5.86183e-05 -6.1291e-05 -0.00118045 
1.34045e-15 -4.5868e-16 -9.71125e-27 
-0.000292233 -9.22848e-05 0.0492037 
1.40833e-06 -0.00012084 -0.00128276 
1.80333e-05 -0.00013585 -0.00108575 
4.96904e-05 -0.000127011 -0.0014198 
5.24052e-05 -0.000136181 -0.00141726 
-1.14611e-05 -9.5964e-05 -0.00138108 
0.000126173 -0.000161717 0.0985607 
0.000201692 -0.000194003 0.0985189 
0.000186469 -0.000174861 0.098471 
0.000210288 -0.000154494 0.0488888 
0.000203037 -0.000149054 0.098534 
-4.66989e-05 -6.397e-05 0.0987407 
3.36941e-05 -0.000210672 -0.00123649 
-8.31007e-05 -3.46911e-05 0.0987316 
6.75e-05 -0.000265508 -0.00102705 
2.84947e-05 -0.000141786 0.0986892 
2.90976e-05 -0.000143215 0.0986845 
2.22208e-05 -0.000143257 0.098697 
3.58157e-05 -0.000153601 0.0478757 
-0.000167727 -0.000173271 0.049019 
-0.000182065 -0.000131911 0.098556 
-0.00017295 -0.000150118 0.0986149 
-0.000240345 -0.000128944 0.049116 
-0.000240345 -0.000128944 0.049116 
-0.000167727 -0.000173271 0.049019 
0.000214327 -0.000137879 -0.000352316 
6.82846e-05 -0.000111718 -0.00113941 
2.28184e-06 -0.000146766 0.0987 
6.24499e-06 -0.00014552 0.0987067 
7.23125e-06 -0.000147016 0.0986987 
8.83356e-06 -0.00016042 0.0425174 
-6.05035e-05 -1.87932e-05 0.0987547 
-3.212e-05 -7.16127e-05 0.0492171 
-5.98821e-05 -6.31522e-05 0.0490398 
-4.34319e-05 -2.24538e-05 0.0987503 
5.04847e-05 -0.000273356 -0.00117868 
3.36941e-05 -0.000210672 -0.00123649 
2.0372e-05 -0.000214172 -0.0012522 
-4.66989e-05 -6.397e-05 0.0987407 
1.34344e-05 -0.000183091 -0.00127837 
-4.25467e-05 -0.000106974 0.0987268 
4.23444e-06 -0.000180791 -0.00127789 
3.36941e-05 -0.000210672 -0.00123649 
0.000207156 -8.74094e-05 0.0984582 
0.000237452 -0.000102962 0.0985348 
0.000193677 -6.83678e-05 0.048846 
0.00026686 -5.53287e-05 0.0490687 
-2.8967e-05 -0.00014331 -0.00126731 
-0.000231157 -7.12155e-05 -0.000362602 
0.00026686 -5.53287e-05 0.0490687 
1.97204e-05 -0.000122198 -0.00128704 
-1.14611e-05 -9.5964e-05 -0.00138108 
-0.000162328 -3.85641e-05 -0.000600437 
3.1492e-06 -0.000102326 -0.00134989 
0.000210288 -0.000154494 0.0488888 
-1.08845e-06 -0.000153903 0.0986772 
4.79245e-06 -0.000148983 0.0986899 
9.35615e-06 -0.000155277 0.0986781 
1.35607e-05 -0.000163785 0.0466232 
-9.62771e-05 -0.000260633 0.0985874 
-8.52525e-05 -0.000238897 0.0985575 
-0.000123353 -0.000204751 0.0985958 
-0.000102369 -0.000218348 0.0489163 
3.05461e-05 -0.000190184 -0.00130485 
3.82481e-05 -8.60176e-05 0.098698 
-9.8449e-06 -0.000237959 -0.00130224 
1.63327e-05 -0.000238465 -0.00126514 
1.25301e-05 2.61427e-05 0.098778 
-3.14663e-06 3.87181e-05 0.0987687 
-2.24766e-05 -2.21132e-05 0.098766 
-6.03005e-06 -2.62884e-05 0.0492289 
-3.212e-05 -7.16127e-05 0.0492171 
0.000138105 -0.000398809 -0.000347033 
5.04847e-05 -0.000273356 -0.00117868 
6.75e-05 -0.000265508 -0.00102705 
3.99923e-05 -0.000133451 0.0986804 
2.68017e-05 -0.00013944 0.0986946 
2.61773e-05 -0.0001358 0.0987025 
4.84141e-05 -0.00014909 0.047456 
-0.000100391 -0.00034622 -0.000516406 
-1.72961e-05 -0.000218404 -0.00121381 
0.000102697 -6.06244e-05 0.0488981 
6.32739e-05 -7.85215e-05 0.049145 
2.90976e-05 -0.000143215 0.0986845 
2.88882e-05 -0.000145317 0.0986738 
2.12208e-05 -0.000145121 0.0986883 
3.46293e-05 -0.000159403 0.0409227 
4.79245e-06 -0.000148983 0.0986899 
7.23125e-06 -0.000147016 0.0986987 
1.09603e-05 -0.000149052 0.0986906 
1.35607e-05 -0.000163785 0.0466232 
2.80312e-05 -0.000172858 -0.00131306 
2.49048e-05 -0.000176828 -0.00134508 
4.35822e-05 -0.000169423 -0.00134958 
3.46293e-05 -0.000159403 0.0409227 
9.42323e-05 -0.000232994 0.0984942 
8.52804e-05 -0.000241998 0.0489192 
9.41511e-05 -0.000250563 0.0985415 
0.000116697 -0.000241367 0.0985268 
-0.000128059 -0.000364281 -0.000433595 
6.32739e-05 -7.85215e-05 0.049145 
6.50557e-05 -6.37892e-05 0.0490272 
-3.01594e-05 -0.0002853 -0.00107604 
1.99599e-05 -0.000142453 0.0987033 
3.58157e-05 -0.000153601 0.0478757 
2.00483e-05 -0.000155385 0.0473114 
2.77962e-05 -0.000151929 0.0528799 
-5.98821e-05 -6.31522e-05 0.0490398 
-8.31007e-05 -3.46911e-05 0.0987316 
-6.05035e-05 -1.87932e-05 0.0987547 
-4.34319e-05 -2.24538e-05 0.0987503 
0.000214327 -0.000137879 -0.000352316 
-0.000240345 -0.000128944 0.049116 
6.82846e-05 -0.000111718 -0.00113941 
1.40833e-06 -0.00012084 -0.00128276 
-3.49461e-05 -0.000289927 0.0490166 
-4.04776e-05 -0.000299917 0.0985199 
-4.26277e-05 -0.000332007 0.0985467 
-4.9081e-05 -0.000261716 0.0488964 
6.21552e-06 -2.57463e-05 0.0494472 
2.03893e-05 -0.000544321 -7.93427e-06 
3.40833e-05 -0.000302413 -0.00104097 
-6.03005e-06 -2.62884e-05 0.0492289 
9.77578e-06 -0.000171668 -0.00135998 
2.49048e-05 -0.000176828 -0.00134508 
5.92922e-06 -0.00017377 -0.00131939 
1.35607e-05 -0.000163785 0.0466232 
1.01766e-05 3.04368e-05 0.0987567 
-1.01683e-05 -4.71687e-07 0.0987737 
1.12975e-05 -2.79494e-05 0.0494737 
-3.14663e-06 3.87181e-05 0.0987687 
0.000199663 -2.48963e-05 -0.000530642 
-0.000110215 -0.000183504 0.0490469 
5.63222e-05 -9.9888e-05 -0.00125556 
5.84535e-05 -0.000109071 -0.0013096 
0.00026686 -5.53287e-05 0.0490687 
0.000193677 -6.83678e-05 0.048846 
-0.000231157 -7.12155e-05 -0.000362602 
-2.8967e-05 -0.00014331 -0.00126731 
1.34045e-15 -4.5868e-16 -9.71125e-27 
-0.000292233 -9.22848e-05 0.0492037 
-0.000240345 -0.000128944 0.049116 
1.40833e-06 -0.00012084 -0.00128276 
1.57968e-05 -0.000158354 0.0409443 
2.00483e-05 -0.000155385 0.0473114 
9.33627e-06 -0.000163772 -0.00127868 
5.10469e-06 -0.000156292 0.0438041 
3.1492e-06 -0.000102326 -0.00134989 
-0.00020812 -9.18936e-05 -0.000398428 
7.62565e-07 -9.23891e-05 -0.00123046 
0.000292305 -0.00010822 0.0489622 
5.86183e-05 -6.1291e-05 -0.00118045 
-3.49461e-05 -0.000289927 0.0490166 
6.66596e-05 8.2554e-05 -0.000504234 
3.81869e-05 -9.48355e-05 -0.00134206 
3.10896e-05 -0.000166488 -0.0012867 
5.23806e-05 -0.000163024 -0.00131404 
4.23688e-05 -0.000168894 -0.00131195 
2.77962e-05 -0.000151929 0.0528799 
0.000237452 -0.000102962 0.0985348 
0.0003529 -6.73514e-05 0.0490939 
0.000251806 -7.22967e-05 0.0984244 
0.000261222 -0.000110621 0.098529 
3.40833e-05 -0.000302413 -0.00104097 
2.33455e-05 -0.000333042 -0.00108295 
2.03893e-05 -0.000544321 -7.93427e-06 
6.21552e-06 -2.57463e-05 0.0494472 
1.69994e-05 -0.000142342 0.0987116 
2.12162e-05 -0.000140924 0.098706 
1.99599e-05 -0.000142453 0.0987033 
2.77962e-05 -0.000151929 0.0528799 
2.68017e-05 -0.00013944 0.0986946 
3.58157e-05 -0.000153601 0.0478757 
2.12162e-05 -0.000140924 0.098706 
2.77962e-05 -0.000151929 0.0528799 
-5.89576e-05 -0.000270146 0.0985699 
-4.26277e-05 -0.000332007 0.0985467 
-4.04776e-05 -0.000299917 0.0985199 
-4.9081e-05 -0.000261716 0.0488964 
1.7244e-05 -0.000144349 0.0987042 
2.1596e-05 -0.000144465 0.0986954 
1.56859e-05 -0.000145437 0.0986993 
2.59774e-05 -0.000156671 0.0483951 
2.80312e-05 -0.000172858 -0.00131306 
1.57968e-05 -0.000158354 0.0409443 
8.83356e-06 -0.00016042 0.0425174 
2.59774e-05 -0.000156671 0.0483951 
-2.40418e-06 -0.000316898 0.0985423 
1.46602e-05 -0.000399625 0.0491102 
1.1619e-05 -0.000327494 0.0984664 
-5.84543e-06 -0.000354631 0.0490231 
0.000211184 -0.000204671 -0.00047908 
3.71057e-05 -0.000167443 -0.00130614 
6.77956e-05 -0.00020131 -0.00114161 
-0.000136161 -8.15112e-05 0.049051 
-0.000110215 -0.000183504 0.0490469 
-0.000176737 -0.000192527 0.0985956 
-0.000113162 -0.000180784 0.0985649 
-0.000123353 -0.000204751 0.0985958 
-5.55276e-07 -0.000136947 0.0987369 
-4.51911e-06 -0.000138143 0.0987322 
-1.22698e-05 -0.000127505 0.0987371 
3.64478e-06 -0.000156409 0.0406113 
-5.55276e-07 -0.000136947 0.0987369 
6.42127e-06 -0.000140011 0.0987325 
2.24402e-06 -0.000142345 0.0987313 
3.64478e-06 -0.000156409 0.0406113 
4.79245e-06 -0.000148983 0.0986899 
8.83356e-06 -0.00016042 0.0425174 
7.23125e-06 -0.000147016 0.0986987 
1.35607e-05 -0.000163785 0.0466232 
7.8153e-06 -2.434e-05 0.0493142 
3.94514e-05 -4.31783e-05 0.0491683 
-3.85628e-07 -9.50948e-06 0.0987536 
2.22232e-05 6.85568e-06 0.0987367 
5.37362e-17 9.71096e-16 -6.0873e-28 
1.46602e-05 -0.000399625 0.0491102 
1.62353e-05 -9.76496e-05 -0.00129637 
2.74148e-05 -9.60089e-05 -0.00122111 
1.97204e-05 -0.000122198 -0.00128704 
-1.39419e-15 -5.12416e-16 -1.92879e-26 
0.0003529 -6.73514e-05 0.0490939 
7.62565e-07 -9.23891e-05 -0.00123046 
5.63222e-05 -9.9888e-05 -0.00125556 
-6.57453e-05 -0.000222756 0.0490282 
0.000153132 1.9457e-05 -0.000585426 
4.54217e-05 -9.5322e-05 -0.0013817 
3.71057e-05 -0.000167443 -0.00130614 
0.000237887 -0.000118559 -0.000347688 
1.80333e-05 -0.00013585 -0.00108575 
-0.000136161 -8.15112e-05 0.049051 
1.99599e-05 -0.000142453 0.0987033 
2.12162e-05 -0.000140924 0.098706 
2.68017e-05 -0.00013944 0.0986946 
3.58157e-05 -0.000153601 0.0478757 
0.000237452 -0.000102962 0.0985348 
0.000251806 -7.22967e-05 0.0984244 
0.0003529 -6.73514e-05 0.0490939 
0.00026686 -5.53287e-05 0.0490687 
-0.000113162 -0.000180784 0.0985649 
-0.000110215 -0.000183504 0.0490469 
-0.000123353 -0.000204751 0.0985958 
-0.000102369 -0.000218348 0.0489163 
-1.04661e-05 -0.000164324 -0.00128991 
5.10469e-06 -0.000156292 0.0438041 
9.33627e-06 -0.000163772 -0.00127868 
3.64478e-06 -0.000156409 0.0406113 
-8.46924e-06 -7.96082e-05 -0.00125366 
-0.000107189 2.29758e-05 -0.000618906 
1.9803e-06 -9.14571e-05 -0.00137857 
0.000136285 -0.000203404 0.0489122 
-0.000111047 -0.00012518 0.0986562 
-2.26655e-05 -0.000147925 -0.00132947 
1.40833e-06 -0.00012084 -0.00128276 
-1.14174e-05 -0.000146933 -0.00130294 
6.5259e-05 -0.000303662 0.0489591 
1.33805e-05 -7.61533e-05 -0.00128907 
4.04446e-05 0.00012363 -0.000398754 
3.2689e-05 -0.000357082 0.0490366 
-0.000158819 -0.000187843 0.0985626 
-0.00017295 -0.000150118 0.0986149 
-0.000176737 -0.000192527 0.0985956 
-0.000167727 -0.000173271 0.049019 
0.000292305 -0.00010822 0.0489622 
3.1492e-06 -0.000102326 -0.00134989 
-0.00020812 -9.18936e-05 -0.000398428 
0.000210288 -0.000154494 0.0488888 
7.8153e-06 -2.434e-05 0.0493142 
1.12975e-05 -2.79494e-05 0.0494737 
3.0601e-05 -0.000645159 0.0003263 
1.81464e-05 -0.000339866 -0.00110665 
1.33805e-05 -7.61533e-05 -0.00128907 
1.62353e-05 -9.76496e-05 -0.00129637 
4.04446e-05 0.00012363 -0.000398754 
3.2689e-05 -0.000357082 0.0490366 
2.68017e-05 -0.00013944 0.0986946 
3.58157e-05 -0.000153601 0.0478757 
2.77962e-05 -0.000151929 0.0528799 
4.84141e-05 -0.00014909 0.047456 
-0.00021618 -0.000118373 0.0986262 
-0.000222343 -0.000114075 0.0985433 
-0.000292233 -9.22848e-05 0.0492037 
-0.000263143 -0.000126712 0.0986073 
7.8153e-06 -2.434e-05 0.0493142 
-1.01683e-05 -4.71687e-07 0.0987737 
1.12975e-05 -2.79494e-05 0.0494737 
1.01766e-05 3.04368e-05 0.0987567 
-4.81241e-06 -0.00014148 0.0987264 
3.95555e-06 -0.000143564 0.0987253 
-5.77733e-07 -0.000143366 0.0987195 
5.10469e-06 -0.000156292 0.0438041 
4.54217e-05 -9.5322e-05 -0.0013817 
-6.57453e-05 -0.000222756 0.0490282 
0.000146268 4.23153e-05 -0.000564483 
5.86183e-05 -6.1291e-05 -0.00118045 
0.000207156 -8.74094e-05 0.0984582 
0.000237452 -0.000102962 0.0985348 
0.000167915 -8.46023e-05 0.0985589 
0.000193677 -6.83678e-05 0.048846 
-1.54401e-06 -0.000169172 -0.00127717 
1.58993e-05 -0.000176087 -0.00127622 
1.02911e-05 -0.000184843 -0.00127057 
3.64478e-06 -0.000156409 0.0406113 
-0.000100391 -0.00034622 -0.000516406 
-1.72961e-05 -0.000218404 -0.00121381 
6.32739e-05 -7.85215e-05 0.049145 
-9.8449e-06 -0.000237959 -0.00130224 
1.7244e-05 -0.000144349 0.0987042 
1.56859e-05 -0.000145437 0.0986993 
1.3111e-05 -0.000144837 0.0987066 
2.59774e-05 -0.000156671 0.0483951 
2.22232e-05 6.85568e-06 0.0987367 
-3.85628e-07 -9.50948e-06 0.0987536 
7.8153e-06 -2.434e-05 0.0493142 
1.01766e-05 3.04368e-05 0.0987567 
4.11676e-05 -0.00013732 0.0986738 
3.99923e-05 -0.000133451 0.0986804 
6.74801e-05 -0.000129824 0.0986545 
4.84141e-05 -0.00014909 0.047456 
6.18008e-06 -0.000168515 -0.00129192 
1.57968e-05 -0.000158354 0.0409443 
9.33627e-06 -0.000163772 -0.00127868 
5.10469e-06 -0.000156292 0.0438041 
-0.000128059 -0.000364281 -0.000433595 
6.32739e-05 -7.85215e-05 0.049145 
-3.01594e-05 -0.0002853 -0.00107604 
-9.8449e-06 -0.000237959 -0.00130224 
2.24402e-06 -0.000142345 0.0987313 
3.64478e-06 -0.000156409 0.0406113 
6.42127e-06 -0.000140011 0.0987325 
1.53255e-05 -0.000156375 0.0414374 
-8.31007e-05 -3.46911e-05 0.0987316 
-7.38042e-05 -5.1723e-05 0.0987177 
-5.98821e-05 -6.31522e-05 0.0490398 
-7.78798e-05 -7.26825e-05 0.0490634 
1.69994e-05 -0.000142342 0.0987116 
1.30646e-05 -0.000142502 0.0987191 
1.76637e-05 -0.000140062 0.0987148 
2.77962e-05 -0.000151929 0.0528799 
-9.32072e-06 -0.000144178 0.0987023 
-3.46312e-07 -0.000145087 0.0987096 
-3.47517e-06 -0.000146964 0.0986993 
-4.8952e-06 -0.000157118 0.0428225 
-0.00021618 -0.000118373 0.0986262 
-0.000292233 -9.22848e-05 0.0492037 
-0.000222343 -0.000114075 0.0985433 
-0.000226698 -8.6118e-05 0.0490204 
9.33627e-06 -0.000163772 -0.00127868 
2.00483e-05 -0.000155385 0.0473114 
3.10896e-05 -0.000166488 -0.0012867 
1.53255e-05 -0.000156375 0.0414374 
2.33455e-05 -0.000333042 -0.00108295 
1.12975e-05 -2.79494e-05 0.0494737 
3.0601e-05 -0.000645159 0.0003263 
6.21552e-06 -2.57463e-05 0.0494472 
2.12208e-05 -0.000145121 0.0986883 
2.88882e-05 -0.000145317 0.0986738 
2.0664e-05 -0.000148267 0.0986791 
3.46293e-05 -0.000159403 0.0409227 
0.000292305 -0.00010822 0.0489622 
0.000251806 -7.22967e-05 0.0984244 
0.0003529 -6.73514e-05 0.0490939 
0.000261222 -0.000110621 0.098529 
6.42127e-06 -0.000140011 0.0987325 
1.22125e-05 -0.000140349 0.0987248 
8.28895e-06 -0.000143238 0.0987259 
1.53255e-05 -0.000156375 0.0414374 
4.11676e-05 -0.00013732 0.0986738 
2.84947e-05 -0.000141786 0.0986892 
2.68017e-05 -0.00013944 0.0986946 
4.84141e-05 -0.00014909 0.047456 
9.33627e-06 -0.000163772 -0.00127868 
1.57968e-05 -0.000158354 0.0409443 
3.12009e-05 -0.000165608 -0.00129298 
2.00483e-05 -0.000155385 0.0473114 
1.62353e-05 -9.76496e-05 -0.00129637 
1.46602e-05 -0.000399625 0.0491102 
5.37362e-17 9.71096e-16 -6.0873e-28 
3.2689e-05 -0.000357082 0.0490366 
6.18008e-06 -0.000168515 -0.00129192 
5.92922e-06 -0.00017377 -0.00131939 
8.83356e-06 -0.00016042 0.0425174 
-4.8952e-06 -0.000157118 0.0428225 
-1.39419e-15 -5.12416e-16 -1.92879e-26 
0.0003529 -6.73514e-05 0.0490939 
0.00026686 -5.53287e-05 0.0490687 
1.97204e-05 -0.000122198 -0.00128704 
5.22721e-06 -0.000144263 0.0987198 
-5.77733e-07 -0.000143366 0.0987195 
3.95555e-06 -0.000143564 0.0987253 
5.10469e-06 -0.000156292 0.0438041 
6.18008e-06 -0.000168515 -0.00129192 
8.83356e-06 -0.00016042 0.0425174 
1.57968e-05 -0.000158354 0.0409443 
5.10469e-06 -0.000156292 0.0438041 
9.49126e-06 -0.000144124 0.0987197 
1.30646e-05 -0.000142502 0.0987191 
1.45742e-05 -0.000143765 0.0987128 
2.00483e-05 -0.000155385 0.0473114 
2.12162e-05 -0.000140924 0.098706 
3.58157e-05 -0.000153601 0.0478757 
1.99599e-05 -0.000142453 0.0987033 
2.77962e-05 -0.000151929 0.0528799 
2.12162e-05 -0.000140924 0.098706 
1.76637e-05 -0.000140062 0.0987148 
2.61773e-05 -0.0001358 0.0987025 
2.77962e-05 -0.000151929 0.0528799 
5.07799e-05 -0.000164937 -0.00132455 
3.12009e-05 -0.000165608 -0.00129298 
2.80312e-05 -0.000172858 -0.00131306 
2.59774e-05 -0.000156671 0.0483951 
3.12009e-05 -0.000165608 -0.00129298 
6.18008e-06 -0.000168515 -0.00129192 
2.80312e-05 -0.000172858 -0.00131306 
1.57968e-05 -0.000158354 0.0409443 
2.80312e-05 -0.000172858 -0.00131306 
6.18008e-06 -0.000168515 -0.00129192 
5.92922e-06 -0.00017377 -0.00131939 
8.83356e-06 -0.00016042 0.0425174 
8.83356e-06 -0.00016042 0.0425174 
5.10469e-06 -0.000156292 0.0438041 
6.18008e-06 -0.000168515 -0.00129192 
-4.8952e-06 -0.000157118 0.0428225 
-1.04661e-05 -0.000164324 -0.00128991 
9.33627e-06 -0.000163772 -0.00127868 
-1.54401e-06 -0.000169172 -0.00127717 
3.64478e-06 -0.000156409 0.0406113 
3.10896e-05 -0.000166488 -0.0012867 
3.12009e-05 -0.000165608 -0.00129298 
5.23806e-05 -0.000163024 -0.00131404 
2.77962e-05 -0.000151929 0.0528799 
3.10896e-05 -0.000166488 -0.0012867 
9.33627e-06 -0.000163772 -0.00127868 
3.12009e-05 -0.000165608 -0.00129298 
2.00483e-05 -0.000155385 0.0473114 
3.12009e-05 -0.000165608 -0.00129298 
9.33627e-06 -0.000163772 -0.00127868 
6.18008e-06 -0.000168515 -0.00129192 
1.57968e-05 -0.000158354 0.0409443 
5.23806e-05 -0.000163024 -0.00131404 
3.58157e-05 -0.000153601 0.0478757 
5.07799e-05 -0.000164937 -0.00132455 
4.84141e-05 -0.00014909 0.047456 
4.35822e-05 -0.000169423 -0.00134958 
5.07799e-05 -0.000164937 -0.00132455 
2.80312e-05 -0.000172858 -0.00131306 
3.46293e-05 -0.000159403 0.0409227 
-3.14663e-06 3.87181e-05 0.0987687 
-1.01683e-05 -4.71687e-07 0.0987737 
1.12975e-05 -2.79494e-05 0.0494737 
6.21552e-06 -2.57463e-05 0.0494472 
6.23933e-05 -0.00015712 -0.00136928 
5.07799e-05 -0.000164937 -0.00132455 
4.35822e-05 -0.000169423 -0.00134958 
3.46293e-05 -0.000159403 0.0409227 
3.2689e-05 -0.000357082 0.0490366 
1.46602e-05 -0.000399625 0.0491102 
1.1619e-05 -0.000327494 0.0984664 
1.5664e-05 -0.00034645 0.0985479 
5.23806e-05 -0.000163024 -0.00131404 
5.07799e-05 -0.000164937 -0.00132455 
6.68373e-05 -0.000156372 -0.00135423 
4.84141e-05 -0.00014909 0.047456 
2.80312e-05 -0.000172858 -0.00131306 
5.92922e-06 -0.00017377 -0.00131939 
2.49048e-05 -0.000176828 -0.00134508 
1.35607e-05 -0.000163785 0.0466232 
5.23806e-05 -0.000163024 -0.00131404 
3.12009e-05 -0.000165608 -0.00129298 
5.07799e-05 -0.000164937 -0.00132455 
3.58157e-05 -0.000153601 0.0478757 
9.35615e-06 -0.000155277 0.0986781 
1.09603e-05 -0.000149052 0.0986906 
1.58635e-05 -0.000154156 0.0986802 
1.35607e-05 -0.000163785 0.0466232 
9.33627e-06 -0.000163772 -0.00127868 
3.10896e-05 -0.000166488 -0.0012867 
1.58993e-05 -0.000176087 -0.00127622 
1.53255e-05 -0.000156375 0.0414374 
3.10896e-05 -0.000166488 -0.0012867 
2.00483e-05 -0.000155385 0.0473114 
3.12009e-05 -0.000165608 -0.00129298 
2.77962e-05 -0.000151929 0.0528799 
2.59774e-05 -0.000156671 0.0483951 
3.46293e-05 -0.000159403 0.0409227 
5.07799e-05 -0.000164937 -0.00132455 
3.58157e-05 -0.000153601 0.0478757 
6.18008e-06 -0.000168515 -0.00129192 
-1.23897e-05 -0.000165768 -0.001311 
5.92922e-06 -0.00017377 -0.00131939 
-4.8952e-06 -0.000157118 0.0428225 
-7.38042e-05 -5.1723e-05 0.0987177 
-8.31007e-05 -3.46911e-05 0.0987316 
-9.37577e-05 -7.09436e-05 0.0987112 
-7.78798e-05 -7.26825e-05 0.0490634 
2.24402e-06 -0.000142345 0.0987313 
-4.51911e-06 -0.000138143 0.0987322 
-5.55276e-07 -0.000136947 0.0987369 
3.64478e-06 -0.000156409 0.0406113 
9.33627e-06 -0.000163772 -0.00127868 
-1.04661e-05 -0.000164324 -0.00128991 
6.18008e-06 -0.000168515 -0.00129192 
5.10469e-06 -0.000156292 0.0438041 
2.84947e-05 -0.000141786 0.0986892 
3.58157e-05 -0.000153601 0.0478757 
2.68017e-05 -0.00013944 0.0986946 
4.84141e-05 -0.00014909 0.047456 
6.18008e-06 -0.000168515 -0.00129192 
-1.04661e-05 -0.000164324 -0.00128991 
-1.23897e-05 -0.000165768 -0.001311 
-4.8952e-06 -0.000157118 0.0428225 
1.46602e-05 -0.000399625 0.0491102 
5.37362e-17 9.71096e-16 -6.0873e-28 
-5.84543e-06 -0.000354631 0.0490231 
2.74148e-05 -9.60089e-05 -0.00122111 
5.23806e-05 -0.000163024 -0.00131404 
3.12009e-05 -0.000165608 -0.00129298 
3.58157e-05 -0.000153601 0.0478757 
2.77962e-05 -0.000151929 0.0528799 
-1.54401e-06 -0.000169172 -0.00127717 
9.33627e-06 -0.000163772 -0.00127868 
1.58993e-05 -0.000176087 -0.00127622 
3.64478e-06 -0.000156409 0.0406113 
6.18008e-06 -0.000168515 -0.00129192 
5.10469e-06 -0.000156292 0.0438041 
-1.04661e-05 -0.000164324 -0.00128991 
-4.8952e-06 -0.000157118 0.0428225 
3.12009e-05 -0.000165608 -0.00129298 
1.57968e-05 -0.000158354 0.0409443 
2.80312e-05 -0.000172858 -0.00131306 
2.59774e-05 -0.000156671 0.0483951 
1.34045e-15 -4.5868e-16 -9.71125e-27 
-0.000292233 -9.22848e-05 0.0492037 
1.80333e-05 -0.00013585 -0.00108575 
-0.000226698 -8.6118e-05 0.0490204 
5.07799e-05 -0.000164937 -0.00132455 
2.59774e-05 -0.000156671 0.0483951 
2.80312e-05 -0.000172858 -0.00131306 
3.46293e-05 -0.000159403 0.0409227 
-0.000263143 -0.000126712 0.0986073 
-0.000222343 -0.000114075 0.0985433 
-0.000292233 -9.22848e-05 0.0492037 
-0.000240345 -0.000128944 0.049116 
3.12009e-05 -0.000165608 -0.00129298 
2.59774e-05 -0.000156671 0.0483951 
5.07799e-05 -0.000164937 -0.00132455 
3.58157e-05 -0.000153601 0.0478757 
2.80312e-05 -0.000172858 -0.00131306 
1.57968e-05 -0.000158354 0.0409443 
6.18008e-06 -0.000168515 -0.00129192 
8.83356e-06 -0.00016042 0.0425174 
-0.000240345 -0.000128944 0.049116 
0.000214327 -0.000137879 -0.000352316 
1.34045e-15 -4.5868e-16 -9.71125e-27 
1.40833e-06 -0.00012084 -0.00128276 
-9.32072e-06 -0.000144178 0.0987023 
-7.26374e-06 -0.000142568 0.0987131 
-3.46312e-07 -0.000145087 0.0987096 
-4.8952e-06 -0.000157118 0.0428225 
7.62565e-07 -9.23891e-05 -0.00123046 
-1.39419e-15 -5.12416e-16 -1.92879e-26 
0.0003529 -6.73514e-05 0.0490939 
0.000292305 -0.00010822 0.0489622 
7.8153e-06 -2.434e-05 0.0493142 
3.0601e-05 -0.000645159 0.0003263 
6.09008e-06 -0.000512256 -0.000159843 
1.81464e-05 -0.000339866 -0.00110665 
-3.85628e-07 -9.50948e-06 0.0987536 
-1.01683e-05 -4.71687e-07 0.0987737 
7.8153e-06 -2.434e-05 0.0493142 
1.01766e-05 3.04368e-05 0.0987567 
2.00483e-05 -0.000155385 0.0473114 
3.58157e-05 -0.000153601 0.0478757 
3.12009e-05 -0.000165608 -0.00129298 
2.77962e-05 -0.000151929 0.0528799 
3.12009e-05 -0.000165608 -0.00129298 
2.00483e-05 -0.000155385 0.0473114 
2.59774e-05 -0.000156671 0.0483951 
3.58157e-05 -0.000153601 0.0478757 
6.68373e-05 -0.000156372 -0.00135423 
5.64954e-05 -0.0001623 -0.0013466 
5.23806e-05 -0.000163024 -0.00131404 
4.84141e-05 -0.00014909 0.047456 
1.1619e-05 -0.000327494 0.0984664 
-2.46153e-05 -0.000320305 0.0984903 
-2.40418e-06 -0.000316898 0.0985423 
-5.84543e-06 -0.000354631 0.0490231 
2.84947e-05 -0.000141786 0.0986892 
1.99599e-05 -0.000142453 0.0987033 
2.68017e-05 -0.00013944 0.0986946 
3.58157e-05 -0.000153601 0.0478757 
2.80312e-05 -0.000172858 -0.00131306 
8.83356e-06 -0.00016042 0.0425174 
5.92922e-06 -0.00017377 -0.00131939 
1.35607e-05 -0.000163785 0.0466232 
9.33627e-06 -0.000163772 -0.00127868 
5.10469e-06 -0.000156292 0.0438041 
2.00483e-05 -0.000155385 0.0473114 
1.53255e-05 -0.000156375 0.0414374 
-0.000166722 -7.19016e-05 0.0985762 
-0.00021618 -0.000118373 0.0986262 
-0.000222343 -0.000114075 0.0985433 
-0.000226698 -8.6118e-05 0.0490204 
0.000213577 -0.000125901 0.0984496 
0.000251806 -7.22967e-05 0.0984244 
0.000292305 -0.00010822 0.0489622 
0.000261222 -0.000110621 0.098529 
0.00012768 -6.52837e-05 0.0489526 
-0.000158406 -0.000266296 -0.000566591 
-0.000183231 -0.000190066 -0.000588274 
-2.04216e-06 -0.000176081 -0.00137487 
3.10896e-05 -0.000166488 -0.0012867 
1.53255e-05 -0.000156375 0.0414374 
2.00483e-05 -0.000155385 0.0473114 
2.77962e-05 -0.000151929 0.0528799 
0.000237452 -0.000102962 0.0985348 
0.000207156 -8.74094e-05 0.0984582 
0.000251806 -7.22967e-05 0.0984244 
0.00026686 -5.53287e-05 0.0490687 
1.62353e-05 -9.76496e-05 -0.00129637 
5.37362e-17 9.71096e-16 -6.0873e-28 
4.04446e-05 0.00012363 -0.000398754 
3.2689e-05 -0.000357082 0.0490366 
0.000186469 -0.000174861 0.098471 
0.000213577 -0.000125901 0.0984496 
0.000210288 -0.000154494 0.0488888 
0.000203037 -0.000149054 0.098534 
-0.000136161 -8.15112e-05 0.049051 
-0.000166722 -7.19016e-05 0.0985762 
-0.00016144 -0.000100696 0.0986497 
-0.000105702 -8.14495e-05 0.0986264 
6.32739e-05 -7.85215e-05 0.049145 
-0.000128059 -0.000364281 -0.000433595 
-0.000100391 -0.00034622 -0.000516406 
-9.8449e-06 -0.000237959 -0.00130224 
6.56697e-05 -1.0594e-05 0.098628 
8.1177e-05 -3.99744e-05 0.0986789 
6.32739e-05 -7.85215e-05 0.049145 
9.02248e-05 -9.35233e-06 0.0986701 
5.23806e-05 -0.000163024 -0.00131404 
2.77962e-05 -0.000151929 0.0528799 
3.58157e-05 -0.000153601 0.0478757 
4.84141e-05 -0.00014909 0.047456 
0.00026686 -5.53287e-05 0.0490687 
-0.000231157 -7.12155e-05 -0.000362602 
-1.39419e-15 -5.12416e-16 -1.92879e-26 
1.97204e-05 -0.000122198 -0.00128704 
-8.48685e-05 -6.33643e-05 0.0986786 
-7.38042e-05 -5.1723e-05 0.0987177 
-9.37577e-05 -7.09436e-05 0.0987112 
-7.78798e-05 -7.26825e-05 0.0490634 
-0.000146707 -7.93778e-06 -0.000625577 
-0.000162328 -3.85641e-05 -0.000600437 
-1.14611e-05 -9.5964e-05 -0.00138108 
0.000142806 -0.000174911 0.0489794 
5.66904e-05 -1.30172e-05 0.0987075 
8.1177e-05 -3.99744e-05 0.0986789 
6.50557e-05 -6.37892e-05 0.0490272 
3.30413e-05 -2.77078e-05 0.0987212 
2.22208e-05 -0.000143257 0.098697 
1.99599e-05 -0.000142453 0.0987033 
2.84947e-05 -0.000141786 0.0986892 
3.58157e-05 -0.000153601 0.0478757 
4.79245e-06 -0.000148983 0.0986899 
1.09603e-05 -0.000149052 0.0986906 
9.35615e-06 -0.000155277 0.0986781 
1.35607e-05 -0.000163785 0.0466232 
3.0601e-05 -0.000645159 0.0003263 
2.03893e-05 -0.000544321 -7.93427e-06 
2.33455e-05 -0.000333042 -0.00108295 
6.21552e-06 -2.57463e-05 0.0494472 
-0.000114028 -6.95729e-05 0.0490184 
-0.000105702 -8.14495e-05 0.0986264 
-0.000115557 -7.78762e-05 0.0986784 
-8.48685e-05 -6.33643e-05 0.0986786 
0.000104744 -0.000440165 -0.000331161 
0.000138105 -0.000398809 -0.000347033 
5.04847e-05 -0.000273356 -0.00117868 
-3.212e-05 -7.16127e-05 0.0492171 
-0.000110215 -0.000183504 0.0490469 
0.000199663 -2.48963e-05 -0.000530642 
0.000213645 -6.18491e-05 -0.00048265 
5.84535e-05 -0.000109071 -0.0013096 
4.41484e-05 0.000135261 -0.000342971 
6.66596e-05 8.2554e-05 -0.000504234 
-3.49461e-05 -0.000289927 0.0490166 
3.81869e-05 -9.48355e-05 -0.00134206 
2.68017e-05 -0.00013944 0.0986946 
3.99923e-05 -0.000133451 0.0986804 
4.11676e-05 -0.00013732 0.0986738 
4.84141e-05 -0.00014909 0.047456 
6.56697e-05 -1.0594e-05 0.098628 
0.000102697 -6.06244e-05 0.0488981 
0.000108851 -5.99394e-05 0.0985754 
9.05187e-05 -4.35611e-05 0.0986288 
6.09343e-05 -0.000251581 0.0984915 
9.42323e-05 -0.000232994 0.0984942 
8.52804e-05 -0.000241998 0.0489192 
9.41511e-05 -0.000250563 0.0985415 
9.33627e-06 -0.000163772 -0.00127868 
3.64478e-06 -0.000156409 0.0406113 
5.10469e-06 -0.000156292 0.0438041 
1.53255e-05 -0.000156375 0.0414374 
0.000117365 -0.000216389 0.0984932 
0.000165876 -0.000190339 0.0984885 
0.000136285 -0.000203404 0.0489122 
0.000130569 -0.000213373 0.098537 
0.000167915 -8.46023e-05 0.0985589 
0.000126637 -5.99167e-05 0.0985157 
0.000207156 -8.74094e-05 0.0984582 
0.000193677 -6.83678e-05 0.048846 
0.00012768 -6.52837e-05 0.0489526 
0.000126637 -5.99167e-05 0.0985157 
0.000108851 -5.99394e-05 0.0985754 
0.000123985 -5.89767e-05 0.0985898 
6.09008e-06 -0.000512256 -0.000159843 
-6.37255e-05 -0.000417909 -0.000367367 
3.94514e-05 -4.31783e-05 0.0491683 
4.85794e-06 -0.000298849 -0.00114089 
3.71057e-05 -0.000167443 -0.00130614 
0.000211184 -0.000204671 -0.00047908 
0.000237887 -0.000118559 -0.000347688 
-0.000136161 -8.15112e-05 0.049051 
3.2689e-05 -0.000357082 0.0490366 
1.1619e-05 -0.000327494 0.0984664 
2.7554e-05 -0.000295876 0.0984742 
1.5664e-05 -0.00034645 0.0985479 
0.000146268 4.23153e-05 -0.000564483 
0.000153132 1.9457e-05 -0.000585426 
-6.57453e-05 -0.000222756 0.0490282 
4.54217e-05 -9.5322e-05 -0.0013817 
3.31128e-06 -9.7394e-05 -0.00141165 
-3.79177e-05 6.74583e-05 -0.000652891 
-8.78961e-05 3.71185e-05 -0.000635115 
8.52804e-05 -0.000241998 0.0489192 
1.25301e-05 2.61427e-05 0.098778 
-2.24766e-05 -2.21132e-05 0.098766 
-2.65287e-05 -4.34172e-05 0.0987705 
-6.03005e-06 -2.62884e-05 0.0492289 
-0.000107189 2.29758e-05 -0.000618906 
-0.000146707 -7.93778e-06 -0.000625577 
1.9803e-06 -9.14571e-05 -0.00137857 
0.000136285 -0.000203404 0.0489122 
-0.000158819 -0.000187843 0.0985626 
-0.000182065 -0.000131911 0.098556 
-0.00017295 -0.000150118 0.0986149 
-0.000167727 -0.000173271 0.049019 
3.1492e-06 -0.000102326 -0.00134989 
-0.000162328 -3.85641e-05 -0.000600437 
-0.00020812 -9.18936e-05 -0.000398428 
0.000210288 -0.000154494 0.0488888 
9.33627e-06 -0.000163772 -0.00127868 
1.58993e-05 -0.000176087 -0.00127622 
3.64478e-06 -0.000156409 0.0406113 
1.53255e-05 -0.000156375 0.0414374 
2.7554e-05 -0.000295876 0.0984742 
6.09343e-05 -0.000251581 0.0984915 
6.5259e-05 -0.000303662 0.0489591 
4.20888e-05 -0.000288366 0.0985388 
-5.84543e-06 -0.000354631 0.0490231 
5.37362e-17 9.71096e-16 -6.0873e-28 
4.41484e-05 0.000135261 -0.000342971 
2.74148e-05 -9.60089e-05 -0.00122111 
-9.62771e-05 -0.000260633 0.0985874 
-6.6197e-05 -0.000224688 0.0985424 
-8.52525e-05 -0.000238897 0.0985575 
-6.57453e-05 -0.000222756 0.0490282 
7.62565e-07 -9.23891e-05 -0.00123046 
-0.00020812 -9.18936e-05 -0.000398428 
-1.39419e-15 -5.12416e-16 -1.92879e-26 
0.000292305 -0.00010822 0.0489622 
-1.01683e-05 -4.71687e-07 0.0987737 
-3.14663e-06 3.87181e-05 0.0987687 
1.25301e-05 2.61427e-05 0.098778 
6.21552e-06 -2.57463e-05 0.0494472 
-0.000263143 -0.000126712 0.0986073 
-0.000182065 -0.000131911 0.098556 
-0.000222343 -0.000114075 0.0985433 
-0.000240345 -0.000128944 0.049116 
-3.85628e-07 -9.50948e-06 0.0987536 
3.94514e-05 -4.31783e-05 0.0491683 
3.30413e-05 -2.77078e-05 0.0987212 
2.22232e-05 6.85568e-06 0.0987367 
1.76637e-05 -0.000140062 0.0987148 
2.12162e-05 -0.000140924 0.098706 
1.69994e-05 -0.000142342 0.0987116 
2.77962e-05 -0.000151929 0.0528799 
-5.89576e-05 -0.000270146 0.0985699 
-4.04776e-05 -0.000299917 0.0985199 
-6.6197e-05 -0.000224688 0.0985424 
-4.9081e-05 -0.000261716 0.0488964 
-3.212e-05 -7.16127e-05 0.0492171 
-6.05035e-05 -1.87932e-05 0.0987547 
-2.65287e-05 -4.34172e-05 0.0987705 
-4.34319e-05 -2.24538e-05 0.0987503 
-0.000123353 -0.000204751 0.0985958 
-8.52525e-05 -0.000238897 0.0985575 
-0.000113162 -0.000180784 0.0985649 
-0.000102369 -0.000218348 0.0489163 
-7.78798e-05 -7.26825e-05 0.0490634 
0.0002175 -0.000288704 -0.000414456 
0.000187185 -0.000353979 -0.000367664 
6.95253e-05 -0.000222819 -0.00121223 
0.000213645 -6.18491e-05 -0.00048265 
0.000214327 -0.000137879 -0.000352316 
-0.000167727 -0.000173271 0.049019 
6.82846e-05 -0.000111718 -0.00113941 
1.80333e-05 -0.00013585 -0.00108575 
0.000237887 -0.000118559 -0.000347688 
1.34045e-15 -4.5868e-16 -9.71125e-27 
-0.000226698 -8.6118e-05 0.0490204 
-8.46924e-06 -7.96082e-05 -0.00125366 
-8.78961e-05 3.71185e-05 -0.000635115 
-0.000107189 2.29758e-05 -0.000618906 
0.00011182 -0.000227273 0.0488881 
2.03893e-05 -0.000544321 -7.93427e-06 
0.000104744 -0.000440165 -0.000331161 
3.40833e-05 -0.000302413 -0.00104097 
-6.03005e-06 -2.62884e-05 0.0492289 
-0.000183231 -0.000190066 -0.000588274 
-0.000231157 -7.12155e-05 -0.000362602 
0.000193677 -6.83678e-05 0.048846 
-2.8967e-05 -0.00014331 -0.00126731 
1.57968e-05 -0.000158354 0.0409443 
2.59774e-05 -0.000156671 0.0483951 
3.12009e-05 -0.000165608 -0.00129298 
2.00483e-05 -0.000155385 0.0473114 
4.04446e-05 0.00012363 -0.000398754 
-3.79177e-05 6.74583e-05 -0.000652891 
1.33805e-05 -7.61533e-05 -0.00128907 
6.5259e-05 -0.000303662 0.0489591 
-7.38042e-05 -5.1723e-05 0.0987177 
-8.31007e-05 -3.46911e-05 0.0987316 
-5.98821e-05 -6.31522e-05 0.0490398 
-4.34319e-05 -2.24538e-05 0.0987503 
-4.26277e-05 -0.000332007 0.0985467 
-2.46153e-05 -0.000320305 0.0984903 
-4.04776e-05 -0.000299917 0.0985199 
-3.49461e-05 -0.000289927 0.0490166 
6.77956e-05 -0.00020131 -0.00114161 
0.0002175 -0.000288704 -0.000414456 
0.000211184 -0.000204671 -0.00047908 
-0.000114028 -6.95729e-05 0.0490184 
-0.000102369 -0.000218348 0.0489163 
0.000153132 1.9457e-05 -0.000585426 
0.000199663 -2.48963e-05 -0.000530642 
5.63222e-05 -9.9888e-05 -0.00125556 
-0.000113162 -0.000180784 0.0985649 
-0.000158819 -0.000187843 0.0985626 
-0.000176737 -0.000192527 0.0985956 
-0.000110215 -0.000183504 0.0490469 
-5.98821e-05 -6.31522e-05 0.0490398 
0.000187185 -0.000353979 -0.000367664 
0.000138105 -0.000398809 -0.000347033 
6.75e-05 -0.000265508 -0.00102705 
0.000142806 -0.000174911 0.0489794 
0.000165876 -0.000190339 0.0984885 
0.000186469 -0.000174861 0.098471 
0.000201692 -0.000194003 0.0985189 
-1.72961e-05 -0.000218404 -0.00121381 
-0.000158406 -0.000266296 -0.000566591 
-0.000100391 -0.00034622 -0.000516406 
0.000102697 -6.06244e-05 0.0488981 
6.50557e-05 -6.37892e-05 0.0490272 
-6.37255e-05 -0.000417909 -0.000367367 
-0.000128059 -0.000364281 -0.000433595 
-3.01594e-05 -0.0002853 -0.00107604 
0.00011182 -0.000227273 0.0488881 
9.42323e-05 -0.000232994 0.0984942 
0.000117365 -0.000216389 0.0984932 
0.000116697 -0.000241367 0.0985268 
6.66596e-05 8.2554e-05 -0.000504234 
0.000146268 4.23153e-05 -0.000564483 
-4.9081e-05 -0.000261716 0.0488964 
5.86183e-05 -6.1291e-05 -0.00118045 
-2.52783e-05 -0.000159931 -0.00131456 
-1.52417e-05 -0.000139456 0.0987176 
-1.81255e-05 -0.000163842 -0.00129823 
-3.02799e-05 -0.000135485 0.0987059 
-2.52783e-05 -0.000159931 -0.00131456 
-1.81255e-05 -0.000163842 -0.00129823 
-1.52417e-05 -0.000139456 0.0987176 
-1.04661e-05 -0.000164324 -0.00128991 
6.79483e-05 -0.000152332 -0.00138148 
6.32439e-05 -0.000124317 0.0986584 
3.44599e-05 -0.000163493 -0.00137567 
5.64954e-05 -0.0001623 -0.0013466 
3.44599e-05 -0.000163493 -0.00137567 
6.32439e-05 -0.000124317 0.0986584 
6.79483e-05 -0.000152332 -0.00138148 
9.56593e-05 -0.000121409 0.098626 
1.94676e-05 -0.000115176 0.0987166 
2.58075e-05 -0.000208906 -0.00127313 
2.93679e-05 -0.000174876 -0.00128526 
8.29905e-06 -0.000109342 0.0987371 
1.94676e-05 -0.000115176 0.0987166 
2.93679e-05 -0.000174876 -0.00128526 
2.58075e-05 -0.000208906 -0.00127313 
3.05461e-05 -0.000190184 -0.00130485 
1.58993e-05 -0.000176087 -0.00127622 
4.14139e-07 -0.000116796 0.0987471 
7.17475e-06 -0.000125914 0.0987388 
2.00105e-05 -0.000204078 -0.00126963 
7.17475e-06 -0.000125914 0.0987388 
4.14139e-07 -0.000116796 0.0987471 
1.58993e-05 -0.000176087 -0.00127622 
4.17963e-06 -0.000134045 0.0987388 
4.84141e-05 -0.00014909 0.047456 
2.84947e-05 -0.000141786 0.0986892 
4.15961e-05 -0.000140705 0.0986683 
4.11676e-05 -0.00013732 0.0986738 
4.84141e-05 -0.00014909 0.047456 
4.15961e-05 -0.000140705 0.0986683 
2.84947e-05 -0.000141786 0.0986892 
3.58157e-05 -0.000153601 0.0478757 
4.84141e-05 -0.00014909 0.047456 
6.23988e-05 -0.000133868 0.0986476 
4.15961e-05 -0.000140705 0.0986683 
6.68373e-05 -0.000156372 -0.00135423 
4.84141e-05 -0.00014909 0.047456 
4.15961e-05 -0.000140705 0.0986683 
6.23988e-05 -0.000133868 0.0986476 
4.11676e-05 -0.00013732 0.0986738 
6.95253e-05 -0.000222819 -0.00121223 
-7.5038e-05 -9.11398e-05 0.0987054 
3.36941e-05 -0.000210672 -0.00123649 
-9.37577e-05 -7.09436e-05 0.0987112 
6.95253e-05 -0.000222819 -0.00121223 
3.36941e-05 -0.000210672 -0.00123649 
-7.5038e-05 -9.11398e-05 0.0987054 
1.34344e-05 -0.000183091 -0.00127837 
2.32823e-06 -0.000143339 -0.00136492 
-2.86808e-05 -0.000150788 0.0986701 
-2.14513e-05 -0.000155711 -0.00133944 
-5.27775e-05 -0.000154192 0.0986567 
2.32823e-06 -0.000143339 -0.00136492 
-2.14513e-05 -0.000155711 -0.00133944 
-2.86808e-05 -0.000150788 0.0986701 
-8.08439e-06 -0.000166666 -0.00134179 
1.02911e-05 -0.000184843 -0.00127057 
4.14139e-07 -0.000116796 0.0987471 
1.58993e-05 -0.000176087 -0.00127622 
2.00105e-05 -0.000204078 -0.00126963 
1.58993e-05 -0.000176087 -0.00127622 
4.14139e-07 -0.000116796 0.0987471 
1.02911e-05 -0.000184843 -0.00127057 
-3.40318e-06 -0.000125188 0.098744 
1.35607e-05 -0.000163785 0.0466232 
7.23125e-06 -0.000147016 0.0986987 
1.10645e-05 -0.000146442 0.0987008 
8.83356e-06 -0.00016042 0.0425174 
1.35607e-05 -0.000163785 0.0466232 
1.10645e-05 -0.000146442 0.0987008 
7.23125e-06 -0.000147016 0.0986987 
1.09603e-05 -0.000149052 0.0986906 
1.45742e-05 -0.000143765 0.0987128 
2.77962e-05 -0.000151929 0.0528799 
1.30646e-05 -0.000142502 0.0987191 
1.69994e-05 -0.000142342 0.0987116 
1.30646e-05 -0.000142502 0.0987191 
2.77962e-05 -0.000151929 0.0528799 
1.45742e-05 -0.000143765 0.0987128 
2.00483e-05 -0.000155385 0.0473114 
-3.14663e-06 3.87181e-05 0.0987687 
3.40833e-05 -0.000302413 -0.00104097 
-3.12835e-06 -4.04236e-05 0.0987595 
-2.24766e-05 -2.21132e-05 0.098766 
-3.12835e-06 -4.04236e-05 0.0987595 
3.40833e-05 -0.000302413 -0.00104097 
-3.14663e-06 3.87181e-05 0.0987687 
2.33455e-05 -0.000333042 -0.00108295 
-4.99163e-06 -0.000189575 0.0986234 
8.73357e-06 -0.000153083 -0.00138324 
9.77578e-06 -0.000171668 -0.00135998 
1.4915e-05 -0.000155121 -0.00138766 
9.77578e-06 -0.000171668 -0.00135998 
8.73357e-06 -0.000153083 -0.00138324 
-4.99163e-06 -0.000189575 0.0986234 
-1.07643e-05 -0.000166677 0.0986426 
1.57968e-05 -0.000158354 0.0409443 
5.10469e-06 -0.000156292 0.0438041 
9.49126e-06 -0.000144124 0.0987197 
2.00483e-05 -0.000155385 0.0473114 
2.1596e-05 -0.000144465 0.0986954 
3.58157e-05 -0.000153601 0.0478757 
1.7244e-05 -0.000144349 0.0987042 
2.22208e-05 -0.000143257 0.098697 
1.7244e-05 -0.000144349 0.0987042 
3.58157e-05 -0.000153601 0.0478757 
2.1596e-05 -0.000144465 0.0986954 
2.59774e-05 -0.000156671 0.0483951 
1.53255e-05 -0.000156375 0.0414374 
3.95555e-06 -0.000143564 0.0987253 
2.00483e-05 -0.000155385 0.0473114 
8.28895e-06 -0.000143238 0.0987259 
1.53255e-05 -0.000156375 0.0414374 
2.00483e-05 -0.000155385 0.0473114 
3.95555e-06 -0.000143564 0.0987253 
5.10469e-06 -0.000156292 0.0438041 
1.5664e-05 -0.00034645 0.0985479 
2.74148e-05 -9.60089e-05 -0.00122111 
1.46834e-05 -0.000284854 0.0985782 
1.62353e-05 -9.76496e-05 -0.00129637 
1.46834e-05 -0.000284854 0.0985782 
2.74148e-05 -9.60089e-05 -0.00122111 
1.5664e-05 -0.00034645 0.0985479 
-2.40418e-06 -0.000316898 0.0985423 
4.20888e-05 -0.000288366 0.0985388 
1.62353e-05 -9.76496e-05 -0.00129637 
3.2689e-05 -0.000357082 0.0490366 
1.5664e-05 -0.00034645 0.0985479 
4.20888e-05 -0.000288366 0.0985388 
3.2689e-05 -0.000357082 0.0490366 
1.62353e-05 -9.76496e-05 -0.00129637 
1.33805e-05 -7.61533e-05 -0.00128907 
0.000134709 -0.000110226 0.098578 
-2.8967e-05 -0.00014331 -0.00126731 
0.000237452 -0.000102962 0.0985348 
3.96079e-05 -0.000144888 -0.00137149 
0.000237452 -0.000102962 0.0985348 
-2.8967e-05 -0.00014331 -0.00126731 
0.000134709 -0.000110226 0.098578 
0.000167915 -8.46023e-05 0.0985589 
6.32439e-05 -0.000124317 0.0986584 
4.84141e-05 -0.00014909 0.047456 
4.07179e-05 -0.00012503 0.0986871 
5.64954e-05 -0.0001623 -0.0013466 
4.07179e-05 -0.00012503 0.0986871 
4.84141e-05 -0.00014909 0.047456 
6.32439e-05 -0.000124317 0.0986584 
3.99923e-05 -0.000133451 0.0986804 
6.77956e-05 -0.00020131 -0.00114161 
-7.5038e-05 -9.11398e-05 0.0987054 
-8.53275e-05 -0.000100946 0.0986885 
1.34344e-05 -0.000183091 -0.00127837 
-8.53275e-05 -0.000100946 0.0986885 
-7.5038e-05 -9.11398e-05 0.0987054 
6.77956e-05 -0.00020131 -0.00114161 
-0.000115557 -7.78762e-05 0.0986784 
3.81869e-05 -9.48355e-05 -0.00134206 
-5.84543e-06 -0.000354631 0.0490231 
4.41484e-05 0.000135261 -0.000342971 
2.74148e-05 -9.60089e-05 -0.00122111 
3.81869e-05 -9.48355e-05 -0.00134206 
4.41484e-05 0.000135261 -0.000342971 
-5.84543e-06 -0.000354631 0.0490231 
-3.49461e-05 -0.000289927 0.0490166 
2.22232e-05 6.85568e-06 0.0987367 
1.63327e-05 -0.000238465 -0.00126514 
1.61452e-05 -3.13073e-05 0.0987437 
4.85794e-06 -0.000298849 -0.00114089 
2.22232e-05 6.85568e-06 0.0987367 
1.61452e-05 -3.13073e-05 0.0987437 
1.63327e-05 -0.000238465 -0.00126514 
1.70095e-05 -8.50517e-05 0.0987243 
2.58075e-05 -0.000208906 -0.00127313 
1.61452e-05 -3.13073e-05 0.0987437 
1.63327e-05 -0.000238465 -0.00126514 
4.85794e-06 -0.000298849 -0.00114089 
2.58075e-05 -0.000208906 -0.00127313 
1.63327e-05 -0.000238465 -0.00126514 
1.61452e-05 -3.13073e-05 0.0987437 
1.70095e-05 -8.50517e-05 0.0987243 
8.22433e-05 -8.68109e-05 0.0986341 
0.000123985 -5.89767e-05 0.0985898 
9.01957e-06 -0.00019633 -0.00132427 
9.05187e-05 -4.35611e-05 0.0986288 
8.22433e-05 -8.68109e-05 0.0986341 
9.01957e-06 -0.00019633 -0.00132427 
0.000123985 -5.89767e-05 0.0985898 
-2.04216e-06 -0.000176081 -0.00137487 
-1.72961e-05 -0.000218404 -0.00121381 
9.01957e-06 -0.00019633 -0.00132427 
0.000123985 -5.89767e-05 0.0985898 
9.05187e-05 -4.35611e-05 0.0986288 
-1.72961e-05 -0.000218404 -0.00121381 
0.000123985 -5.89767e-05 0.0985898 
9.01957e-06 -0.00019633 -0.00132427 
-2.04216e-06 -0.000176081 -0.00137487 
0.000201692 -0.000194003 0.0985189 
1.9803e-06 -9.14571e-05 -0.00137857 
0.000126173 -0.000161717 0.0985607 
-1.14611e-05 -9.5964e-05 -0.00138108 
0.000126173 -0.000161717 0.0985607 
1.9803e-06 -9.14571e-05 -0.00137857 
0.000201692 -0.000194003 0.0985189 
0.000130569 -0.000213373 0.098537 
-0.000115557 -7.78762e-05 0.0986784 
3.71057e-05 -0.000167443 -0.00130614 
-0.000136161 -8.15112e-05 0.049051 
6.77956e-05 -0.00020131 -0.00114161 
-0.000115557 -7.78762e-05 0.0986784 
-0.000136161 -8.15112e-05 0.049051 
3.71057e-05 -0.000167443 -0.00130614 
-0.00016144 -0.000100696 0.0986497 
5.10469e-06 -0.000156292 0.0438041 
7.10638e-06 -0.000144703 0.0987148 
9.49126e-06 -0.000144124 0.0987197 
5.22721e-06 -0.000144263 0.0987198 
5.10469e-06 -0.000156292 0.0438041 
9.49126e-06 -0.000144124 0.0987197 
7.10638e-06 -0.000144703 0.0987148 
1.57968e-05 -0.000158354 0.0409443 
-0.00016144 -0.000100696 0.0986497 
1.80333e-05 -0.00013585 -0.00108575 
-1.14174e-05 -0.000146933 -0.00130294 
-0.00021618 -0.000118373 0.0986262 
-1.14174e-05 -0.000146933 -0.00130294 
1.80333e-05 -0.00013585 -0.00108575 
-0.00016144 -0.000100696 0.0986497 
3.71057e-05 -0.000167443 -0.00130614 
-1.14174e-05 -0.000146933 -0.00130294 
-0.000111037 -0.000119808 0.0986719 
-0.00016144 -0.000100696 0.0986497 
-0.00021618 -0.000118373 0.0986262 
-0.00016144 -0.000100696 0.0986497 
-0.000111037 -0.000119808 0.0986719 
-1.14174e-05 -0.000146933 -0.00130294 
3.71057e-05 -0.000167443 -0.00130614 
9.50863e-06 -0.000107259 0.198699 
-9.20092e-06 -0.000147097 0.098688 
-3.47517e-06 -0.000146964 0.0986993 
-1.35697e-06 -0.000148799 0.0986918 
1.64494e-05 -0.000112346 0.198711 
-3.5487e-05 -0.000137721 0.0986921 
-1.97879e-05 -0.000140651 0.0987051 
-2.16307e-05 -0.000144661 0.0986907 
1.10645e-05 -0.000146442 0.0987008 
1.09603e-05 -0.000149052 0.0986906 
1.51333e-05 -0.000147592 0.0986913 
5.7001e-06 -0.000128265 0.150752 
2.50191e-05 -0.000151151 0.0986616 
1.61102e-05 -0.000160731 0.0986629 
2.35597e-05 -0.000161767 0.0986395 
-8.64569e-06 -9.96195e-05 0.198677 
1.58635e-05 -0.000154156 0.0986802 
1.61102e-05 -0.000160731 0.0986629 
2.50191e-05 -0.000151151 0.0986616 
-8.64569e-06 -9.96195e-05 0.198677 
-3.47517e-06 -0.000146964 0.0986993 
9.50863e-06 -0.000107259 0.198699 
-1.35697e-06 -0.000148799 0.0986918 
4.15397e-06 -0.000128299 0.15489 
-2.16307e-05 -0.000144661 0.0986907 
-9.20092e-06 -0.000147097 0.098688 
-9.32072e-06 -0.000144178 0.0987023 
2.7285e-06 -0.000128764 0.154597 
1.10645e-05 -0.000146442 0.0987008 
1.51333e-05 -0.000147592 0.0986913 
1.56859e-05 -0.000145437 0.0986993 
5.51477e-06 -0.000131311 0.149008 
-7.22207e-06 -0.000141663 0.0987201 
-1.52417e-05 -0.000139456 0.0987176 
-7.26374e-06 -0.000142568 0.0987131 
2.7285e-06 -0.000128764 0.154597 
-3.61778e-08 -0.000145691 0.198755 
7.17475e-06 -0.000125914 0.0987388 
9.78998e-06 -0.000135056 0.098732 
4.17963e-06 -0.000134045 0.0987388 
-1.35697e-06 -0.000148799 0.0986918 
9.50863e-06 -0.000107259 0.198699 
-9.20092e-06 -0.000147097 0.098688 
-1.08845e-06 -0.000153903 0.0986772 
1.29342e-05 -0.000130464 0.0987272 
1.6006e-05 -0.000135598 0.0987214 
2.18868e-05 -0.000128332 0.0987097 
-1.52734e-05 -0.000146462 0.198747 
1.10645e-05 -0.000146442 0.0987008 
-1.14925e-06 -0.000113867 0.198702 
1.51333e-05 -0.000147592 0.0986913 
5.51477e-06 -0.000131311 0.149008 
-2.3949e-05 -0.000132971 0.0987162 
-1.52417e-05 -0.000139456 0.0987176 
2.71819e-05 -0.000126702 0.198733 
-3.02799e-05 -0.000135485 0.0987059 
9.78998e-06 -0.000135056 0.098732 
1.6006e-05 -0.000135598 0.0987214 
1.29342e-05 -0.000130464 0.0987272 
-1.52734e-05 -0.000146462 0.198747 
-1.52417e-05 -0.000139456 0.0987176 
-4.81241e-06 -0.00014148 0.0987264 
1.56304e-05 -0.000123738 0.198731 
-7.22207e-06 -0.000141663 0.0987201 
2.61773e-05 -0.0001358 0.0987025 
2.18868e-05 -0.000128332 0.0987097 
1.6006e-05 -0.000135598 0.0987214 
-2.72069e-05 -0.000138529 0.198721 
6.23988e-05 -0.000133868 0.0986476 
9.82497e-05 -0.000127142 0.0986226 
6.74801e-05 -0.000129824 0.0986545 
-3.19666e-05 -0.000116689 0.198677 
2.35597e-05 -0.000161767 0.0986395 
1.61102e-05 -0.000160731 0.0986629 
1.72939e-05 -0.000176191 0.098641 
-8.94597e-06 -8.41958e-05 0.19865 
4.0577e-05 -0.000148248 0.0986525 
4.15961e-05 -0.000140705 0.0986683 
2.88882e-05 -0.000145317 0.0986738 
4.98482e-06 -0.000125047 0.156442 
-2.72069e-05 -0.000138529 0.198721 
1.6006e-05 -0.000135598 0.0987214 
2.61773e-05 -0.0001358 0.0987025 
5.91828e-06 -0.000135001 0.144545 
1.58635e-05 -0.000154156 0.0986802 
-8.64569e-06 -9.96195e-05 0.198677 
2.50191e-05 -0.000151151 0.0986616 
4.98482e-06 -0.000125047 0.156442 
9.50863e-06 -0.000107259 0.198699 
-3.47517e-06 -0.000146964 0.0986993 
-9.20092e-06 -0.000147097 0.098688 
2.7285e-06 -0.000128764 0.154597 
0.000116719 -0.000139122 0.0985767 
9.49835e-05 -0.000132818 0.0986134 
7.70838e-05 -0.000143042 0.0986031 
-8.75286e-05 -8.62582e-05 0.198575 
5.62725e-05 -0.000152373 0.0986219 
7.70838e-05 -0.000143042 0.0986031 
6.08174e-05 -0.000140316 0.0986379 
-2.62373e-05 -0.000103121 0.198663 
9.00141e-06 -0.000168589 0.0986608 
1.23638e-05 -8.42638e-05 0.198676 
1.0826e-06 -0.000165882 0.0986512 
9.86446e-06 -0.000192269 0.0986345 
3.49636e-05 -0.000156752 0.0986336 
2.50191e-05 -0.000151151 0.0986616 
2.35597e-05 -0.000161767 0.0986395 
-8.64569e-06 -9.96195e-05 0.198677 
9.35615e-06 -0.000155277 0.0986781 
9.00141e-06 -0.000168589 0.0986608 
1.61102e-05 -0.000160731 0.0986629 
5.7001e-06 -0.000128265 0.150752 
-2.3949e-05 -0.000132971 0.0987162 
2.71819e-05 -0.000126702 0.198733 
-1.52417e-05 -0.000139456 0.0987176 
-1.17395e-05 -0.000136227 0.0987276 
9.00141e-06 -0.000168589 0.0986608 
-1.08845e-06 -0.000153903 0.0986772 
1.23638e-05 -8.42638e-05 0.198676 
5.7001e-06 -0.000128265 0.150752 
-4.54848e-05 -0.00012794 0.0987006 
6.18452e-05 -0.000119274 0.198698 
-4.51503e-05 -0.000118954 0.0987137 
-8.53275e-05 -0.000100946 0.0986885 
-4.51911e-06 -0.000138143 0.0987322 
-1.17395e-05 -0.000136227 0.0987276 
-4.81241e-06 -0.00014148 0.0987264 
2.68461e-06 -0.000136444 0.156859 
2.18868e-05 -0.000128332 0.0987097 
3.41961e-05 -0.000112834 0.0986923 
1.94676e-05 -0.000115176 0.0987166 
-2.72069e-05 -0.000138529 0.198721 
-4.54848e-05 -0.00012794 0.0987006 
2.88841e-05 -0.000116292 0.198716 
-6.81769e-05 -0.000130198 0.0986878 
-3.02799e-05 -0.000135485 0.0987059 
-2.72069e-05 -0.000138529 0.198721 
2.61773e-05 -0.0001358 0.0987025 
4.07179e-05 -0.00012503 0.0986871 
5.09189e-06 -0.000130254 0.149913 
6.08174e-05 -0.000140316 0.0986379 
7.70838e-05 -0.000143042 0.0986031 
9.49835e-05 -0.000132818 0.0986134 
-5.17878e-05 -0.000102674 0.198632 
-3.5487e-05 -0.000137721 0.0986921 
-5.99953e-05 -0.000136715 0.0986759 
2.88841e-05 -0.000116292 0.198716 
-6.81769e-05 -0.000130198 0.0986878 
1.3111e-05 -0.000144837 0.0987066 
9.54234e-06 -0.000145571 0.0987084 
1.10645e-05 -0.000146442 0.0987008 
5.51477e-06 -0.000131311 0.149008 
-1.14925e-06 -0.000113867 0.198702 
1.10645e-05 -0.000146442 0.0987008 
1.51333e-05 -0.000147592 0.0986913 
5.7001e-06 -0.000128265 0.150752 
6.74801e-05 -0.000129824 0.0986545 
4.11676e-05 -0.00013732 0.0986738 
6.23988e-05 -0.000133868 0.0986476 
5.09189e-06 -0.000130254 0.149913 
2.78402e-05 -0.000275851 0.098578 
2.06478e-05 -0.000232154 0.0986109 
1.46834e-05 -0.000284854 0.0985782 
-9.61398e-06 -1.64495e-06 0.198543 
2.06858e-05 -9.60047e-05 0.19869 
-9.20092e-06 -0.000147097 0.098688 
-1.08845e-06 -0.000153903 0.0986772 
-1.3287e-05 -0.000157715 0.0986654 
1.45742e-05 -0.000143765 0.0987128 
1.07972e-05 -0.000144509 0.0987131 
1.3111e-05 -0.000144837 0.0987066 
5.51477e-06 -0.000131311 0.149008 
-4.81241e-06 -0.00014148 0.0987264 
-1.17395e-05 -0.000136227 0.0987276 
1.56304e-05 -0.000123738 0.198731 
2.68461e-06 -0.000136444 0.156859 
2.61773e-05 -0.0001358 0.0987025 
3.99923e-05 -0.000133451 0.0986804 
4.07179e-05 -0.00012503 0.0986871 
5.09189e-06 -0.000130254 0.149913 
5.24145e-05 -0.000173747 0.0986015 
7.76625e-05 -0.00016456 0.0985853 
5.62725e-05 -0.000152373 0.0986219 
-2.23137e-05 -8.31625e-05 0.19864 
2.0664e-05 -0.000148267 0.0986791 
1.58635e-05 -0.000154156 0.0986802 
2.50191e-05 -0.000151151 0.0986616 
4.98482e-06 -0.000125047 0.156442 
1.99599e-05 -0.000142453 0.0987033 
1.45742e-05 -0.000143765 0.0987128 
1.7244e-05 -0.000144349 0.0987042 
5.65505e-06 -0.000131786 0.149519 
9.00141e-06 -0.000168589 0.0986608 
1.0826e-06 -0.000165882 0.0986512 
1.23638e-05 -8.42638e-05 0.198676 
-1.08845e-06 -0.000153903 0.0986772 
1.61102e-05 -0.000160731 0.0986629 
1.72939e-05 -0.000176191 0.098641 
-6.60538e-07 -9.60737e-05 0.198679 
9.00141e-06 -0.000168589 0.0986608 
-4.99163e-06 -0.000189575 0.0986234 
1.0826e-06 -0.000165882 0.0986512 
1.23638e-05 -8.42638e-05 0.198676 
9.86446e-06 -0.000192269 0.0986345 
1.58635e-05 -0.000154156 0.0986802 
1.61102e-05 -0.000160731 0.0986629 
-8.64569e-06 -9.96195e-05 0.198677 
-6.60538e-07 -9.60737e-05 0.198679 
-1.08845e-06 -0.000153903 0.0986772 
1.0826e-06 -0.000165882 0.0986512 
1.23638e-05 -8.42638e-05 0.198676 
-1.3287e-05 -0.000157715 0.0986654 
1.56304e-05 -0.000123738 0.198731 
-4.81241e-06 -0.00014148 0.0987264 
-1.52417e-05 -0.000139456 0.0987176 
-1.17395e-05 -0.000136227 0.0987276 
-7.22207e-06 -0.000141663 0.0987201 
-4.81241e-06 -0.00014148 0.0987264 
1.56304e-05 -0.000123738 0.198731 
3.42555e-06 -0.000133458 0.153642 
-9.20092e-06 -0.000147097 0.098688 
-3.47517e-06 -0.000146964 0.0986993 
-9.32072e-06 -0.000144178 0.0987023 
2.7285e-06 -0.000128764 0.154597 
1.29342e-05 -0.000130464 0.0987272 
2.18868e-05 -0.000128332 0.0987097 
1.94676e-05 -0.000115176 0.0987166 
-1.52734e-05 -0.000146462 0.198747 
3.49636e-05 -0.000156752 0.0986336 
5.62725e-05 -0.000152373 0.0986219 
4.0577e-05 -0.000148248 0.0986525 
-2.23137e-05 -8.31625e-05 0.19864 
-8.94597e-06 -8.41958e-05 0.19865 
2.35597e-05 -0.000161767 0.0986395 
1.61102e-05 -0.000160731 0.0986629 
-8.64569e-06 -9.96195e-05 0.198677 
-9.32072e-06 -0.000144178 0.0987023 
-1.97879e-05 -0.000140651 0.0987051 
-2.16307e-05 -0.000144661 0.0986907 
2.7285e-06 -0.000128764 0.154597 
1.0826e-06 -0.000165882 0.0986512 
-1.07643e-05 -0.000166677 0.0986426 
1.23638e-05 -8.42638e-05 0.198676 
-1.3287e-05 -0.000157715 0.0986654 
2.88841e-05 -0.000116292 0.198716 
1.64494e-05 -0.000112346 0.198711 
-3.5487e-05 -0.000137721 0.0986921 
-1.97879e-05 -0.000140651 0.0987051 
4.15961e-05 -0.000140705 0.0986683 
2.84947e-05 -0.000141786 0.0986892 
2.90976e-05 -0.000143215 0.0986845 
5.65505e-06 -0.000131786 0.149519 
-6.60538e-07 -9.60737e-05 0.198679 
4.98482e-06 -0.000125047 0.156442 
1.58635e-05 -0.000154156 0.0986802 
5.7001e-06 -0.000128265 0.150752 
1.56859e-05 -0.000145437 0.0986993 
1.51333e-05 -0.000147592 0.0986913 
2.12208e-05 -0.000145121 0.0986883 
5.51477e-06 -0.000131311 0.149008 
1.29342e-05 -0.000130464 0.0987272 
7.17475e-06 -0.000125914 0.0987388 
9.78998e-06 -0.000135056 0.098732 
-1.52734e-05 -0.000146462 0.198747 
-2.16307e-05 -0.000144661 0.0986907 
2.06858e-05 -9.60047e-05 0.19869 
-2.86808e-05 -0.000150788 0.0986701 
-9.20092e-06 -0.000147097 0.098688 
-1.52734e-05 -0.000146462 0.198747 
7.17475e-06 -0.000125914 0.0987388 
9.78998e-06 -0.000135056 0.098732 
-3.61778e-08 -0.000145691 0.198755 
-2.3949e-05 -0.000132971 0.0987162 
2.71819e-05 -0.000126702 0.198733 
-4.54848e-05 -0.00012794 0.0987006 
-3.02799e-05 -0.000135485 0.0987059 
4.0577e-05 -0.000148248 0.0986525 
2.50191e-05 -0.000151151 0.0986616 
3.49636e-05 -0.000156752 0.0986336 
-8.64569e-06 -9.96195e-05 0.198677 
1.58635e-05 -0.000154156 0.0986802 
1.61102e-05 -0.000160731 0.0986629 
-6.60538e-07 -9.60737e-05 0.198679 
5.7001e-06 -0.000128265 0.150752 
4.17963e-06 -0.000134045 0.0987388 
-3.40318e-06 -0.000125188 0.098744 
-5.55276e-07 -0.000136947 0.0987369 
2.68461e-06 -0.000136444 0.156859 
-1.97879e-05 -0.000140651 0.0987051 
-7.26374e-06 -0.000142568 0.0987131 
-1.52417e-05 -0.000139456 0.0987176 
2.7285e-06 -0.000128764 0.154597 
1.72939e-05 -0.000176191 0.098641 
2.06478e-05 -0.000232154 0.0986109 
2.49659e-05 -0.000199876 0.0986139 
-1.38298e-06 -6.51131e-05 0.198646 
1.23638e-05 -8.42638e-05 0.198676 
-1.07643e-05 -0.000166677 0.0986426 
1.0826e-06 -0.000165882 0.0986512 
-4.99163e-06 -0.000189575 0.0986234 
-1.07643e-05 -0.000166677 0.0986426 
-3.2455e-05 -0.000162827 0.0986497 
3.12223e-05 -6.35297e-05 0.198652 
-1.3287e-05 -0.000157715 0.0986654 
3.95555e-06 -0.000143564 0.0987253 
9.49126e-06 -0.000144124 0.0987197 
8.28895e-06 -0.000143238 0.0987259 
4.28576e-06 -0.000134371 0.150125 
1.58635e-05 -0.000154156 0.0986802 
2.0664e-05 -0.000148267 0.0986791 
1.51333e-05 -0.000147592 0.0986913 
4.98482e-06 -0.000125047 0.156442 
6.23988e-05 -0.000133868 0.0986476 
4.15961e-05 -0.000140705 0.0986683 
6.08174e-05 -0.000140316 0.0986379 
-2.62373e-05 -0.000103121 0.198663 
-3.47517e-06 -0.000146964 0.0986993 
-1.35697e-06 -0.000148799 0.0986918 
2.28184e-06 -0.000146766 0.0987 
4.15397e-06 -0.000128299 0.15489 
6.08174e-05 -0.000140316 0.0986379 
9.49835e-05 -0.000132818 0.0986134 
6.23988e-05 -0.000133868 0.0986476 
-5.17878e-05 -0.000102674 0.198632 
1.99599e-05 -0.000142453 0.0987033 
1.69994e-05 -0.000142342 0.0987116 
1.45742e-05 -0.000143765 0.0987128 
5.91828e-06 -0.000135001 0.144545 
9.78998e-06 -0.000135056 0.098732 
1.6006e-05 -0.000135598 0.0987214 
-9.21463e-06 -0.000134663 0.198732 
2.59372e-06 -0.000136768 0.156021 
3.49636e-05 -0.000156752 0.0986336 
2.35597e-05 -0.000161767 0.0986395 
3.40307e-05 -0.000174673 0.0986113 
-8.94597e-06 -8.41958e-05 0.19865 
-1.52734e-05 -0.000146462 0.198747 
1.6006e-05 -0.000135598 0.0987214 
2.18868e-05 -0.000128332 0.0987097 
-2.72069e-05 -0.000138529 0.198721 
-3.61778e-08 -0.000145691 0.198755 
4.17963e-06 -0.000134045 0.0987388 
-3.40318e-06 -0.000125188 0.098744 
4.14139e-07 -0.000116796 0.0987471 
9.49835e-05 -0.000132818 0.0986134 
0.000116719 -0.000139122 0.0985767 
0.000151871 -0.000126869 0.0985826 
-8.75286e-05 -8.62582e-05 0.198575 
6.24499e-06 -0.00014552 0.0987067 
1.10645e-05 -0.000146442 0.0987008 
9.54234e-06 -0.000145571 0.0987084 
4.15397e-06 -0.000128299 0.15489 
-1.97879e-05 -0.000140651 0.0987051 
-3.5487e-05 -0.000137721 0.0986921 
2.88841e-05 -0.000116292 0.198716 
-3.02799e-05 -0.000135485 0.0987059 
-1.52734e-05 -0.000146462 0.198747 
9.78998e-06 -0.000135056 0.098732 
1.6006e-05 -0.000135598 0.0987214 
-9.21463e-06 -0.000134663 0.198732 
1.56304e-05 -0.000123738 0.198731 
2.71819e-05 -0.000126702 0.198733 
-1.52417e-05 -0.000139456 0.0987176 
-3.02799e-05 -0.000135485 0.0987059 
3.69664e-05 -0.000241054 0.0985792 
3.40307e-05 -0.000174673 0.0986113 
2.49659e-05 -0.000199876 0.0986139 
-2.09937e-05 -5.64184e-05 0.19861 
1.56859e-05 -0.000145437 0.0986993 
1.3111e-05 -0.000144837 0.0987066 
1.10645e-05 -0.000146442 0.0987008 
5.51477e-06 -0.000131311 0.149008 
1.70095e-05 -8.50517e-05 0.0987243 
8.29905e-06 -0.000109342 0.0987371 
1.94676e-05 -0.000115176 0.0987166 
-2.41524e-05 -0.00018041 0.198749 
9.50863e-06 -0.000107259 0.198699 
4.15397e-06 -0.000128299 0.15489 
-3.47517e-06 -0.000146964 0.0986993 
2.7285e-06 -0.000128764 0.154597 
1.58635e-05 -0.000154156 0.0986802 
4.98482e-06 -0.000125047 0.156442 
1.51333e-05 -0.000147592 0.0986913 
5.7001e-06 -0.000128265 0.150752 
1.3111e-05 -0.000144837 0.0987066 
1.7244e-05 -0.000144349 0.0987042 
1.45742e-05 -0.000143765 0.0987128 
5.51477e-06 -0.000131311 0.149008 
2.18868e-05 -0.000128332 0.0987097 
2.61773e-05 -0.0001358 0.0987025 
4.07179e-05 -0.00012503 0.0986871 
-2.72069e-05 -0.000138529 0.198721 
9.78998e-06 -0.000135056 0.098732 
1.22125e-05 -0.000140349 0.0987248 
1.6006e-05 -0.000135598 0.0987214 
2.59372e-06 -0.000136768 0.156021 
9.00141e-06 -0.000168589 0.0986608 
1.72939e-05 -0.000176191 0.098641 
-1.38298e-06 -6.51131e-05 0.198646 
9.86446e-06 -0.000192269 0.0986345 
0.000194829 -0.000107856 0.198325 
-0.00014315 -0.000102409 0.147889 
-0.00021618 -0.000118373 0.0986262 
-0.000263143 -0.000126712 0.0986073 
2.1596e-05 -0.000144465 0.0986954 
2.12208e-05 -0.000145121 0.0986883 
2.90976e-05 -0.000143215 0.0986845 
4.98482e-06 -0.000125047 0.156442 
5.76615e-05 -0.000108231 0.0986621 
-0.000109183 -0.000162325 0.198604 
8.22433e-05 -8.68109e-05 0.0986341 
6.78629e-05 -7.62124e-05 0.0986654 
-1.07643e-05 -0.000166677 0.0986426 
3.12223e-05 -6.35297e-05 0.198652 
1.23638e-05 -8.42638e-05 0.198676 
-1.3287e-05 -0.000157715 0.0986654 
-3.5487e-05 -0.000137721 0.0986921 
1.64494e-05 -0.000112346 0.198711 
3.08965e-05 -0.000102342 0.198696 
-2.16307e-05 -0.000144661 0.0986907 
-8.94597e-06 -8.41958e-05 0.19865 
3.49636e-05 -0.000156752 0.0986336 
2.35597e-05 -0.000161767 0.0986395 
-8.64569e-06 -9.96195e-05 0.198677 
1.61102e-05 -0.000160731 0.0986629 
1.72939e-05 -0.000176191 0.098641 
-8.94597e-06 -8.41958e-05 0.19865 
-6.60538e-07 -9.60737e-05 0.198679 
-6.68664e-05 -0.000116965 0.198631 
6.74801e-05 -0.000129824 0.0986545 
9.82497e-05 -0.000127142 0.0986226 
-3.19666e-05 -0.000116689 0.198677 
-1.52734e-05 -0.000146462 0.198747 
2.18868e-05 -0.000128332 0.0987097 
1.94676e-05 -0.000115176 0.0987166 
-2.72069e-05 -0.000138529 0.198721 
2.71819e-05 -0.000126702 0.198733 
2.88841e-05 -0.000116292 0.198716 
-4.54848e-05 -0.00012794 0.0987006 
-3.02799e-05 -0.000135485 0.0987059 
0.000116719 -0.000139122 0.0985767 
7.70838e-05 -0.000143042 0.0986031 
0.000126173 -0.000161717 0.0985607 
-8.75286e-05 -8.62582e-05 0.198575 
4.07179e-05 -0.00012503 0.0986871 
3.41961e-05 -0.000112834 0.0986923 
2.18868e-05 -0.000128332 0.0987097 
-2.72069e-05 -0.000138529 0.198721 
-6.60538e-07 -9.60737e-05 0.198679 
-8.64569e-06 -9.96195e-05 0.198677 
1.58635e-05 -0.000154156 0.0986802 
4.98482e-06 -0.000125047 0.156442 
-4.51911e-06 -0.000138143 0.0987322 
-1.22698e-05 -0.000127505 0.0987371 
-1.17395e-05 -0.000136227 0.0987276 
2.68461e-06 -0.000136444 0.156859 
9.49126e-06 -0.000144124 0.0987197 
7.10638e-06 -0.000144703 0.0987148 
1.07972e-05 -0.000144509 0.0987131 
3.64261e-06 -0.000130615 0.15648 
1.22125e-05 -0.000140349 0.0987248 
1.6006e-05 -0.000135598 0.0987214 
2.59372e-06 -0.000136768 0.156021 
5.91828e-06 -0.000135001 0.144545 
-2.23137e-05 -8.31625e-05 0.19864 
4.0577e-05 -0.000148248 0.0986525 
3.49636e-05 -0.000156752 0.0986336 
-8.64569e-06 -9.96195e-05 0.198677 
2.90976e-05 -0.000143215 0.0986845 
2.22208e-05 -0.000143257 0.098697 
2.1596e-05 -0.000144465 0.0986954 
5.65505e-06 -0.000131786 0.149519 
-1.97879e-05 -0.000140651 0.0987051 
-1.52417e-05 -0.000139456 0.0987176 
1.56304e-05 -0.000123738 0.198731 
2.7285e-06 -0.000128764 0.154597 
4.0577e-05 -0.000148248 0.0986525 
-2.62373e-05 -0.000103121 0.198663 
4.15961e-05 -0.000140705 0.0986683 
4.98482e-06 -0.000125047 0.156442 
-3.46312e-07 -0.000145087 0.0987096 
3.53522e-06 -0.000144725 0.0987148 
-5.77733e-07 -0.000143366 0.0987195 
2.7285e-06 -0.000128764 0.154597 
-7.22207e-06 -0.000141663 0.0987201 
-7.26374e-06 -0.000142568 0.0987131 
-5.77733e-07 -0.000143366 0.0987195 
2.7285e-06 -0.000128764 0.154597 
4.15961e-05 -0.000140705 0.0986683 
2.90976e-05 -0.000143215 0.0986845 
-1.3317e-05 -0.000116052 0.198695 
5.65505e-06 -0.000131786 0.149519 
-9.38596e-05 -0.000128843 0.198631 
9.38859e-05 -0.000104781 0.0986199 
5.76615e-05 -0.000108231 0.0986621 
8.22433e-05 -8.68109e-05 0.0986341 
4.15961e-05 -0.000140705 0.0986683 
2.90976e-05 -0.000143215 0.0986845 
2.88882e-05 -0.000145317 0.0986738 
4.98482e-06 -0.000125047 0.156442 
2.71819e-05 -0.000126702 0.198733 
1.56304e-05 -0.000123738 0.198731 
-1.52417e-05 -0.000139456 0.0987176 
-1.17395e-05 -0.000136227 0.0987276 
-7.22207e-06 -0.000141663 0.0987201 
1.56304e-05 -0.000123738 0.198731 
-1.52417e-05 -0.000139456 0.0987176 
2.7285e-06 -0.000128764 0.154597 
5.76615e-05 -0.000108231 0.0986621 
4.07179e-05 -0.00012503 0.0986871 
6.32439e-05 -0.000124317 0.0986584 
-4.8482e-05 -0.000130928 0.198686 
6.18452e-05 -0.000119274 0.198698 
-4.51503e-05 -0.000118954 0.0987137 
2.71819e-05 -0.000126702 0.198733 
-4.54848e-05 -0.00012794 0.0987006 
-1.08845e-06 -0.000153903 0.0986772 
1.23638e-05 -8.42638e-05 0.198676 
2.06858e-05 -9.60047e-05 0.19869 
-1.3287e-05 -0.000157715 0.0986654 
-1.3317e-05 -0.000116052 0.198695 
4.15961e-05 -0.000140705 0.0986683 
5.65505e-06 -0.000131786 0.149519 
5.09189e-06 -0.000130254 0.149913 
9.54234e-06 -0.000145571 0.0987084 
7.10638e-06 -0.000144703 0.0987148 
6.24499e-06 -0.00014552 0.0987067 
3.64261e-06 -0.000130615 0.15648 
-0.00014315 -0.000102409 0.147889 
0.000194829 -0.000107856 0.198325 
0.00015314 -9.35615e-05 0.198547 
-0.000263143 -0.000126712 0.0986073 
-0.000109183 -0.000162325 0.198604 
-9.38596e-05 -0.000128843 0.198631 
5.76615e-05 -0.000108231 0.0986621 
8.22433e-05 -8.68109e-05 0.0986341 
1.51222e-05 -0.000153363 0.198763 
-1.22698e-05 -0.000127505 0.0987371 
-3.40318e-06 -0.000125188 0.098744 
2.68461e-06 -0.000136444 0.156859 
3.95555e-06 -0.000143564 0.0987253 
8.28895e-06 -0.000143238 0.0987259 
2.24402e-06 -0.000142345 0.0987313 
2.59372e-06 -0.000136768 0.156021 
-2.3949e-05 -0.000132971 0.0987162 
-2.02953e-05 -0.000129453 0.0987285 
2.71819e-05 -0.000126702 0.198733 
-1.17395e-05 -0.000136227 0.0987276 
2.88841e-05 -0.000116292 0.198716 
-1.97879e-05 -0.000140651 0.0987051 
1.56304e-05 -0.000123738 0.198731 
2.7285e-06 -0.000128764 0.154597 
0.000151871 -0.000126869 0.0985826 
0.000116719 -0.000139122 0.0985767 
0.000203037 -0.000149054 0.098534 
-8.75286e-05 -8.62582e-05 0.198575 
9.35615e-06 -0.000155277 0.0986781 
-1.08845e-06 -0.000153903 0.0986772 
9.00141e-06 -0.000168589 0.0986608 
5.7001e-06 -0.000128265 0.150752 
-5.99953e-05 -0.000136715 0.0986759 
2.88841e-05 -0.000116292 0.198716 
3.08965e-05 -0.000102342 0.198696 
-3.5487e-05 -0.000137721 0.0986921 
4.15961e-05 -0.000140705 0.0986683 
-1.3317e-05 -0.000116052 0.198695 
2.90976e-05 -0.000143215 0.0986845 
4.98482e-06 -0.000125047 0.156442 
-6.68664e-05 -0.000116965 0.198631 
9.82497e-05 -0.000127142 0.0986226 
6.74801e-05 -0.000129824 0.0986545 
9.56593e-05 -0.000121409 0.098626 
-0.000225631 -0.000103818 0.198345 
-0.000271588 -9.45404e-05 0.198265 
0.000261222 -0.000110621 0.098529 
0.000169954 -8.70703e-05 0.147759 
3.82481e-05 -8.60176e-05 0.098698 
3.41961e-05 -0.000112834 0.0986923 
6.78629e-05 -7.62124e-05 0.0986654 
-6.07481e-05 -0.000148206 0.198686 
7.10638e-06 -0.000144703 0.0987148 
5.22721e-06 -0.000144263 0.0987198 
3.53522e-06 -0.000144725 0.0987148 
3.42555e-06 -0.000133458 0.153642 
4.17963e-06 -0.000134045 0.0987388 
6.42127e-06 -0.000140011 0.0987325 
9.78998e-06 -0.000135056 0.098732 
2.59372e-06 -0.000136768 0.156021 
-2.16307e-05 -0.000144661 0.0986907 
-2.86808e-05 -0.000150788 0.0986701 
3.08965e-05 -0.000102342 0.198696 
-4.12602e-05 -0.000142929 0.0986749 
-2.72069e-05 -0.000138529 0.198721 
-9.21463e-06 -0.000134663 0.198732 
1.6006e-05 -0.000135598 0.0987214 
5.91828e-06 -0.000135001 0.144545 
9.50863e-06 -0.000107259 0.198699 
-1.08845e-06 -0.000153903 0.0986772 
-1.35697e-06 -0.000148799 0.0986918 
5.7001e-06 -0.000128265 0.150752 
-3.40318e-06 -0.000125188 0.098744 
-5.3681e-06 -9.10017e-05 0.0987516 
1.51222e-05 -0.000153363 0.198763 
4.14139e-07 -0.000116796 0.0987471 
-2.62373e-05 -0.000103121 0.198663 
6.23988e-05 -0.000133868 0.0986476 
4.15961e-05 -0.000140705 0.0986683 
-3.19666e-05 -0.000116689 0.198677 
3.08965e-05 -0.000102342 0.198696 
-3.5487e-05 -0.000137721 0.0986921 
-2.16307e-05 -0.000144661 0.0986907 
-4.12602e-05 -0.000142929 0.0986749 
4.74991e-06 -0.000232419 0.0986012 
-1.38298e-06 -6.51131e-05 0.198646 
2.06478e-05 -0.000232154 0.0986109 
9.86446e-06 -0.000192269 0.0986345 
-2.16307e-05 -0.000144661 0.0986907 
1.64494e-05 -0.000112346 0.198711 
-9.20092e-06 -0.000147097 0.098688 
2.7285e-06 -0.000128764 0.154597 
9.49835e-05 -0.000132818 0.0986134 
9.82497e-05 -0.000127142 0.0986226 
6.23988e-05 -0.000133868 0.0986476 
-5.17878e-05 -0.000102674 0.198632 
-1.52734e-05 -0.000146462 0.198747 
-3.61778e-08 -0.000145691 0.198755 
9.78998e-06 -0.000135056 0.098732 
2.59372e-06 -0.000136768 0.156021 
-9.20092e-06 -0.000147097 0.098688 
9.50863e-06 -0.000107259 0.198699 
2.06858e-05 -9.60047e-05 0.19869 
-1.08845e-06 -0.000153903 0.0986772 
-9.38596e-05 -0.000128843 0.198631 
0.000134709 -0.000110226 0.098578 
-0.000129786 -0.000112964 0.198543 
9.56593e-05 -0.000121409 0.098626 
5.24145e-05 -0.000173747 0.0986015 
3.49636e-05 -0.000156752 0.0986336 
3.40307e-05 -0.000174673 0.0986113 
-2.23137e-05 -8.31625e-05 0.19864 
-5.99953e-05 -0.000136715 0.0986759 
7.16056e-05 -0.000106218 0.198668 
2.88841e-05 -0.000116292 0.198716 
-6.81769e-05 -0.000130198 0.0986878 
7.70838e-05 -0.000143042 0.0986031 
6.08174e-05 -0.000140316 0.0986379 
-2.62373e-05 -0.000103121 0.198663 
-5.17878e-05 -0.000102674 0.198632 
6.74801e-05 -0.000129824 0.0986545 
6.32439e-05 -0.000124317 0.0986584 
3.99923e-05 -0.000133451 0.0986804 
5.09189e-06 -0.000130254 0.149913 
2.35597e-05 -0.000161767 0.0986395 
1.72939e-05 -0.000176191 0.098641 
2.49659e-05 -0.000199876 0.0986139 
-8.94597e-06 -8.41958e-05 0.19865 
1.64494e-05 -0.000112346 0.198711 
-2.16307e-05 -0.000144661 0.0986907 
-1.97879e-05 -0.000140651 0.0987051 
2.7285e-06 -0.000128764 0.154597 
2.88841e-05 -0.000116292 0.198716 
-3.5487e-05 -0.000137721 0.0986921 
-6.81769e-05 -0.000130198 0.0986878 
-3.02799e-05 -0.000135485 0.0987059 
-7.5038e-05 -9.11398e-05 0.0987054 
-9.37577e-05 -7.09436e-05 0.0987112 
7.72807e-05 -0.000175176 0.198705 
-4.25467e-05 -0.000106974 0.0987268 
1.10645e-05 -0.000146442 0.0987008 
4.15397e-06 -0.000128299 0.15489 
-1.14925e-06 -0.000113867 0.198702 
5.51477e-06 -0.000131311 0.149008 
-4.54848e-05 -0.00012794 0.0987006 
-4.51503e-05 -0.000118954 0.0987137 
2.71819e-05 -0.000126702 0.198733 
-2.3949e-05 -0.000132971 0.0987162 
3.53522e-06 -0.000144725 0.0987148 
-3.46312e-07 -0.000145087 0.0987096 
6.24499e-06 -0.00014552 0.0987067 
4.15397e-06 -0.000128299 0.15489 
-1.38298e-06 -6.51131e-05 0.198646 
1.23638e-05 -8.42638e-05 0.198676 
9.00141e-06 -0.000168589 0.0986608 
9.86446e-06 -0.000192269 0.0986345 
7.76625e-05 -0.00016456 0.0985853 
5.24145e-05 -0.000173747 0.0986015 
-4.77656e-05 -4.70591e-05 0.198566 
-2.23137e-05 -8.31625e-05 0.19864 
-8.99073e-07 7.381e-05 0.19836 
2.78402e-05 -0.000275851 0.098578 
1.46834e-05 -0.000284854 0.0985782 
-9.61398e-06 -1.64495e-06 0.198543 
1.51333e-05 -0.000147592 0.0986913 
1.09603e-05 -0.000149052 0.0986906 
1.58635e-05 -0.000154156 0.0986802 
5.7001e-06 -0.000128265 0.150752 
6.32439e-05 -0.000124317 0.0986584 
9.56593e-05 -0.000121409 0.098626 
-9.38596e-05 -0.000128843 0.198631 
-4.8482e-05 -0.000130928 0.198686 
-9.21463e-06 -0.000134663 0.198732 
-1.52734e-05 -0.000146462 0.198747 
9.78998e-06 -0.000135056 0.098732 
2.59372e-06 -0.000136768 0.156021 
-2.16307e-05 -0.000144661 0.0986907 
1.64494e-05 -0.000112346 0.198711 
2.06858e-05 -9.60047e-05 0.19869 
-9.20092e-06 -0.000147097 0.098688 
4.0577e-05 -0.000148248 0.0986525 
2.88882e-05 -0.000145317 0.0986738 
2.50191e-05 -0.000151151 0.0986616 
4.98482e-06 -0.000125047 0.156442 
6.08174e-05 -0.000140316 0.0986379 
4.0577e-05 -0.000148248 0.0986525 
5.62725e-05 -0.000152373 0.0986219 
-2.62373e-05 -0.000103121 0.198663 
5.76615e-05 -0.000108231 0.0986621 
9.38859e-05 -0.000104781 0.0986199 
-9.38596e-05 -0.000128843 0.198631 
6.32439e-05 -0.000124317 0.0986584 
0.000134709 -0.000110226 0.098578 
0.000154201 -0.000116364 0.0985857 
-0.000129786 -0.000112964 0.198543 
9.56593e-05 -0.000121409 0.098626 
1.64494e-05 -0.000112346 0.198711 
-1.97879e-05 -0.000140651 0.0987051 
2.88841e-05 -0.000116292 0.198716 
2.7285e-06 -0.000128764 0.154597 
9.38859e-05 -0.000104781 0.0986199 
0.000134709 -0.000110226 0.098578 
-9.38596e-05 -0.000128843 0.198631 
9.56593e-05 -0.000121409 0.098626 
9.82497e-05 -0.000127142 0.0986226 
6.23988e-05 -0.000133868 0.0986476 
-5.17878e-05 -0.000102674 0.198632 
-3.19666e-05 -0.000116689 0.198677 
9.00141e-06 -0.000168589 0.0986608 
1.23638e-05 -8.42638e-05 0.198676 
-6.60538e-07 -9.60737e-05 0.198679 
5.7001e-06 -0.000128265 0.150752 
-6.38574e-05 -0.000184374 0.0986254 
0.000115545 -2.46522e-05 0.198449 
-9.44893e-05 -0.000170583 0.0986275 
-0.000123353 -0.000204751 0.0985958 
4.17963e-06 -0.000134045 0.0987388 
9.78998e-06 -0.000135056 0.098732 
-3.61778e-08 -0.000145691 0.198755 
2.59372e-06 -0.000136768 0.156021 
-0.000115557 -7.78762e-05 0.0986784 
-9.37577e-05 -7.09436e-05 0.0987112 
0.000151874 -0.000160644 0.198496 
-7.5038e-05 -9.11398e-05 0.0987054 
1.56304e-05 -0.000123738 0.198731 
3.42555e-06 -0.000133458 0.153642 
-4.81241e-06 -0.00014148 0.0987264 
2.68461e-06 -0.000136444 0.156859 
9.56593e-05 -0.000121409 0.098626 
-9.38596e-05 -0.000128843 0.198631 
9.38859e-05 -0.000104781 0.0986199 
6.32439e-05 -0.000124317 0.0986584 
2.78402e-05 -0.000275851 0.098578 
4.20888e-05 -0.000288366 0.0985388 
-2.15634e-05 5.68939e-05 0.19835 
-8.99073e-07 7.381e-05 0.19836 
-1.35697e-06 -0.000148799 0.0986918 
4.79245e-06 -0.000148983 0.0986899 
2.28184e-06 -0.000146766 0.0987 
4.15397e-06 -0.000128299 0.15489 
-1.17395e-05 -0.000136227 0.0987276 
-2.02953e-05 -0.000129453 0.0987285 
1.74413e-05 -0.000135021 0.198746 
-1.22698e-05 -0.000127505 0.0987371 
6.24499e-06 -0.00014552 0.0987067 
7.10638e-06 -0.000144703 0.0987148 
3.53522e-06 -0.000144725 0.0987148 
3.64261e-06 -0.000130615 0.15648 
1.01766e-05 3.04368e-05 0.0987567 
5.21066e-06 -0.000302459 0.198617 
-2.04354e-06 -1.19561e-05 0.148073 
-3.14663e-06 3.87181e-05 0.0987687 
-9.61398e-06 -1.64495e-06 0.198543 
2.06478e-05 -0.000232154 0.0986109 
1.46834e-05 -0.000284854 0.0985782 
3.55265e-06 6.5238e-07 0.198553 
5.65055e-05 -0.00020177 0.0985809 
5.24145e-05 -0.000173747 0.0986015 
3.40307e-05 -0.000174673 0.0986113 
-2.09937e-05 -5.64184e-05 0.19861 
2.78402e-05 -0.000275851 0.098578 
1.46834e-05 -0.000284854 0.0985782 
1.5664e-05 -0.00034645 0.0985479 
-8.99073e-07 7.381e-05 0.19836 
-1.38298e-06 -6.51131e-05 0.198646 
-6.60538e-07 -9.60737e-05 0.198679 
1.72939e-05 -0.000176191 0.098641 
9.00141e-06 -0.000168589 0.0986608 
9.49126e-06 -0.000144124 0.0987197 
3.95555e-06 -0.000143564 0.0987253 
5.22721e-06 -0.000144263 0.0987198 
3.42555e-06 -0.000133458 0.153642 
6.32439e-05 -0.000124317 0.0986584 
-9.38596e-05 -0.000128843 0.198631 
5.76615e-05 -0.000108231 0.0986621 
-4.8482e-05 -0.000130928 0.198686 
-9.37577e-05 -7.09436e-05 0.0987112 
0.000131267 -0.000183147 0.198631 
0.000151874 -0.000160644 0.198496 
-7.5038e-05 -9.11398e-05 0.0987054 
1.6006e-05 -0.000135598 0.0987214 
1.22125e-05 -0.000140349 0.0987248 
1.76637e-05 -0.000140062 0.0987148 
5.91828e-06 -0.000135001 0.144545 
-3.46312e-07 -0.000145087 0.0987096 
-3.47517e-06 -0.000146964 0.0986993 
2.28184e-06 -0.000146766 0.0987 
4.15397e-06 -0.000128299 0.15489 
-2.04563e-05 -0.000106953 0.0987433 
1.51222e-05 -0.000153363 0.198763 
3.95773e-05 -0.000147386 0.198744 
-1.22698e-05 -0.000127505 0.0987371 
-8.64569e-06 -9.96195e-05 0.198677 
1.61102e-05 -0.000160731 0.0986629 
-8.94597e-06 -8.41958e-05 0.19865 
-6.60538e-07 -9.60737e-05 0.198679 
-3.5487e-05 -0.000137721 0.0986921 
3.08965e-05 -0.000102342 0.198696 
-5.99953e-05 -0.000136715 0.0986759 
-4.12602e-05 -0.000142929 0.0986749 
-4.8482e-05 -0.000130928 0.198686 
-2.72069e-05 -0.000138529 0.198721 
4.07179e-05 -0.00012503 0.0986871 
5.09189e-06 -0.000130254 0.149913 
5.62725e-05 -0.000152373 0.0986219 
7.70838e-05 -0.000143042 0.0986031 
-2.62373e-05 -0.000103121 0.198663 
-4.98937e-05 -7.73269e-05 0.198603 
4.20888e-05 -0.000288366 0.0985388 
2.78402e-05 -0.000275851 0.098578 
1.5664e-05 -0.00034645 0.0985479 
-8.99073e-07 7.381e-05 0.19836 
-1.22698e-05 -0.000127505 0.0987371 
-2.04563e-05 -0.000106953 0.0987433 
1.51222e-05 -0.000153363 0.198763 
-3.40318e-06 -0.000125188 0.098744 
1.45742e-05 -0.000143765 0.0987128 
5.51477e-06 -0.000131311 0.149008 
1.7244e-05 -0.000144349 0.0987042 
5.65505e-06 -0.000131786 0.149519 
9.05187e-05 -4.35611e-05 0.0986288 
-0.000109183 -0.000162325 0.198604 
-0.000131416 -0.000183572 0.198468 
6.78629e-05 -7.62124e-05 0.0986654 
1.29342e-05 -0.000130464 0.0987272 
1.94676e-05 -0.000115176 0.0987166 
8.29905e-06 -0.000109342 0.0987371 
-1.52734e-05 -0.000146462 0.198747 
1.06806e-05 0.000100076 0.198327 
1.46834e-05 -0.000284854 0.0985782 
-8.99073e-07 7.381e-05 0.19836 
-2.40418e-06 -0.000316898 0.0985423 
3.41961e-05 -0.000112834 0.0986923 
4.07179e-05 -0.00012503 0.0986871 
5.76615e-05 -0.000108231 0.0986621 
-6.07481e-05 -0.000148206 0.198686 
3.08965e-05 -0.000102342 0.198696 
-5.27775e-05 -0.000154192 0.0986567 
-9.2961e-05 -0.000141415 0.0986549 
-4.12602e-05 -0.000142929 0.0986749 
-2.23137e-05 -8.31625e-05 0.19864 
5.62725e-05 -0.000152373 0.0986219 
4.0577e-05 -0.000148248 0.0986525 
-2.62373e-05 -0.000103121 0.198663 
9.38859e-05 -0.000104781 0.0986199 
0.000134709 -0.000110226 0.098578 
0.000167915 -8.46023e-05 0.0985589 
-9.38596e-05 -0.000128843 0.198631 
-1.35697e-06 -0.000148799 0.0986918 
-1.08845e-06 -0.000153903 0.0986772 
4.79245e-06 -0.000148983 0.0986899 
5.7001e-06 -0.000128265 0.150752 
-5.17878e-05 -0.000102674 0.198632 
7.70838e-05 -0.000143042 0.0986031 
9.49835e-05 -0.000132818 0.0986134 
-8.75286e-05 -8.62582e-05 0.198575 
-8.94597e-06 -8.41958e-05 0.19865 
1.72939e-05 -0.000176191 0.098641 
2.49659e-05 -0.000199876 0.0986139 
-1.38298e-06 -6.51131e-05 0.198646 
-2.02953e-05 -0.000129453 0.0987285 
-2.04563e-05 -0.000106953 0.0987433 
3.95773e-05 -0.000147386 0.198744 
-1.22698e-05 -0.000127505 0.0987371 
8.29905e-06 -0.000109342 0.0987371 
7.17475e-06 -0.000125914 0.0987388 
-1.52734e-05 -0.000146462 0.198747 
-6.76343e-07 -0.000174658 0.198765 
1.23638e-05 -8.42638e-05 0.198676 
1.52826e-05 -4.57119e-05 0.198619 
-4.99163e-06 -0.000189575 0.0986234 
9.86446e-06 -0.000192269 0.0986345 
4.15961e-05 -0.000140705 0.0986683 
4.0577e-05 -0.000148248 0.0986525 
6.08174e-05 -0.000140316 0.0986379 
-2.62373e-05 -0.000103121 0.198663 
2.61773e-05 -0.0001358 0.0987025 
-1.53298e-05 -0.000127862 0.198709 
-2.72069e-05 -0.000138529 0.198721 
5.91828e-06 -0.000135001 0.144545 
9.54234e-06 -0.000145571 0.0987084 
3.64261e-06 -0.000130615 0.15648 
1.10645e-05 -0.000146442 0.0987008 
5.51477e-06 -0.000131311 0.149008 
-9.2961e-05 -0.000141415 0.0986549 
-5.99953e-05 -0.000136715 0.0986759 
3.08965e-05 -0.000102342 0.198696 
-4.12602e-05 -0.000142929 0.0986749 
-2.72069e-05 -0.000138529 0.198721 
-1.53298e-05 -0.000127862 0.198709 
2.61773e-05 -0.0001358 0.0987025 
5.09189e-06 -0.000130254 0.149913 
8.22433e-05 -8.68109e-05 0.0986341 
-0.000141043 -0.000141237 0.19856 
9.38859e-05 -0.000104781 0.0986199 
0.000123985 -5.89767e-05 0.0985898 
1.61102e-05 -0.000160731 0.0986629 
9.00141e-06 -0.000168589 0.0986608 
-6.60538e-07 -9.60737e-05 0.198679 
5.7001e-06 -0.000128265 0.150752 
2.78402e-05 -0.000275851 0.098578 
2.49659e-05 -0.000199876 0.0986139 
2.06478e-05 -0.000232154 0.0986109 
-9.61398e-06 -1.64495e-06 0.198543 
1.10645e-05 -0.000146442 0.0987008 
3.64261e-06 -0.000130615 0.15648 
4.15397e-06 -0.000128299 0.15489 
5.51477e-06 -0.000131311 0.149008 
-2.23137e-05 -8.31625e-05 0.19864 
3.49636e-05 -0.000156752 0.0986336 
3.40307e-05 -0.000174673 0.0986113 
-8.94597e-06 -8.41958e-05 0.19865 
4.0577e-05 -0.000148248 0.0986525 
2.50191e-05 -0.000151151 0.0986616 
-8.64569e-06 -9.96195e-05 0.198677 
4.98482e-06 -0.000125047 0.156442 
-1.3317e-05 -0.000116052 0.198695 
-3.19666e-05 -0.000116689 0.198677 
4.15961e-05 -0.000140705 0.0986683 
5.09189e-06 -0.000130254 0.149913 
-2.02953e-05 -0.000129453 0.0987285 
1.74413e-05 -0.000135021 0.198746 
2.71819e-05 -0.000126702 0.198733 
-1.17395e-05 -0.000136227 0.0987276 
1.29342e-05 -0.000130464 0.0987272 
8.29905e-06 -0.000109342 0.0987371 
7.17475e-06 -0.000125914 0.0987388 
-1.52734e-05 -0.000146462 0.198747 
5.62725e-05 -0.000152373 0.0986219 
3.49636e-05 -0.000156752 0.0986336 
5.24145e-05 -0.000173747 0.0986015 
-2.23137e-05 -8.31625e-05 0.19864 
1.6006e-05 -0.000135598 0.0987214 
1.76637e-05 -0.000140062 0.0987148 
2.61773e-05 -0.0001358 0.0987025 
5.91828e-06 -0.000135001 0.144545 
-5.89576e-05 -0.000270146 0.0985699 
-5.02644e-05 -0.000174951 0.148047 
7.49347e-05 4.96516e-05 0.198308 
-9.62771e-05 -0.000260633 0.0985874 
-3.46312e-07 -0.000145087 0.0987096 
4.15397e-06 -0.000128299 0.15489 
3.53522e-06 -0.000144725 0.0987148 
2.7285e-06 -0.000128764 0.154597 
8.29905e-06 -0.000109342 0.0987371 
7.17475e-06 -0.000125914 0.0987388 
-6.76343e-07 -0.000174658 0.198765 
4.14139e-07 -0.000116796 0.0987471 
-2.09937e-05 -5.64184e-05 0.19861 
3.40307e-05 -0.000174673 0.0986113 
2.49659e-05 -0.000199876 0.0986139 
-8.94597e-06 -8.41958e-05 0.19865 
3.53522e-06 -0.000144725 0.0987148 
4.15397e-06 -0.000128299 0.15489 
3.64261e-06 -0.000130615 0.15648 
3.42555e-06 -0.000133458 0.153642 
1.52826e-05 -4.57119e-05 0.198619 
4.74991e-06 -0.000232419 0.0986012 
-4.99163e-06 -0.000189575 0.0986234 
9.86446e-06 -0.000192269 0.0986345 
1.64494e-05 -0.000112346 0.198711 
9.50863e-06 -0.000107259 0.198699 
-9.20092e-06 -0.000147097 0.098688 
2.7285e-06 -0.000128764 0.154597 
3.40307e-05 -0.000174673 0.0986113 
2.35597e-05 -0.000161767 0.0986395 
2.49659e-05 -0.000199876 0.0986139 
-8.94597e-06 -8.41958e-05 0.19865 
1.23638e-05 -8.42638e-05 0.198676 
-1.08845e-06 -0.000153903 0.0986772 
9.50863e-06 -0.000107259 0.198699 
5.7001e-06 -0.000128265 0.150752 
5.65055e-05 -0.00020177 0.0985809 
3.40307e-05 -0.000174673 0.0986113 
3.69664e-05 -0.000241054 0.0985792 
-2.09937e-05 -5.64184e-05 0.19861 
6.18452e-05 -0.000119274 0.198698 
7.77405e-05 -0.0001447 0.19869 
-4.51503e-05 -0.000118954 0.0987137 
-8.53275e-05 -0.000100946 0.0986885 
1.45742e-05 -0.000143765 0.0987128 
1.07972e-05 -0.000144509 0.0987131 
5.51477e-06 -0.000131311 0.149008 
4.28576e-06 -0.000134371 0.150125 
-1.22698e-05 -0.000127505 0.0987371 
-5.55276e-07 -0.000136947 0.0987369 
-3.40318e-06 -0.000125188 0.098744 
2.68461e-06 -0.000136444 0.156859 
-9.61398e-06 -1.64495e-06 0.198543 
2.49659e-05 -0.000199876 0.0986139 
2.06478e-05 -0.000232154 0.0986109 
-1.38298e-06 -6.51131e-05 0.198646 
-1.14925e-06 -0.000113867 0.198702 
4.15397e-06 -0.000128299 0.15489 
1.10645e-05 -0.000146442 0.0987008 
5.7001e-06 -0.000128265 0.150752 
7.76625e-05 -0.00016456 0.0985853 
5.62725e-05 -0.000152373 0.0986219 
-2.23137e-05 -8.31625e-05 0.19864 
-4.98937e-05 -7.73269e-05 0.198603 
1.46834e-05 -0.000284854 0.0985782 
1.5664e-05 -0.00034645 0.0985479 
-8.99073e-07 7.381e-05 0.19836 
-2.40418e-06 -0.000316898 0.0985423 
-8.1556e-05 -7.73372e-05 0.148064 
-0.000141189 -9.49616e-05 0.14809 
-0.00016144 -0.000100696 0.0986497 
0.000194829 -0.000107856 0.198325 
3.95773e-05 -0.000147386 0.198744 
-4.51503e-05 -0.000118954 0.0987137 
-4.25467e-05 -0.000106974 0.0987268 
-2.02953e-05 -0.000129453 0.0987285 
3.55265e-06 6.5238e-07 0.198553 
2.06478e-05 -0.000232154 0.0986109 
1.46834e-05 -0.000284854 0.0985782 
4.74991e-06 -0.000232419 0.0986012 
0.00015314 -9.35615e-05 0.198547 
0.000185747 -6.64946e-05 0.198351 
-0.000153408 -0.000111882 0.147992 
-0.000263143 -0.000126712 0.0986073 
4.20888e-05 -0.000288366 0.0985388 
3.93023e-05 -0.000236793 0.1481 
5.42862e-05 -0.000191439 0.148096 
-2.15634e-05 5.68939e-05 0.19835 
-2.62373e-05 -0.000103121 0.198663 
6.08174e-05 -0.000140316 0.0986379 
6.23988e-05 -0.000133868 0.0986476 
-5.17878e-05 -0.000102674 0.198632 
9.38859e-05 -0.000104781 0.0986199 
-9.38596e-05 -0.000128843 0.198631 
-0.000141043 -0.000141237 0.19856 
8.22433e-05 -8.68109e-05 0.0986341 
2.71819e-05 -0.000126702 0.198733 
1.56304e-05 -0.000123738 0.198731 
2.88841e-05 -0.000116292 0.198716 
-3.02799e-05 -0.000135485 0.0987059 
-3.2455e-05 -0.000162827 0.0986497 
-3.24313e-05 -0.000194462 0.0986156 
3.12223e-05 -6.35297e-05 0.198652 
-6.38574e-05 -0.000184374 0.0986254 
-5.99953e-05 -0.000136715 0.0986759 
3.08965e-05 -0.000102342 0.198696 
7.16056e-05 -0.000106218 0.198668 
-9.2961e-05 -0.000141415 0.0986549 
1.56304e-05 -0.000123738 0.198731 
-7.22207e-06 -0.000141663 0.0987201 
3.42555e-06 -0.000133458 0.153642 
2.7285e-06 -0.000128764 0.154597 
-7.5038e-05 -9.11398e-05 0.0987054 
7.72807e-05 -0.000175176 0.198705 
7.77405e-05 -0.0001447 0.19869 
-4.25467e-05 -0.000106974 0.0987268 
-2.02953e-05 -0.000129453 0.0987285 
2.71819e-05 -0.000126702 0.198733 
-4.51503e-05 -0.000118954 0.0987137 
-2.3949e-05 -0.000132971 0.0987162 
3.95773e-05 -0.000147386 0.198744 
2.71819e-05 -0.000126702 0.198733 
-4.51503e-05 -0.000118954 0.0987137 
-2.02953e-05 -0.000129453 0.0987285 
-2.86808e-05 -0.000150788 0.0986701 
2.06858e-05 -9.60047e-05 0.19869 
3.08965e-05 -0.000102342 0.198696 
-5.27775e-05 -0.000154192 0.0986567 
3.08965e-05 -0.000102342 0.198696 
2.06858e-05 -9.60047e-05 0.19869 
-2.86808e-05 -0.000150788 0.0986701 
-2.16307e-05 -0.000144661 0.0986907 
1.72939e-05 -0.000176191 0.098641 
2.06478e-05 -0.000232154 0.0986109 
-1.38298e-06 -6.51131e-05 0.198646 
9.86446e-06 -0.000192269 0.0986345 
-5.27775e-05 -0.000154192 0.0986567 
3.08965e-05 -0.000102342 0.198696 
-2.86808e-05 -0.000150788 0.0986701 
-4.12602e-05 -0.000142929 0.0986749 
-6.68664e-05 -0.000116965 0.198631 
-9.38596e-05 -0.000128843 0.198631 
9.56593e-05 -0.000121409 0.098626 
-4.8482e-05 -0.000130928 0.198686 
3.55265e-06 6.5238e-07 0.198553 
1.46834e-05 -0.000284854 0.0985782 
-8.99073e-07 7.381e-05 0.19836 
1.06806e-05 0.000100076 0.198327 
-0.000225631 -0.000103818 0.198345 
0.000261222 -0.000110621 0.098529 
0.000237452 -0.000102962 0.0985348 
0.000169954 -8.70703e-05 0.147759 
-3.19666e-05 -0.000116689 0.198677 
-4.8482e-05 -0.000130928 0.198686 
6.74801e-05 -0.000129824 0.0986545 
5.09189e-06 -0.000130254 0.149913 
4.74991e-06 -0.000232419 0.0986012 
1.52826e-05 -4.57119e-05 0.198619 
-1.38298e-06 -6.51131e-05 0.198646 
9.86446e-06 -0.000192269 0.0986345 
-6.68664e-05 -0.000116965 0.198631 
0.000154201 -0.000116364 0.0985857 
9.82497e-05 -0.000127142 0.0986226 
9.56593e-05 -0.000121409 0.098626 
4.07179e-05 -0.00012503 0.0986871 
5.76615e-05 -0.000108231 0.0986621 
-6.07481e-05 -0.000148206 0.198686 
-4.8482e-05 -0.000130928 0.198686 
-6.81769e-05 -0.000130198 0.0986878 
6.18452e-05 -0.000119274 0.198698 
2.88841e-05 -0.000116292 0.198716 
-4.54848e-05 -0.00012794 0.0987006 
1.56304e-05 -0.000123738 0.198731 
-1.17395e-05 -0.000136227 0.0987276 
1.74413e-05 -0.000135021 0.198746 
2.68461e-06 -0.000136444 0.156859 
0.000116719 -0.000139122 0.0985767 
0.000126173 -0.000161717 0.0985607 
0.000203037 -0.000149054 0.098534 
-8.75286e-05 -8.62582e-05 0.198575 
-3.24313e-05 -0.000194462 0.0986156 
3.12223e-05 -6.35297e-05 0.198652 
3.52282e-05 -2.73774e-05 0.198581 
-4.99163e-06 -0.000189575 0.0986234 
6.74801e-05 -0.000129824 0.0986545 
6.23988e-05 -0.000133868 0.0986476 
-3.19666e-05 -0.000116689 0.198677 
5.09189e-06 -0.000130254 0.149913 
-0.000114455 -0.000104408 0.19856 
0.000154201 -0.000116364 0.0985857 
9.82497e-05 -0.000127142 0.0986226 
-6.68664e-05 -0.000116965 0.198631 
-2.20644e-05 -5.43625e-05 0.148267 
-5.3456e-06 -1.04369e-05 0.148323 
3.65122e-05 -0.000270076 0.198577 
-2.24766e-05 -2.21132e-05 0.098766 
-2.72069e-05 -0.000138529 0.198721 
-1.52734e-05 -0.000146462 0.198747 
1.6006e-05 -0.000135598 0.0987214 
-9.21463e-06 -0.000134663 0.198732 
5.21066e-06 -0.000302459 0.198617 
-2.26558e-05 -0.000309243 0.198617 
1.01766e-05 3.04368e-05 0.0987567 
-2.04354e-06 -1.19561e-05 0.148073 
-4.09737e-05 -0.000161045 0.198724 
1.70095e-05 -8.50517e-05 0.0987243 
1.94676e-05 -0.000115176 0.0987166 
-2.41524e-05 -0.00018041 0.198749 
-4.09737e-05 -0.000161045 0.198724 
1.94676e-05 -0.000115176 0.0987166 
3.41961e-05 -0.000112834 0.0986923 
-2.72069e-05 -0.000138529 0.198721 
0.000130569 -0.000213373 0.098537 
0.000126173 -0.000161717 0.0985607 
7.76625e-05 -0.00016456 0.0985853 
-9.45023e-05 -2.23736e-05 0.198462 
1.51333e-05 -0.000147592 0.0986913 
5.51477e-06 -0.000131311 0.149008 
-1.14925e-06 -0.000113867 0.198702 
4.98482e-06 -0.000125047 0.156442 
1.51222e-05 -0.000153363 0.198763 
4.14573e-05 -0.000180131 0.198748 
-5.3681e-06 -9.10017e-05 0.0987516 
-2.04563e-05 -0.000106953 0.0987433 
1.10645e-05 -0.000146442 0.0987008 
3.64261e-06 -0.000130615 0.15648 
9.54234e-06 -0.000145571 0.0987084 
4.15397e-06 -0.000128299 0.15489 
1.51333e-05 -0.000147592 0.0986913 
2.0664e-05 -0.000148267 0.0986791 
2.12208e-05 -0.000145121 0.0986883 
4.98482e-06 -0.000125047 0.156442 
4.14139e-07 -0.000116796 0.0987471 
-5.3681e-06 -9.10017e-05 0.0987516 
-6.76343e-07 -0.000174658 0.198765 
-3.12835e-06 -4.04236e-05 0.0987595 
-7.22207e-06 -0.000141663 0.0987201 
-5.77733e-07 -0.000143366 0.0987195 
3.42555e-06 -0.000133458 0.153642 
2.7285e-06 -0.000128764 0.154597 
-0.000141189 -9.49616e-05 0.14809 
-0.00021618 -0.000118373 0.0986262 
-0.00016144 -0.000100696 0.0986497 
0.000194829 -0.000107856 0.198325 
7.37262e-05 -0.000184518 0.148119 
0.000116697 -0.000241367 0.0985268 
5.42862e-05 -0.000191439 0.148096 
-8.47088e-05 5.20099e-06 0.198324 
-9.20092e-06 -0.000147097 0.098688 
2.06858e-05 -9.60047e-05 0.19869 
-2.86808e-05 -0.000150788 0.0986701 
-1.3287e-05 -0.000157715 0.0986654 
3.41961e-05 -0.000112834 0.0986923 
4.07179e-05 -0.00012503 0.0986871 
-6.07481e-05 -0.000148206 0.198686 
-2.72069e-05 -0.000138529 0.198721 
0.000130569 -0.000213373 0.098537 
8.7723e-05 -0.000206549 0.0985646 
0.000116697 -0.000241367 0.0985268 
-8.47088e-05 5.20099e-06 0.198324 
0.000151874 -0.000160644 0.198496 
-8.1556e-05 -7.73372e-05 0.148064 
-7.40084e-05 -5.62546e-05 0.148217 
-0.000115557 -7.78762e-05 0.0986784 
3.65122e-05 -0.000270076 0.198577 
-5.3456e-06 -1.04369e-05 0.148323 
-1.49713e-06 -9.48021e-06 0.148108 
-3.14663e-06 3.87181e-05 0.0987687 
2.1596e-05 -0.000144465 0.0986954 
5.51477e-06 -0.000131311 0.149008 
2.12208e-05 -0.000145121 0.0986883 
4.98482e-06 -0.000125047 0.156442 
4.15397e-06 -0.000128299 0.15489 
3.42555e-06 -0.000133458 0.153642 
3.53522e-06 -0.000144725 0.0987148 
2.7285e-06 -0.000128764 0.154597 
-1.07643e-05 -0.000166677 0.0986426 
3.12223e-05 -6.35297e-05 0.198652 
-3.24313e-05 -0.000194462 0.0986156 
-4.99163e-06 -0.000189575 0.0986234 
1.51333e-05 -0.000147592 0.0986913 
2.12208e-05 -0.000145121 0.0986883 
5.51477e-06 -0.000131311 0.149008 
4.98482e-06 -0.000125047 0.156442 
-2.20644e-05 -5.43625e-05 0.148267 
3.65122e-05 -0.000270076 0.198577 
7.08831e-05 -0.000238612 0.198689 
-2.24766e-05 -2.21132e-05 0.098766 
5.66904e-05 -1.30172e-05 0.0987075 
9.02248e-05 -9.35233e-06 0.0986701 
2.55454e-05 -4.87602e-05 0.148319 
-0.000112397 -0.000254177 0.198487 
7.76625e-05 -0.00016456 0.0985853 
8.7723e-05 -0.000206549 0.0985646 
0.000130569 -0.000213373 0.098537 
-9.45023e-05 -2.23736e-05 0.198462 
-0.00017295 -0.000150118 0.0986149 
-0.000153408 -0.000111882 0.147992 
0.000185747 -6.64946e-05 0.198351 
-0.000263143 -0.000126712 0.0986073 
-0.000107352 -0.000145662 0.148105 
0.000185747 -6.64946e-05 0.198351 
-6.83946e-05 -0.000149917 0.148047 
-0.000176737 -0.000192527 0.0985956 
-8.53275e-05 -0.000100946 0.0986885 
0.000147038 -0.000128922 0.198616 
0.000151874 -0.000160644 0.198496 
-0.000115557 -7.78762e-05 0.0986784 
0.000173461 -9.49141e-05 0.147919 
0.000261222 -0.000110621 0.098529 
-0.000170233 -7.41135e-05 0.198407 
-0.000271588 -9.45404e-05 0.198265 
9.05187e-05 -4.35611e-05 0.0986288 
4.75027e-05 -4.58839e-05 0.148271 
-0.000131416 -0.000183572 0.198468 
0.000123985 -5.89767e-05 0.0985898 
3.53522e-06 -0.000144725 0.0987148 
3.42555e-06 -0.000133458 0.153642 
-5.77733e-07 -0.000143366 0.0987195 
2.7285e-06 -0.000128764 0.154597 
2.55454e-05 -4.87602e-05 0.148319 
9.02248e-05 -9.35233e-06 0.0986701 
1.51377e-05 -6.24202e-05 0.14811 
-0.000112397 -0.000254177 0.198487 
-2.09937e-05 -5.64184e-05 0.19861 
5.24145e-05 -0.000173747 0.0986015 
3.40307e-05 -0.000174673 0.0986113 
-2.23137e-05 -8.31625e-05 0.19864 
9.02248e-05 -9.35233e-06 0.0986701 
4.75027e-05 -4.58839e-05 0.148271 
-0.000131416 -0.000183572 0.198468 
9.05187e-05 -4.35611e-05 0.0986288 
-3.61778e-08 -0.000145691 0.198755 
-3.40318e-06 -0.000125188 0.098744 
4.17963e-06 -0.000134045 0.0987388 
2.68461e-06 -0.000136444 0.156859 
-1.49713e-06 -9.48021e-06 0.148108 
5.21066e-06 -0.000302459 0.198617 
3.65122e-05 -0.000270076 0.198577 
-3.14663e-06 3.87181e-05 0.0987687 
1.51222e-05 -0.000153363 0.198763 
1.74413e-05 -0.000135021 0.198746 
3.95773e-05 -0.000147386 0.198744 
-1.22698e-05 -0.000127505 0.0987371 
-2.73093e-05 -0.000226381 0.147901 
-4.26277e-05 -0.000332007 0.0985467 
3.57854e-05 3.6476e-05 0.198469 
-1.14611e-06 -0.000270633 0.147927 
-2.04563e-05 -0.000106953 0.0987433 
4.14573e-05 -0.000180131 0.198748 
-5.3681e-06 -9.10017e-05 0.0987516 
-1.68326e-05 -5.64173e-05 0.0987538 
7.77405e-05 -0.0001447 0.19869 
0.000151874 -0.000160644 0.198496 
0.000131267 -0.000183147 0.198631 
-7.5038e-05 -9.11398e-05 0.0987054 
-9.61398e-06 -1.64495e-06 0.198543 
3.69664e-05 -0.000241054 0.0985792 
2.49659e-05 -0.000199876 0.0986139 
-2.09937e-05 -5.64184e-05 0.19861 
9.49835e-05 -0.000132818 0.0986134 
0.000151871 -0.000126869 0.0985826 
9.82497e-05 -0.000127142 0.0986226 
-5.17878e-05 -0.000102674 0.198632 
2.61773e-05 -0.0001358 0.0987025 
-1.53298e-05 -0.000127862 0.198709 
5.91828e-06 -0.000135001 0.144545 
5.09189e-06 -0.000130254 0.149913 
9.82497e-05 -0.000127142 0.0986226 
0.000151871 -0.000126869 0.0985826 
0.000154201 -0.000116364 0.0985857 
-0.000114455 -0.000104408 0.19856 
9.01172e-05 -0.000166427 0.148138 
0.000130569 -0.000213373 0.098537 
0.000116697 -0.000241367 0.0985268 
-8.47088e-05 5.20099e-06 0.198324 
3.53522e-06 -0.000144725 0.0987148 
6.24499e-06 -0.00014552 0.0987067 
3.64261e-06 -0.000130615 0.15648 
4.15397e-06 -0.000128299 0.15489 
9.41511e-05 -0.000250563 0.0985415 
5.42862e-05 -0.000191439 0.148096 
0.000116697 -0.000241367 0.0985268 
-8.47088e-05 5.20099e-06 0.198324 
-2.02953e-05 -0.000129453 0.0987285 
3.95773e-05 -0.000147386 0.198744 
1.74413e-05 -0.000135021 0.198746 
-1.22698e-05 -0.000127505 0.0987371 
-1.61271e-05 -0.000219308 0.0985911 
-3.24313e-05 -0.000194462 0.0986156 
3.52282e-05 -2.73774e-05 0.198581 
-4.99163e-06 -0.000189575 0.0986234 
-2.41524e-05 -0.00018041 0.198749 
1.01837e-05 -7.7034e-05 0.0987494 
8.29905e-06 -0.000109342 0.0987371 
-6.76343e-07 -0.000174658 0.198765 
-3.14663e-06 3.87181e-05 0.0987687 
-8.20485e-06 -0.000237665 0.198722 
5.21066e-06 -0.000302459 0.198617 
-3.12835e-06 -4.04236e-05 0.0987595 
5.65055e-05 -0.00020177 0.0985809 
5.24145e-05 -0.000173747 0.0986015 
-2.09937e-05 -5.64184e-05 0.19861 
-4.77656e-05 -4.70591e-05 0.198566 
-5.26467e-05 8.09226e-06 0.198504 
5.65055e-05 -0.00020177 0.0985809 
3.69664e-05 -0.000241054 0.0985792 
-2.09937e-05 -5.64184e-05 0.19861 
6.18452e-05 -0.000119274 0.198698 
0.000112561 -0.000112808 0.19862 
-0.000111037 -0.000119808 0.0986719 
-6.81769e-05 -0.000130198 0.0986878 
5.66904e-05 -1.30172e-05 0.0987075 
1.0395e-05 -2.82875e-05 0.148309 
-5.69415e-05 -0.000269294 0.198609 
-0.000112397 -0.000254177 0.198487 
-0.000123353 -0.000204751 0.0985958 
-6.38574e-05 -0.000184374 0.0986254 
0.000115545 -2.46522e-05 0.198449 
-9.62771e-05 -0.000260633 0.0985874 
-2.15634e-05 5.68939e-05 0.19835 
4.20888e-05 -0.000288366 0.0985388 
3.69664e-05 -0.000241054 0.0985792 
-5.26467e-05 8.09226e-06 0.198504 
-5.55276e-07 -0.000136947 0.0987369 
6.42127e-06 -0.000140011 0.0987325 
4.17963e-06 -0.000134045 0.0987388 
2.68461e-06 -0.000136444 0.156859 
1.3111e-05 -0.000144837 0.0987066 
3.64261e-06 -0.000130615 0.15648 
9.54234e-06 -0.000145571 0.0987084 
5.51477e-06 -0.000131311 0.149008 
6.74801e-05 -0.000129824 0.0986545 
-4.8482e-05 -0.000130928 0.198686 
6.32439e-05 -0.000124317 0.0986584 
5.09189e-06 -0.000130254 0.149913 
4.17963e-06 -0.000134045 0.0987388 
2.68461e-06 -0.000136444 0.156859 
6.42127e-06 -0.000140011 0.0987325 
2.59372e-06 -0.000136768 0.156021 
1.51377e-05 -6.24202e-05 0.14811 
4.75027e-05 -4.58839e-05 0.148271 
-0.000131416 -0.000183572 0.198468 
9.02248e-05 -9.35233e-06 0.0986701 
1.51222e-05 -0.000153363 0.198763 
1.74413e-05 -0.000135021 0.198746 
-1.22698e-05 -0.000127505 0.0987371 
2.68461e-06 -0.000136444 0.156859 
1.01766e-05 3.04368e-05 0.0987567 
-8.20485e-06 -0.000237665 0.198722 
5.21066e-06 -0.000302459 0.198617 
-3.14663e-06 3.87181e-05 0.0987687 
6.20454e-05 -5.50934e-05 0.148112 
-0.000131416 -0.000183572 0.198468 
4.75027e-05 -4.58839e-05 0.148271 
0.000123985 -5.89767e-05 0.0985898 
4.74991e-06 -0.000232419 0.0986012 
3.57854e-05 3.6476e-05 0.198469 
1.52826e-05 -4.57119e-05 0.198619 
-1.61271e-05 -0.000219308 0.0985911 
-2.86808e-05 -0.000150788 0.0986701 
2.06858e-05 -9.60047e-05 0.19869 
-3.2455e-05 -0.000162827 0.0986497 
-1.3287e-05 -0.000157715 0.0986654 
-3.89032e-05 -0.000207832 0.148118 
-5.02644e-05 -0.000174951 0.148047 
7.49347e-05 4.96516e-05 0.198308 
-5.89576e-05 -0.000270146 0.0985699 
0.000151874 -0.000160644 0.198496 
-7.40084e-05 -5.62546e-05 0.148217 
-4.60891e-05 -5.56599e-05 0.148261 
-0.000115557 -7.78762e-05 0.0986784 
8.7723e-05 -0.000206549 0.0985646 
5.65055e-05 -0.00020177 0.0985809 
-5.26467e-05 8.09226e-06 0.198504 
-4.77656e-05 -4.70591e-05 0.198566 
-8.94597e-06 -8.41958e-05 0.19865 
-2.23137e-05 -8.31625e-05 0.19864 
3.49636e-05 -0.000156752 0.0986336 
-8.64569e-06 -9.96195e-05 0.198677 
-1.14611e-06 -0.000270633 0.147927 
1.06806e-05 0.000100076 0.198327 
9.39117e-06 -0.000272596 0.147822 
-2.40418e-06 -0.000316898 0.0985423 
-5.3456e-06 -1.04369e-05 0.148323 
3.65122e-05 -0.000270076 0.198577 
-2.24766e-05 -2.21132e-05 0.098766 
-3.14663e-06 3.87181e-05 0.0987687 
1.52826e-05 -4.57119e-05 0.198619 
3.52282e-05 -2.73774e-05 0.198581 
3.12223e-05 -6.35297e-05 0.198652 
-4.99163e-06 -0.000189575 0.0986234 
5.24145e-05 -0.000173747 0.0986015 
5.65055e-05 -0.00020177 0.0985809 
8.7723e-05 -0.000206549 0.0985646 
-4.77656e-05 -4.70591e-05 0.198566 
-4.81241e-06 -0.00014148 0.0987264 
3.95555e-06 -0.000143564 0.0987253 
2.24402e-06 -0.000142345 0.0987313 
3.42555e-06 -0.000133458 0.153642 
0.000112561 -0.000112808 0.19862 
-0.000111047 -0.00012518 0.0986562 
-0.000111037 -0.000119808 0.0986719 
-6.81769e-05 -0.000130198 0.0986878 
2.06858e-05 -9.60047e-05 0.19869 
3.12223e-05 -6.35297e-05 0.198652 
-3.2455e-05 -0.000162827 0.0986497 
-1.3287e-05 -0.000157715 0.0986654 
-5.69415e-05 -0.000269294 0.198609 
-1.15848e-05 -8.89347e-06 0.148211 
2.22232e-05 6.85568e-06 0.0987367 
-2.26558e-05 -0.000309243 0.198617 
0.000116697 -0.000241367 0.0985268 
8.7723e-05 -0.000206549 0.0985646 
9.41511e-05 -0.000250563 0.0985415 
-8.47088e-05 5.20099e-06 0.198324 
3.95555e-06 -0.000143564 0.0987253 
2.24402e-06 -0.000142345 0.0987313 
3.42555e-06 -0.000133458 0.153642 
2.59372e-06 -0.000136768 0.156021 
9.50863e-06 -0.000107259 0.198699 
1.23638e-05 -8.42638e-05 0.198676 
2.06858e-05 -9.60047e-05 0.19869 
-1.08845e-06 -0.000153903 0.0986772 
7.08831e-05 -0.000238612 0.198689 
-2.20644e-05 -5.43625e-05 0.148267 
-2.24766e-05 -2.21132e-05 0.098766 
-6.05035e-05 -1.87932e-05 0.0987547 
2.61773e-05 -0.0001358 0.0987025 
2.12162e-05 -0.000140924 0.098706 
2.68017e-05 -0.00013944 0.0986946 
5.91828e-06 -0.000135001 0.144545 
8.7723e-05 -0.000206549 0.0985646 
7.76625e-05 -0.00016456 0.0985853 
5.24145e-05 -0.000173747 0.0986015 
-4.77656e-05 -4.70591e-05 0.198566 
3.69664e-05 -0.000241054 0.0985792 
2.78402e-05 -0.000275851 0.098578 
4.20888e-05 -0.000288366 0.0985388 
-9.61398e-06 -1.64495e-06 0.198543 
-6.68664e-05 -0.000116965 0.198631 
-0.000129786 -0.000112964 0.198543 
0.000154201 -0.000116364 0.0985857 
9.56593e-05 -0.000121409 0.098626 
0.000126173 -0.000161717 0.0985607 
7.76625e-05 -0.00016456 0.0985853 
-9.45023e-05 -2.23736e-05 0.198462 
-4.98937e-05 -7.73269e-05 0.198603 
8.7723e-05 -0.000206549 0.0985646 
5.65055e-05 -0.00020177 0.0985809 
9.41511e-05 -0.000250563 0.0985415 
-5.26467e-05 8.09226e-06 0.198504 
1.51333e-05 -0.000147592 0.0986913 
4.98482e-06 -0.000125047 0.156442 
-1.14925e-06 -0.000113867 0.198702 
5.7001e-06 -0.000128265 0.150752 
-2.24766e-05 -2.21132e-05 0.098766 
3.65122e-05 -0.000270076 0.198577 
7.08831e-05 -0.000238612 0.198689 
-1.68326e-05 -5.64173e-05 0.0987538 
-3.19666e-05 -0.000116689 0.198677 
-6.68664e-05 -0.000116965 0.198631 
6.74801e-05 -0.000129824 0.0986545 
-4.8482e-05 -0.000130928 0.198686 
-9.38596e-05 -0.000128843 0.198631 
0.000167915 -8.46023e-05 0.0985589 
9.38859e-05 -0.000104781 0.0986199 
-0.000141043 -0.000141237 0.19856 
-6.83946e-05 -0.000149917 0.148047 
0.000185747 -6.64946e-05 0.198351 
0.000142749 -4.88281e-05 0.198525 
-0.000176737 -0.000192527 0.0985956 
-5.3681e-06 -9.10017e-05 0.0987516 
-6.76343e-07 -0.000174658 0.198765 
1.51222e-05 -0.000153363 0.198763 
4.14139e-07 -0.000116796 0.0987471 
-0.000141043 -0.000141237 0.19856 
-0.000131416 -0.000183572 0.198468 
6.20454e-05 -5.50934e-05 0.148112 
0.000123985 -5.89767e-05 0.0985898 
0.000134709 -0.000110226 0.098578 
0.000237452 -0.000102962 0.0985348 
0.000167915 -8.46023e-05 0.0985589 
-0.000129786 -0.000112964 0.198543 
-0.000141043 -0.000141237 0.19856 
0.000167915 -8.46023e-05 0.0985589 
9.38859e-05 -0.000104781 0.0986199 
0.000123985 -5.89767e-05 0.0985898 
7.76625e-05 -0.00016456 0.0985853 
8.7723e-05 -0.000206549 0.0985646 
-9.45023e-05 -2.23736e-05 0.198462 
-4.77656e-05 -4.70591e-05 0.198566 
1.52826e-05 -4.57119e-05 0.198619 
3.55265e-06 6.5238e-07 0.198553 
3.57854e-05 3.6476e-05 0.198469 
4.74991e-06 -0.000232419 0.0986012 
-9.44893e-05 -0.000170583 0.0986275 
0.000115545 -2.46522e-05 0.198449 
0.000142749 -4.88281e-05 0.198525 
-0.000123353 -0.000204751 0.0985958 
2.88841e-05 -0.000116292 0.198716 
1.64494e-05 -0.000112346 0.198711 
3.08965e-05 -0.000102342 0.198696 
-3.5487e-05 -0.000137721 0.0986921 
-0.000129786 -0.000112964 0.198543 
-6.68664e-05 -0.000116965 0.198631 
-9.38596e-05 -0.000128843 0.198631 
9.56593e-05 -0.000121409 0.098626 
1.0395e-05 -2.82875e-05 0.148309 
5.66904e-05 -1.30172e-05 0.0987075 
2.55454e-05 -4.87602e-05 0.148319 
-0.000112397 -0.000254177 0.198487 
-2.24766e-05 -2.21132e-05 0.098766 
2.42564e-05 -0.000214768 0.198716 
3.65122e-05 -0.000270076 0.198577 
-1.68326e-05 -5.64173e-05 0.0987538 
-1.3317e-05 -0.000116052 0.198695 
4.15961e-05 -0.000140705 0.0986683 
-2.62373e-05 -0.000103121 0.198663 
4.98482e-06 -0.000125047 0.156442 
-3.61778e-08 -0.000145691 0.198755 
1.51222e-05 -0.000153363 0.198763 
-3.40318e-06 -0.000125188 0.098744 
2.68461e-06 -0.000136444 0.156859 
-9.44893e-05 -0.000170583 0.0986275 
7.79548e-05 -8.71934e-05 0.198639 
-5.27775e-05 -0.000154192 0.0986567 
-9.2961e-05 -0.000141415 0.0986549 
3.52282e-05 -2.73774e-05 0.198581 
3.57854e-05 3.6476e-05 0.198469 
7.49347e-05 4.96516e-05 0.198308 
-5.89576e-05 -0.000270146 0.0985699 
-9.44893e-05 -0.000170583 0.0986275 
5.50887e-05 -7.07673e-05 0.19864 
0.000115545 -2.46522e-05 0.198449 
-6.38574e-05 -0.000184374 0.0986254 
-1.49713e-06 -9.48021e-06 0.148108 
-2.04354e-06 -1.19561e-05 0.148073 
5.21066e-06 -0.000302459 0.198617 
-3.14663e-06 3.87181e-05 0.0987687 
7.72807e-05 -0.000175176 0.198705 
4.14573e-05 -0.000180131 0.198748 
3.95773e-05 -0.000147386 0.198744 
-2.04563e-05 -0.000106953 0.0987433 
1.99599e-05 -0.000142453 0.0987033 
4.28576e-06 -0.000134371 0.150125 
1.45742e-05 -0.000143765 0.0987128 
5.65505e-06 -0.000131786 0.149519 
-1.14611e-06 -0.000270633 0.147927 
-4.26277e-05 -0.000332007 0.0985467 
3.57854e-05 3.6476e-05 0.198469 
-2.40418e-06 -0.000316898 0.0985423 
1.01837e-05 -7.7034e-05 0.0987494 
-6.76343e-07 -0.000174658 0.198765 
-8.20485e-06 -0.000237665 0.198722 
-3.12835e-06 -4.04236e-05 0.0987595 
8.22433e-05 -8.68109e-05 0.0986341 
-0.000109183 -0.000162325 0.198604 
9.05187e-05 -4.35611e-05 0.0986288 
6.78629e-05 -7.62124e-05 0.0986654 
1.56304e-05 -0.000123738 0.198731 
2.71819e-05 -0.000126702 0.198733 
1.74413e-05 -0.000135021 0.198746 
-1.17395e-05 -0.000136227 0.0987276 
-2.15634e-05 5.68939e-05 0.19835 
5.42862e-05 -0.000191439 0.148096 
4.20888e-05 -0.000288366 0.0985388 
-5.26467e-05 8.09226e-06 0.198504 
-0.000114455 -0.000104408 0.19856 
0.000261222 -0.000110621 0.098529 
0.000154201 -0.000116364 0.0985857 
-0.000225631 -0.000103818 0.198345 
0.000148215 -7.66026e-05 0.147805 
-0.000225631 -0.000103818 0.198345 
0.000237452 -0.000102962 0.0985348 
0.000169954 -8.70703e-05 0.147759 
-6.76343e-07 -0.000174658 0.198765 
1.01837e-05 -7.7034e-05 0.0987494 
8.29905e-06 -0.000109342 0.0987371 
4.14139e-07 -0.000116796 0.0987471 
-4.54848e-05 -0.00012794 0.0987006 
-0.000111037 -0.000119808 0.0986719 
6.18452e-05 -0.000119274 0.198698 
-8.53275e-05 -0.000100946 0.0986885 
0.000151874 -0.000160644 0.198496 
-4.60891e-05 -5.56599e-05 0.148261 
-9.37577e-05 -7.09436e-05 0.0987112 
-0.000115557 -7.78762e-05 0.0986784 
-7.5038e-05 -9.11398e-05 0.0987054 
7.77405e-05 -0.0001447 0.19869 
-4.51503e-05 -0.000118954 0.0987137 
-4.25467e-05 -0.000106974 0.0987268 
1.07972e-05 -0.000144509 0.0987131 
3.64261e-06 -0.000130615 0.15648 
1.3111e-05 -0.000144837 0.0987066 
5.51477e-06 -0.000131311 0.149008 
-0.000106893 -0.000205081 0.198653 
3.82481e-05 -8.60176e-05 0.098698 
6.78629e-05 -7.62124e-05 0.0986654 
-6.07481e-05 -0.000148206 0.198686 
-0.000153408 -0.000111882 0.147992 
-0.00014315 -0.000102409 0.147889 
0.00015314 -9.35615e-05 0.198547 
-0.000263143 -0.000126712 0.0986073 
3.41961e-05 -0.000112834 0.0986923 
3.82481e-05 -8.60176e-05 0.098698 
-4.09737e-05 -0.000161045 0.198724 
-6.07481e-05 -0.000148206 0.198686 
-6.76343e-07 -0.000174658 0.198765 
1.01837e-05 -7.7034e-05 0.0987494 
4.14139e-07 -0.000116796 0.0987471 
-3.12835e-06 -4.04236e-05 0.0987595 
9.01172e-05 -0.000166427 0.148138 
0.000201692 -0.000194003 0.0985189 
0.000130569 -0.000213373 0.098537 
-9.45023e-05 -2.23736e-05 0.198462 
1.58635e-05 -0.000154156 0.0986802 
9.35615e-06 -0.000155277 0.0986781 
1.61102e-05 -0.000160731 0.0986629 
5.7001e-06 -0.000128265 0.150752 
-3.61778e-08 -0.000145691 0.198755 
-1.52734e-05 -0.000146462 0.198747 
7.17475e-06 -0.000125914 0.0987388 
-6.76343e-07 -0.000174658 0.198765 
5.62725e-05 -0.000152373 0.0986219 
7.76625e-05 -0.00016456 0.0985853 
7.70838e-05 -0.000143042 0.0986031 
-4.98937e-05 -7.73269e-05 0.198603 
0.000261222 -0.000110621 0.098529 
0.000237452 -0.000102962 0.0985348 
0.000154201 -0.000116364 0.0985857 
-0.000225631 -0.000103818 0.198345 
6.78629e-05 -7.62124e-05 0.0986654 
-0.000131416 -0.000183572 0.198468 
9.05187e-05 -4.35611e-05 0.0986288 
-0.000106893 -0.000205081 0.198653 
1.01837e-05 -7.7034e-05 0.0987494 
1.61452e-05 -3.13073e-05 0.0987437 
1.01766e-05 3.04368e-05 0.0987567 
-8.20485e-06 -0.000237665 0.198722 
1.0395e-05 -2.82875e-05 0.148309 
-1.15848e-05 -8.89347e-06 0.148211 
2.22232e-05 6.85568e-06 0.0987367 
-5.69415e-05 -0.000269294 0.198609 
-2.41524e-05 -0.00018041 0.198749 
1.61452e-05 -3.13073e-05 0.0987437 
1.01837e-05 -7.7034e-05 0.0987494 
-8.20485e-06 -0.000237665 0.198722 
-1.14611e-06 -0.000270633 0.147927 
3.57854e-05 3.6476e-05 0.198469 
1.06806e-05 0.000100076 0.198327 
-2.40418e-06 -0.000316898 0.0985423 
1.06806e-05 0.000100076 0.198327 
3.55265e-06 6.5238e-07 0.198553 
1.46834e-05 -0.000284854 0.0985782 
-2.40418e-06 -0.000316898 0.0985423 
7.79548e-05 -8.71934e-05 0.198639 
0.00015314 -9.35615e-05 0.198547 
7.16056e-05 -0.000106218 0.198668 
-9.2961e-05 -0.000141415 0.0986549 
-8.64569e-06 -9.96195e-05 0.198677 
-2.62373e-05 -0.000103121 0.198663 
4.0577e-05 -0.000148248 0.0986525 
4.98482e-06 -0.000125047 0.156442 
1.52826e-05 -4.57119e-05 0.198619 
1.23638e-05 -8.42638e-05 0.198676 
-1.38298e-06 -6.51131e-05 0.198646 
9.86446e-06 -0.000192269 0.0986345 
7.49347e-05 4.96516e-05 0.198308 
-4.26277e-05 -0.000332007 0.0985467 
-3.89032e-05 -0.000207832 0.148118 
-5.89576e-05 -0.000270146 0.0985699 
1.01766e-05 3.04368e-05 0.0987567 
-8.20485e-06 -0.000237665 0.198722 
-3.14663e-06 3.87181e-05 0.0987687 
-3.12835e-06 -4.04236e-05 0.0987595 
3.08965e-05 -0.000102342 0.198696 
7.16056e-05 -0.000106218 0.198668 
2.88841e-05 -0.000116292 0.198716 
-5.99953e-05 -0.000136715 0.0986759 
-5.3681e-06 -9.10017e-05 0.0987516 
1.51222e-05 -0.000153363 0.198763 
-2.04563e-05 -0.000106953 0.0987433 
-3.40318e-06 -0.000125188 0.098744 
0.000203037 -0.000149054 0.098534 
0.000201692 -0.000194003 0.0985189 
0.00012839 -0.000130446 0.147993 
-0.00013989 -4.62554e-05 0.198457 
4.74991e-06 -0.000232419 0.0986012 
3.55265e-06 6.5238e-07 0.198553 
3.57854e-05 3.6476e-05 0.198469 
-2.40418e-06 -0.000316898 0.0985423 
8.24293e-05 -0.00014449 0.148006 
0.000201692 -0.000194003 0.0985189 
9.01172e-05 -0.000166427 0.148138 
-9.45023e-05 -2.23736e-05 0.198462 
1.07972e-05 -0.000144509 0.0987131 
9.54234e-06 -0.000145571 0.0987084 
1.3111e-05 -0.000144837 0.0987066 
3.64261e-06 -0.000130615 0.15648 
0.000151871 -0.000126869 0.0985826 
0.000203037 -0.000149054 0.098534 
0.000261222 -0.000110621 0.098529 
-0.000170233 -7.41135e-05 0.198407 
-0.000114455 -0.000104408 0.19856 
0.000151871 -0.000126869 0.0985826 
0.000261222 -0.000110621 0.098529 
-0.000170233 -7.41135e-05 0.198407 
-1.38298e-06 -6.51131e-05 0.198646 
1.23638e-05 -8.42638e-05 0.198676 
-6.60538e-07 -9.60737e-05 0.198679 
9.00141e-06 -0.000168589 0.0986608 
-5.3681e-06 -9.10017e-05 0.0987516 
2.42564e-05 -0.000214768 0.198716 
-6.76343e-07 -0.000174658 0.198765 
-3.12835e-06 -4.04236e-05 0.0987595 
-1.61271e-05 -0.000219308 0.0985911 
4.74991e-06 -0.000232419 0.0986012 
3.57854e-05 3.6476e-05 0.198469 
-2.40418e-06 -0.000316898 0.0985423 
2.1596e-05 -0.000144465 0.0986954 
2.90976e-05 -0.000143215 0.0986845 
5.51477e-06 -0.000131311 0.149008 
4.98482e-06 -0.000125047 0.156442 
7.72807e-05 -0.000175176 0.198705 
4.14573e-05 -0.000180131 0.198748 
-2.04563e-05 -0.000106953 0.0987433 
-4.66989e-05 -6.397e-05 0.0987407 
-3.24313e-05 -0.000194462 0.0986156 
7.74044e-05 -2.50285e-07 0.198569 
3.12223e-05 -6.35297e-05 0.198652 
-6.38574e-05 -0.000184374 0.0986254 
-4.26277e-05 -0.000332007 0.0985467 
7.49347e-05 4.96516e-05 0.198308 
3.57854e-05 3.6476e-05 0.198469 
-5.89576e-05 -0.000270146 0.0985699 
-0.000170233 -7.41135e-05 0.198407 
0.000261222 -0.000110621 0.098529 
-0.000114455 -0.000104408 0.19856 
-0.000271588 -9.45404e-05 0.198265 
-8.99073e-07 7.381e-05 0.19836 
-2.15634e-05 5.68939e-05 0.19835 
2.78402e-05 -0.000275851 0.098578 
-9.61398e-06 -1.64495e-06 0.198543 
-8.64569e-06 -9.96195e-05 0.198677 
-2.23137e-05 -8.31625e-05 0.19864 
4.0577e-05 -0.000148248 0.0986525 
-2.62373e-05 -0.000103121 0.198663 
-6.05035e-05 -1.87932e-05 0.0987547 
0.000108094 -0.000228054 0.1985 
-8.31007e-05 -3.46911e-05 0.0987316 
-4.66989e-05 -6.397e-05 0.0987407 
-8.53275e-05 -0.000100946 0.0986885 
7.77405e-05 -0.0001447 0.19869 
-4.51503e-05 -0.000118954 0.0987137 
-7.5038e-05 -9.11398e-05 0.0987054 
-8.75286e-05 -8.62582e-05 0.198575 
0.000203037 -0.000149054 0.098534 
0.000151871 -0.000126869 0.0985826 
-0.000170233 -7.41135e-05 0.198407 
6.78629e-05 -7.62124e-05 0.0986654 
-0.000109183 -0.000162325 0.198604 
-0.000131416 -0.000183572 0.198468 
-0.000106893 -0.000205081 0.198653 
4.15961e-05 -0.000140705 0.0986683 
-1.3317e-05 -0.000116052 0.198695 
-2.62373e-05 -0.000103121 0.198663 
-3.19666e-05 -0.000116689 0.198677 
9.49126e-06 -0.000144124 0.0987197 
4.28576e-06 -0.000134371 0.150125 
3.95555e-06 -0.000143564 0.0987253 
3.42555e-06 -0.000133458 0.153642 
-1.35697e-06 -0.000148799 0.0986918 
4.15397e-06 -0.000128299 0.15489 
9.50863e-06 -0.000107259 0.198699 
5.7001e-06 -0.000128265 0.150752 
-2.15634e-05 5.68939e-05 0.19835 
3.69664e-05 -0.000241054 0.0985792 
4.20888e-05 -0.000288366 0.0985388 
-9.61398e-06 -1.64495e-06 0.198543 
2.90976e-05 -0.000143215 0.0986845 
2.1596e-05 -0.000144465 0.0986954 
5.51477e-06 -0.000131311 0.149008 
5.65505e-06 -0.000131786 0.149519 
3.95773e-05 -0.000147386 0.198744 
7.72807e-05 -0.000175176 0.198705 
-2.04563e-05 -0.000106953 0.0987433 
-4.25467e-05 -0.000106974 0.0987268 
-5.17878e-05 -0.000102674 0.198632 
9.49835e-05 -0.000132818 0.0986134 
0.000151871 -0.000126869 0.0985826 
-8.75286e-05 -8.62582e-05 0.198575 
-3.89032e-05 -0.000207832 0.148118 
-4.26277e-05 -0.000332007 0.0985467 
7.49347e-05 4.96516e-05 0.198308 
-2.73093e-05 -0.000226381 0.147901 
0.000151871 -0.000126869 0.0985826 
-0.000114455 -0.000104408 0.19856 
-8.75286e-05 -8.62582e-05 0.198575 
-0.000170233 -7.41135e-05 0.198407 
2.22232e-05 6.85568e-06 0.0987367 
1.61452e-05 -3.13073e-05 0.0987437 
-5.69415e-05 -0.000269294 0.198609 
-2.26558e-05 -0.000309243 0.198617 
6.24499e-06 -0.00014552 0.0987067 
7.23125e-06 -0.000147016 0.0986987 
1.10645e-05 -0.000146442 0.0987008 
4.15397e-06 -0.000128299 0.15489 
4.14573e-05 -0.000180131 0.198748 
2.42564e-05 -0.000214768 0.198716 
-5.3681e-06 -9.10017e-05 0.0987516 
-1.68326e-05 -5.64173e-05 0.0987538 
-0.000109183 -0.000162325 0.198604 
-0.000141043 -0.000141237 0.19856 
-9.38596e-05 -0.000128843 0.198631 
8.22433e-05 -8.68109e-05 0.0986341 
-6.68664e-05 -0.000116965 0.198631 
9.82497e-05 -0.000127142 0.0986226 
-5.17878e-05 -0.000102674 0.198632 
-3.19666e-05 -0.000116689 0.198677 
-8.31007e-05 -3.46911e-05 0.0987316 
-4.08014e-05 -4.5733e-05 0.148353 
0.000108094 -0.000228054 0.1985 
-6.05035e-05 -1.87932e-05 0.0987547 
7.23125e-06 -0.000147016 0.0986987 
2.28184e-06 -0.000146766 0.0987 
4.79245e-06 -0.000148983 0.0986899 
4.15397e-06 -0.000128299 0.15489 
-8.47088e-05 5.20099e-06 0.198324 
0.000130569 -0.000213373 0.098537 
8.7723e-05 -0.000206549 0.0985646 
-9.45023e-05 -2.23736e-05 0.198462 
4.20888e-05 -0.000288366 0.0985388 
1.12507e-05 -0.000264686 0.14792 
3.93023e-05 -0.000236793 0.1481 
-2.15634e-05 5.68939e-05 0.19835 
1.0395e-05 -2.82875e-05 0.148309 
2.22232e-05 6.85568e-06 0.0987367 
5.66904e-05 -1.30172e-05 0.0987075 
-5.69415e-05 -0.000269294 0.198609 
7.37262e-05 -0.000184518 0.148119 
9.01172e-05 -0.000166427 0.148138 
0.000116697 -0.000241367 0.0985268 
-8.47088e-05 5.20099e-06 0.198324 
-5.02644e-05 -0.000174951 0.148047 
-7.45435e-05 -0.000178022 0.148168 
0.000115545 -2.46522e-05 0.198449 
-9.62771e-05 -0.000260633 0.0985874 
-2.24766e-05 -2.21132e-05 0.098766 
3.65122e-05 -0.000270076 0.198577 
2.42564e-05 -0.000214768 0.198716 
-3.12835e-06 -4.04236e-05 0.0987595 
-1.38298e-06 -6.51131e-05 0.198646 
2.06478e-05 -0.000232154 0.0986109 
3.55265e-06 6.5238e-07 0.198553 
4.74991e-06 -0.000232419 0.0986012 
-5.89576e-05 -0.000270146 0.0985699 
7.49347e-05 4.96516e-05 0.198308 
7.74044e-05 -2.50285e-07 0.198569 
-9.62771e-05 -0.000260633 0.0985874 
-2.15634e-05 5.68939e-05 0.19835 
4.20888e-05 -0.000288366 0.0985388 
2.78402e-05 -0.000275851 0.098578 
-9.61398e-06 -1.64495e-06 0.198543 
-3.24313e-05 -0.000194462 0.0986156 
3.52282e-05 -2.73774e-05 0.198581 
7.74044e-05 -2.50285e-07 0.198569 
-5.89576e-05 -0.000270146 0.0985699 
0.000173461 -9.49141e-05 0.147919 
0.000261222 -0.000110621 0.098529 
0.000203037 -0.000149054 0.098534 
-0.000170233 -7.41135e-05 0.198407 
-1.35697e-06 -0.000148799 0.0986918 
4.79245e-06 -0.000148983 0.0986899 
4.15397e-06 -0.000128299 0.15489 
5.7001e-06 -0.000128265 0.150752 
1.56859e-05 -0.000145437 0.0986993 
2.12208e-05 -0.000145121 0.0986883 
2.1596e-05 -0.000144465 0.0986954 
5.51477e-06 -0.000131311 0.149008 
1.46834e-05 -0.000284854 0.0985782 
-8.99073e-07 7.381e-05 0.19836 
-9.61398e-06 -1.64495e-06 0.198543 
3.55265e-06 6.5238e-07 0.198553 
1.99599e-05 -0.000142453 0.0987033 
1.7244e-05 -0.000144349 0.0987042 
2.22208e-05 -0.000143257 0.098697 
5.65505e-06 -0.000131786 0.149519 
-0.000141189 -9.49616e-05 0.14809 
-0.00014315 -0.000102409 0.147889 
-0.00021618 -0.000118373 0.0986262 
0.000194829 -0.000107856 0.198325 
-0.000107352 -0.000145662 0.148105 
-0.000153408 -0.000111882 0.147992 
0.000185747 -6.64946e-05 0.198351 
-0.00017295 -0.000150118 0.0986149 
7.77405e-05 -0.0001447 0.19869 
3.95773e-05 -0.000147386 0.198744 
-4.51503e-05 -0.000118954 0.0987137 
-4.25467e-05 -0.000106974 0.0987268 
0.000108094 -0.000228054 0.1985 
-4.08014e-05 -4.5733e-05 0.148353 
-2.20644e-05 -5.43625e-05 0.148267 
-6.05035e-05 -1.87932e-05 0.0987547 
6.24499e-06 -0.00014552 0.0987067 
9.54234e-06 -0.000145571 0.0987084 
3.64261e-06 -0.000130615 0.15648 
4.15397e-06 -0.000128299 0.15489 
3.52282e-05 -2.73774e-05 0.198581 
1.52826e-05 -4.57119e-05 0.198619 
-1.61271e-05 -0.000219308 0.0985911 
-4.99163e-06 -0.000189575 0.0986234 
3.12223e-05 -6.35297e-05 0.198652 
2.06858e-05 -9.60047e-05 0.19869 
1.23638e-05 -8.42638e-05 0.198676 
-1.3287e-05 -0.000157715 0.0986654 
0.000131267 -0.000183147 0.198631 
-4.60891e-05 -5.56599e-05 0.148261 
-9.37577e-05 -7.09436e-05 0.0987112 
0.000151874 -0.000160644 0.198496 
0.000154201 -0.000116364 0.0985857 
-0.000114455 -0.000104408 0.19856 
-0.000225631 -0.000103818 0.198345 
-0.000129786 -0.000112964 0.198543 
-6.07481e-05 -0.000148206 0.198686 
5.76615e-05 -0.000108231 0.0986621 
-9.38596e-05 -0.000128843 0.198631 
-4.8482e-05 -0.000130928 0.198686 
-1.3317e-05 -0.000116052 0.198695 
2.90976e-05 -0.000143215 0.0986845 
4.98482e-06 -0.000125047 0.156442 
5.65505e-06 -0.000131786 0.149519 
0.000112561 -0.000112808 0.19862 
6.18452e-05 -0.000119274 0.198698 
7.16056e-05 -0.000106218 0.198668 
-6.81769e-05 -0.000130198 0.0986878 
4.14573e-05 -0.000180131 0.198748 
2.42564e-05 -0.000214768 0.198716 
1.51222e-05 -0.000153363 0.198763 
-5.3681e-06 -9.10017e-05 0.0987516 
7.72807e-05 -0.000175176 0.198705 
-2.04563e-05 -0.000106953 0.0987433 
-4.25467e-05 -0.000106974 0.0987268 
-4.66989e-05 -6.397e-05 0.0987407 
-0.000111047 -0.00012518 0.0986562 
7.16056e-05 -0.000106218 0.198668 
0.00015314 -9.35615e-05 0.198547 
-9.2961e-05 -0.000141415 0.0986549 
6.20454e-05 -5.50934e-05 0.148112 
0.000167915 -8.46023e-05 0.0985589 
-0.000141043 -0.000141237 0.19856 
0.000123985 -5.89767e-05 0.0985898 
7.79548e-05 -8.71934e-05 0.198639 
3.08965e-05 -0.000102342 0.198696 
-5.27775e-05 -0.000154192 0.0986567 
-9.2961e-05 -0.000141415 0.0986549 
6.78629e-05 -7.62124e-05 0.0986654 
3.41961e-05 -0.000112834 0.0986923 
5.76615e-05 -0.000108231 0.0986621 
-6.07481e-05 -0.000148206 0.198686 
0.00012839 -0.000130446 0.147993 
0.000201692 -0.000194003 0.0985189 
8.24293e-05 -0.00014449 0.148006 
-0.00013989 -4.62554e-05 0.198457 
-6.81769e-05 -0.000130198 0.0986878 
-0.000111037 -0.000119808 0.0986719 
6.18452e-05 -0.000119274 0.198698 
-4.54848e-05 -0.00012794 0.0987006 
8.29905e-06 -0.000109342 0.0987371 
1.61452e-05 -3.13073e-05 0.0987437 
1.01837e-05 -7.7034e-05 0.0987494 
-2.41524e-05 -0.00018041 0.198749 
1.22125e-05 -0.000140349 0.0987248 
2.59372e-06 -0.000136768 0.156021 
1.30646e-05 -0.000142502 0.0987191 
5.91828e-06 -0.000135001 0.144545 
1.22125e-05 -0.000140349 0.0987248 
8.28895e-06 -0.000143238 0.0987259 
1.30646e-05 -0.000142502 0.0987191 
2.59372e-06 -0.000136768 0.156021 
-3.2455e-05 -0.000162827 0.0986497 
3.12223e-05 -6.35297e-05 0.198652 
5.50887e-05 -7.07673e-05 0.19864 
-6.38574e-05 -0.000184374 0.0986254 
0.000185747 -6.64946e-05 0.198351 
-0.000107352 -0.000145662 0.148105 
-0.00017295 -0.000150118 0.0986149 
-0.000176737 -0.000192527 0.0985956 
0.000151871 -0.000126869 0.0985826 
9.82497e-05 -0.000127142 0.0986226 
-5.17878e-05 -0.000102674 0.198632 
-0.000114455 -0.000104408 0.19856 
-0.000111047 -0.00012518 0.0986562 
0.000112561 -0.000112808 0.19862 
7.16056e-05 -0.000106218 0.198668 
-6.81769e-05 -0.000130198 0.0986878 
2.71819e-05 -0.000126702 0.198733 
2.88841e-05 -0.000116292 0.198716 
6.18452e-05 -0.000119274 0.198698 
-4.54848e-05 -0.00012794 0.0987006 
2.22232e-05 6.85568e-06 0.0987367 
1.70095e-05 -8.50517e-05 0.0987243 
5.66904e-05 -1.30172e-05 0.0987075 
-5.38558e-05 -0.000208467 0.198699 
-0.00016144 -0.000100696 0.0986497 
0.000147038 -0.000128922 0.198616 
-8.53275e-05 -0.000100946 0.0986885 
-0.000115557 -7.78762e-05 0.0986784 
1.70095e-05 -8.50517e-05 0.0987243 
1.61452e-05 -3.13073e-05 0.0987437 
8.29905e-06 -0.000109342 0.0987371 
-2.41524e-05 -0.00018041 0.198749 
3.69664e-05 -0.000241054 0.0985792 
2.49659e-05 -0.000199876 0.0986139 
2.78402e-05 -0.000275851 0.098578 
-9.61398e-06 -1.64495e-06 0.198543 
-8.75286e-05 -8.62582e-05 0.198575 
7.70838e-05 -0.000143042 0.0986031 
0.000126173 -0.000161717 0.0985607 
-4.98937e-05 -7.73269e-05 0.198603 
0.000261222 -0.000110621 0.098529 
-0.000114455 -0.000104408 0.19856 
-0.000271588 -9.45404e-05 0.198265 
-0.000225631 -0.000103818 0.198345 
3.65122e-05 -0.000270076 0.198577 
5.21066e-06 -0.000302459 0.198617 
2.42564e-05 -0.000214768 0.198716 
-3.12835e-06 -4.04236e-05 0.0987595 
-2.41524e-05 -0.00018041 0.198749 
-2.26558e-05 -0.000309243 0.198617 
1.61452e-05 -3.13073e-05 0.0987437 
-8.20485e-06 -0.000237665 0.198722 
-2.26558e-05 -0.000309243 0.198617 
1.61452e-05 -3.13073e-05 0.0987437 
-5.69415e-05 -0.000269294 0.198609 
-2.41524e-05 -0.00018041 0.198749 
2.42564e-05 -0.000214768 0.198716 
7.08831e-05 -0.000238612 0.198689 
3.65122e-05 -0.000270076 0.198577 
-1.68326e-05 -5.64173e-05 0.0987538 
-5.02644e-05 -0.000174951 0.148047 
7.74044e-05 -2.50285e-07 0.198569 
7.49347e-05 4.96516e-05 0.198308 
-9.62771e-05 -0.000260633 0.0985874 
0.000237452 -0.000102962 0.0985348 
0.000134709 -0.000110226 0.098578 
0.000154201 -0.000116364 0.0985857 
-0.000129786 -0.000112964 0.198543 
7.77405e-05 -0.0001447 0.19869 
-4.51503e-05 -0.000118954 0.0987137 
2.71819e-05 -0.000126702 0.198733 
6.18452e-05 -0.000119274 0.198698 
-0.000271588 -9.45404e-05 0.198265 
0.000173461 -9.49141e-05 0.147919 
0.000261222 -0.000110621 0.098529 
0.000169954 -8.70703e-05 0.147759 
1.94676e-05 -0.000115176 0.0987166 
-4.09737e-05 -0.000161045 0.198724 
-1.52734e-05 -0.000146462 0.198747 
-2.72069e-05 -0.000138529 0.198721 
-9.45023e-05 -2.23736e-05 0.198462 
8.24293e-05 -0.00014449 0.148006 
0.000201692 -0.000194003 0.0985189 
-0.00013989 -4.62554e-05 0.198457 
-0.000176737 -0.000192527 0.0985956 
0.000142749 -4.88281e-05 0.198525 
-6.83946e-05 -0.000149917 0.148047 
-0.000123353 -0.000204751 0.0985958 
0.00015314 -9.35615e-05 0.198547 
0.000194829 -0.000107856 0.198325 
-0.00021618 -0.000118373 0.0986262 
-0.000263143 -0.000126712 0.0986073 
-0.000123353 -0.000204751 0.0985958 
0.000115545 -2.46522e-05 0.198449 
-7.45435e-05 -0.000178022 0.148168 
-9.62771e-05 -0.000260633 0.0985874 
1.5664e-05 -0.00034645 0.0985479 
9.39117e-06 -0.000272596 0.147822 
1.12507e-05 -0.000264686 0.14792 
-8.99073e-07 7.381e-05 0.19836 
5.76615e-05 -0.000108231 0.0986621 
-0.000109183 -0.000162325 0.198604 
6.78629e-05 -7.62124e-05 0.0986654 
-6.07481e-05 -0.000148206 0.198686 
-8.47088e-05 5.20099e-06 0.198324 
8.7723e-05 -0.000206549 0.0985646 
9.41511e-05 -0.000250563 0.0985415 
-5.26467e-05 8.09226e-06 0.198504 
-8.47088e-05 5.20099e-06 0.198324 
9.01172e-05 -0.000166427 0.148138 
0.000130569 -0.000213373 0.098537 
-9.45023e-05 -2.23736e-05 0.198462 
-5.17878e-05 -0.000102674 0.198632 
-2.62373e-05 -0.000103121 0.198663 
7.70838e-05 -0.000143042 0.0986031 
-4.98937e-05 -7.73269e-05 0.198603 
-2.26558e-05 -0.000309243 0.198617 
-1.15848e-05 -8.89347e-06 0.148211 
1.01766e-05 3.04368e-05 0.0987567 
-2.04354e-06 -1.19561e-05 0.148073 
3.82481e-05 -8.60176e-05 0.098698 
1.70095e-05 -8.50517e-05 0.0987243 
1.94676e-05 -0.000115176 0.0987166 
-4.09737e-05 -0.000161045 0.198724 
2.42564e-05 -0.000214768 0.198716 
-6.76343e-07 -0.000174658 0.198765 
1.51222e-05 -0.000153363 0.198763 
-5.3681e-06 -9.10017e-05 0.0987516 
3.82481e-05 -8.60176e-05 0.098698 
1.94676e-05 -0.000115176 0.0987166 
3.41961e-05 -0.000112834 0.0986923 
-4.09737e-05 -0.000161045 0.198724 
-0.0002164 -0.000117584 0.198349 
-0.000225631 -0.000103818 0.198345 
0.000237452 -0.000102962 0.0985348 
0.000148215 -7.66026e-05 0.147805 
0.000151874 -0.000160644 0.198496 
7.77405e-05 -0.0001447 0.19869 
0.000147038 -0.000128922 0.198616 
-8.53275e-05 -0.000100946 0.0986885 
1.76637e-05 -0.000140062 0.0987148 
1.22125e-05 -0.000140349 0.0987248 
1.30646e-05 -0.000142502 0.0987191 
5.91828e-06 -0.000135001 0.144545 
-2.23137e-05 -8.31625e-05 0.19864 
-4.77656e-05 -4.70591e-05 0.198566 
7.76625e-05 -0.00016456 0.0985853 
-4.98937e-05 -7.73269e-05 0.198603 
1.64494e-05 -0.000112346 0.198711 
9.50863e-06 -0.000107259 0.198699 
2.06858e-05 -9.60047e-05 0.19869 
-9.20092e-06 -0.000147097 0.098688 
-6.76343e-07 -0.000174658 0.198765 
-2.41524e-05 -0.00018041 0.198749 
1.01837e-05 -7.7034e-05 0.0987494 
-8.20485e-06 -0.000237665 0.198722 
-4.26277e-05 -0.000332007 0.0985467 
3.57854e-05 3.6476e-05 0.198469 
7.49347e-05 4.96516e-05 0.198308 
-2.73093e-05 -0.000226381 0.147901 
-0.000111037 -0.000119808 0.0986719 
0.000147038 -0.000128922 0.198616 
6.18452e-05 -0.000119274 0.198698 
-8.53275e-05 -0.000100946 0.0986885 
9.02248e-05 -9.35233e-06 0.0986701 
8.1177e-05 -3.99744e-05 0.0986789 
5.66904e-05 -1.30172e-05 0.0987075 
2.55454e-05 -4.87602e-05 0.148319 
7.08831e-05 -0.000238612 0.198689 
0.000108094 -0.000228054 0.1985 
-6.05035e-05 -1.87932e-05 0.0987547 
-4.66989e-05 -6.397e-05 0.0987407 
-6.60538e-07 -9.60737e-05 0.198679 
1.72939e-05 -0.000176191 0.098641 
-8.94597e-06 -8.41958e-05 0.19865 
-1.38298e-06 -6.51131e-05 0.198646 
-0.000225631 -0.000103818 0.198345 
0.000237452 -0.000102962 0.0985348 
0.000154201 -0.000116364 0.0985857 
-0.000129786 -0.000112964 0.198543 
3.12223e-05 -6.35297e-05 0.198652 
-3.24313e-05 -0.000194462 0.0986156 
-3.2455e-05 -0.000162827 0.0986497 
-1.07643e-05 -0.000166677 0.0986426 
9.41511e-05 -0.000250563 0.0985415 
4.20888e-05 -0.000288366 0.0985388 
5.42862e-05 -0.000191439 0.148096 
-5.26467e-05 8.09226e-06 0.198504 
4.07179e-05 -0.00012503 0.0986871 
-6.07481e-05 -0.000148206 0.198686 
-2.72069e-05 -0.000138529 0.198721 
-4.8482e-05 -0.000130928 0.198686 
9.82497e-05 -0.000127142 0.0986226 
-5.17878e-05 -0.000102674 0.198632 
-0.000114455 -0.000104408 0.19856 
-6.68664e-05 -0.000116965 0.198631 
-5.26467e-05 8.09226e-06 0.198504 
-8.47088e-05 5.20099e-06 0.198324 
8.7723e-05 -0.000206549 0.0985646 
-4.77656e-05 -4.70591e-05 0.198566 
0.000173461 -9.49141e-05 0.147919 
0.000203037 -0.000149054 0.098534 
0.00012839 -0.000130446 0.147993 
-0.000170233 -7.41135e-05 0.198407 
3.40307e-05 -0.000174673 0.0986113 
-2.09937e-05 -5.64184e-05 0.19861 
-2.23137e-05 -8.31625e-05 0.19864 
-8.94597e-06 -8.41958e-05 0.19865 
1.74413e-05 -0.000135021 0.198746 
-1.17395e-05 -0.000136227 0.0987276 
-1.22698e-05 -0.000127505 0.0987371 
2.68461e-06 -0.000136444 0.156859 
-6.38574e-05 -0.000184374 0.0986254 
7.74044e-05 -2.50285e-07 0.198569 
0.000115545 -2.46522e-05 0.198449 
-9.62771e-05 -0.000260633 0.0985874 
-0.000176737 -0.000192527 0.0985956 
-9.44893e-05 -0.000170583 0.0986275 
0.000142749 -4.88281e-05 0.198525 
-0.000123353 -0.000204751 0.0985958 
9.02248e-05 -9.35233e-06 0.0986701 
1.51377e-05 -6.24202e-05 0.14811 
8.1177e-05 -3.99744e-05 0.0986789 
2.55454e-05 -4.87602e-05 0.148319 
-2.26558e-05 -0.000309243 0.198617 
1.01766e-05 3.04368e-05 0.0987567 
1.61452e-05 -3.13073e-05 0.0987437 
-8.20485e-06 -0.000237665 0.198722 
3.57854e-05 3.6476e-05 0.198469 
3.52282e-05 -2.73774e-05 0.198581 
-1.61271e-05 -0.000219308 0.0985911 
-5.89576e-05 -0.000270146 0.0985699 
-0.00021618 -0.000118373 0.0986262 
0.000112561 -0.000112808 0.19862 
0.000194829 -0.000107856 0.198325 
0.00015314 -9.35615e-05 0.198547 
-0.000141043 -0.000141237 0.19856 
-0.0002164 -0.000117584 0.198349 
0.000167915 -8.46023e-05 0.0985589 
6.20454e-05 -5.50934e-05 0.148112 
3.82481e-05 -8.60176e-05 0.098698 
5.66904e-05 -1.30172e-05 0.0987075 
-5.38558e-05 -0.000208467 0.198699 
-0.000106893 -0.000205081 0.198653 
-9.38596e-05 -0.000128843 0.198631 
-0.0002164 -0.000117584 0.198349 
0.000167915 -8.46023e-05 0.0985589 
-0.000141043 -0.000141237 0.19856 
-9.21463e-06 -0.000134663 0.198732 
2.59372e-06 -0.000136768 0.156021 
1.6006e-05 -0.000135598 0.0987214 
5.91828e-06 -0.000135001 0.144545 
0.000142749 -4.88281e-05 0.198525 
5.50887e-05 -7.07673e-05 0.19864 
0.000115545 -2.46522e-05 0.198449 
-9.44893e-05 -0.000170583 0.0986275 
6.23988e-05 -0.000133868 0.0986476 
-2.62373e-05 -0.000103121 0.198663 
-5.17878e-05 -0.000102674 0.198632 
-3.19666e-05 -0.000116689 0.198677 
-0.00016144 -0.000100696 0.0986497 
0.000147038 -0.000128922 0.198616 
-0.000111037 -0.000119808 0.0986719 
-8.53275e-05 -0.000100946 0.0986885 
2.06858e-05 -9.60047e-05 0.19869 
3.08965e-05 -0.000102342 0.198696 
1.64494e-05 -0.000112346 0.198711 
-2.16307e-05 -0.000144661 0.0986907 
1.99599e-05 -0.000142453 0.0987033 
1.45742e-05 -0.000143765 0.0987128 
4.28576e-06 -0.000134371 0.150125 
5.91828e-06 -0.000135001 0.144545 
9.54234e-06 -0.000145571 0.0987084 
1.07972e-05 -0.000144509 0.0987131 
7.10638e-06 -0.000144703 0.0987148 
3.64261e-06 -0.000130615 0.15648 
-2.62373e-05 -0.000103121 0.198663 
-2.23137e-05 -8.31625e-05 0.19864 
5.62725e-05 -0.000152373 0.0986219 
-4.98937e-05 -7.73269e-05 0.198603 
-9.61398e-06 -1.64495e-06 0.198543 
-2.15634e-05 5.68939e-05 0.19835 
3.69664e-05 -0.000241054 0.0985792 
-5.26467e-05 8.09226e-06 0.198504 
-2.20644e-05 -5.43625e-05 0.148267 
7.08831e-05 -0.000238612 0.198689 
0.000108094 -0.000228054 0.1985 
-6.05035e-05 -1.87932e-05 0.0987547 
0.00015314 -9.35615e-05 0.198547 
7.79548e-05 -8.71934e-05 0.198639 
-0.00017295 -0.000150118 0.0986149 
-9.2961e-05 -0.000141415 0.0986549 
5.50887e-05 -7.07673e-05 0.19864 
7.79548e-05 -8.71934e-05 0.198639 
-5.27775e-05 -0.000154192 0.0986567 
-9.44893e-05 -0.000170583 0.0986275 
3.52282e-05 -2.73774e-05 0.198581 
7.49347e-05 4.96516e-05 0.198308 
7.74044e-05 -2.50285e-07 0.198569 
-5.89576e-05 -0.000270146 0.0985699 
-6.05035e-05 -1.87932e-05 0.0987547 
-2.24766e-05 -2.21132e-05 0.098766 
7.08831e-05 -0.000238612 0.198689 
-1.68326e-05 -5.64173e-05 0.0987538 
-8.20485e-06 -0.000237665 0.198722 
1.01766e-05 3.04368e-05 0.0987567 
1.01837e-05 -7.7034e-05 0.0987494 
-3.12835e-06 -4.04236e-05 0.0987595 
-1.52734e-05 -0.000146462 0.198747 
-2.41524e-05 -0.00018041 0.198749 
8.29905e-06 -0.000109342 0.0987371 
-6.76343e-07 -0.000174658 0.198765 
5.51477e-06 -0.000131311 0.149008 
4.98482e-06 -0.000125047 0.156442 
2.90976e-05 -0.000143215 0.0986845 
5.65505e-06 -0.000131786 0.149519 
-1.15848e-05 -8.89347e-06 0.148211 
1.01766e-05 3.04368e-05 0.0987567 
2.22232e-05 6.85568e-06 0.0987367 
-2.26558e-05 -0.000309243 0.198617 
0.000108094 -0.000228054 0.1985 
-4.60891e-05 -5.56599e-05 0.148261 
-8.31007e-05 -3.46911e-05 0.0987316 
0.000131267 -0.000183147 0.198631 
4.20888e-05 -0.000288366 0.0985388 
9.41511e-05 -0.000250563 0.0985415 
3.69664e-05 -0.000241054 0.0985792 
-5.26467e-05 8.09226e-06 0.198504 
0.000148215 -7.66026e-05 0.147805 
0.000237452 -0.000102962 0.0985348 
-0.0002164 -0.000117584 0.198349 
0.000103177 -7.2382e-05 0.148113 
-5.77733e-07 -0.000143366 0.0987195 
3.53522e-06 -0.000144725 0.0987148 
5.22721e-06 -0.000144263 0.0987198 
3.42555e-06 -0.000133458 0.153642 
0.000185747 -6.64946e-05 0.198351 
0.00015314 -9.35615e-05 0.198547 
-0.00017295 -0.000150118 0.0986149 
-0.000263143 -0.000126712 0.0986073 
3.82481e-05 -8.60176e-05 0.098698 
5.66904e-05 -1.30172e-05 0.0987075 
1.70095e-05 -8.50517e-05 0.0987243 
-5.38558e-05 -0.000208467 0.198699 
-4.51503e-05 -0.000118954 0.0987137 
2.71819e-05 -0.000126702 0.198733 
3.95773e-05 -0.000147386 0.198744 
7.77405e-05 -0.0001447 0.19869 
-2.24766e-05 -2.21132e-05 0.098766 
-2.20644e-05 -5.43625e-05 0.148267 
-2.65287e-05 -4.34172e-05 0.0987705 
-6.05035e-05 -1.87932e-05 0.0987547 
2.71819e-05 -0.000126702 0.198733 
3.95773e-05 -0.000147386 0.198744 
1.74413e-05 -0.000135021 0.198746 
-2.02953e-05 -0.000129453 0.0987285 
7.10638e-06 -0.000144703 0.0987148 
3.53522e-06 -0.000144725 0.0987148 
3.64261e-06 -0.000130615 0.15648 
3.42555e-06 -0.000133458 0.153642 
2.49659e-05 -0.000199876 0.0986139 
-9.61398e-06 -1.64495e-06 0.198543 
-2.09937e-05 -5.64184e-05 0.19861 
-8.94597e-06 -8.41958e-05 0.19865 
-8.75286e-05 -8.62582e-05 0.198575 
-5.17878e-05 -0.000102674 0.198632 
7.70838e-05 -0.000143042 0.0986031 
-4.98937e-05 -7.73269e-05 0.198603 
3.69664e-05 -0.000241054 0.0985792 
9.41511e-05 -0.000250563 0.0985415 
5.65055e-05 -0.00020177 0.0985809 
-5.26467e-05 8.09226e-06 0.198504 
2.61773e-05 -0.0001358 0.0987025 
5.91828e-06 -0.000135001 0.144545 
2.68017e-05 -0.00013944 0.0986946 
5.09189e-06 -0.000130254 0.149913 
5.76615e-05 -0.000108231 0.0986621 
-9.38596e-05 -0.000128843 0.198631 
-0.000109183 -0.000162325 0.198604 
-6.07481e-05 -0.000148206 0.198686 
2.49659e-05 -0.000199876 0.0986139 
-9.61398e-06 -1.64495e-06 0.198543 
-8.94597e-06 -8.41958e-05 0.19865 
-1.38298e-06 -6.51131e-05 0.198646 
9.49126e-06 -0.000144124 0.0987197 
3.64261e-06 -0.000130615 0.15648 
1.07972e-05 -0.000144509 0.0987131 
4.28576e-06 -0.000134371 0.150125 
-0.000112397 -0.000254177 0.198487 
9.02248e-05 -9.35233e-06 0.0986701 
1.51377e-05 -6.24202e-05 0.14811 
-0.000106893 -0.000205081 0.198653 
-8.75286e-05 -8.62582e-05 0.198575 
0.000126173 -0.000161717 0.0985607 
0.000203037 -0.000149054 0.098534 
-0.00013989 -4.62554e-05 0.198457 
-8.47088e-05 5.20099e-06 0.198324 
5.42862e-05 -0.000191439 0.148096 
7.37262e-05 -0.000184518 0.148119 
-0.000157862 0.000130993 0.197624 
0.000147038 -0.000128922 0.198616 
-8.1556e-05 -7.73372e-05 0.148064 
-0.00016144 -0.000100696 0.0986497 
0.000194829 -0.000107856 0.198325 
-0.00017295 -0.000150118 0.0986149 
0.000142749 -4.88281e-05 0.198525 
0.000185747 -6.64946e-05 0.198351 
-0.000176737 -0.000192527 0.0985956 
6.20454e-05 -5.50934e-05 0.148112 
-0.0002164 -0.000117584 0.198349 
0.000167915 -8.46023e-05 0.0985589 
0.000103177 -7.2382e-05 0.148113 
-0.00013989 -4.62554e-05 0.198457 
0.000126173 -0.000161717 0.0985607 
-9.45023e-05 -2.23736e-05 0.198462 
-4.98937e-05 -7.73269e-05 0.198603 
-7.40084e-05 -5.62546e-05 0.148217 
-8.1556e-05 -7.73372e-05 0.148064 
-0.000105702 -8.14495e-05 0.0986264 
-0.000115557 -7.78762e-05 0.0986784 
-8.31007e-05 -3.46911e-05 0.0987316 
-4.08014e-05 -4.5733e-05 0.148353 
-4.60891e-05 -5.56599e-05 0.148261 
0.000108094 -0.000228054 0.1985 
4.14573e-05 -0.000180131 0.198748 
1.51222e-05 -0.000153363 0.198763 
3.95773e-05 -0.000147386 0.198744 
-2.04563e-05 -0.000106953 0.0987433 
9.02248e-05 -9.35233e-06 0.0986701 
6.56697e-05 -1.0594e-05 0.098628 
4.75027e-05 -4.58839e-05 0.148271 
9.05187e-05 -4.35611e-05 0.0986288 
-1.61271e-05 -0.000219308 0.0985911 
-4.26277e-05 -0.000332007 0.0985467 
3.57854e-05 3.6476e-05 0.198469 
-5.89576e-05 -0.000270146 0.0985699 
-0.000115557 -7.78762e-05 0.0986784 
-7.40084e-05 -5.62546e-05 0.148217 
-4.60891e-05 -5.56599e-05 0.148261 
-8.48685e-05 -6.33643e-05 0.0986786 
-4.81241e-06 -0.00014148 0.0987264 
2.24402e-06 -0.000142345 0.0987313 
-4.51911e-06 -0.000138143 0.0987322 
2.68461e-06 -0.000136444 0.156859 
-0.00013989 -4.62554e-05 0.198457 
0.00012839 -0.000130446 0.147993 
0.000203037 -0.000149054 0.098534 
-0.000170233 -7.41135e-05 0.198407 
-8.47088e-05 5.20099e-06 0.198324 
9.41511e-05 -0.000250563 0.0985415 
5.42862e-05 -0.000191439 0.148096 
-5.26467e-05 8.09226e-06 0.198504 
-5.69415e-05 -0.000269294 0.198609 
2.22232e-05 6.85568e-06 0.0987367 
5.66904e-05 -1.30172e-05 0.0987075 
-5.38558e-05 -0.000208467 0.198699 
9.02248e-05 -9.35233e-06 0.0986701 
-0.000131416 -0.000183572 0.198468 
1.51377e-05 -6.24202e-05 0.14811 
-0.000106893 -0.000205081 0.198653 
6.78629e-05 -7.62124e-05 0.0986654 
9.05187e-05 -4.35611e-05 0.0986288 
9.02248e-05 -9.35233e-06 0.0986701 
-0.000106893 -0.000205081 0.198653 
-2.09937e-05 -5.64184e-05 0.19861 
-5.26467e-05 8.09226e-06 0.198504 
5.65055e-05 -0.00020177 0.0985809 
-4.77656e-05 -4.70591e-05 0.198566 
-6.60538e-07 -9.60737e-05 0.198679 
-1.14925e-06 -0.000113867 0.198702 
4.98482e-06 -0.000125047 0.156442 
5.7001e-06 -0.000128265 0.150752 
-4.25467e-05 -0.000106974 0.0987268 
-2.04563e-05 -0.000106953 0.0987433 
3.95773e-05 -0.000147386 0.198744 
-2.02953e-05 -0.000129453 0.0987285 
-0.000105702 -8.14495e-05 0.0986264 
-8.1556e-05 -7.73372e-05 0.148064 
-0.00016144 -0.000100696 0.0986497 
-0.000115557 -7.78762e-05 0.0986784 
-0.000112397 -0.000254177 0.198487 
-5.38558e-05 -0.000208467 0.198699 
5.66904e-05 -1.30172e-05 0.0987075 
-0.000106893 -0.000205081 0.198653 
-4.81241e-06 -0.00014148 0.0987264 
3.42555e-06 -0.000133458 0.153642 
2.24402e-06 -0.000142345 0.0987313 
2.68461e-06 -0.000136444 0.156859 
-2.24766e-05 -2.21132e-05 0.098766 
-2.20644e-05 -5.43625e-05 0.148267 
-5.3456e-06 -1.04369e-05 0.148323 
-2.65287e-05 -4.34172e-05 0.0987705 
-6.38574e-05 -0.000184374 0.0986254 
-3.24313e-05 -0.000194462 0.0986156 
7.74044e-05 -2.50285e-07 0.198569 
-9.62771e-05 -0.000260633 0.0985874 
-5.89576e-05 -0.000270146 0.0985699 
7.74044e-05 -2.50285e-07 0.198569 
-3.24313e-05 -0.000194462 0.0986156 
-9.62771e-05 -0.000260633 0.0985874 
3.93023e-05 -0.000236793 0.1481 
6.09343e-05 -0.000251581 0.0984915 
4.20888e-05 -0.000288366 0.0985388 
5.42862e-05 -0.000191439 0.148096 
4.75027e-05 -4.58839e-05 0.148271 
1.51377e-05 -6.24202e-05 0.14811 
6.56697e-05 -1.0594e-05 0.098628 
9.02248e-05 -9.35233e-06 0.0986701 
0.000154201 -0.000116364 0.0985857 
-0.000114455 -0.000104408 0.19856 
-0.000129786 -0.000112964 0.198543 
-6.68664e-05 -0.000116965 0.198631 
0.000142749 -4.88281e-05 0.198525 
0.000115545 -2.46522e-05 0.198449 
-6.83946e-05 -0.000149917 0.148047 
-0.000123353 -0.000204751 0.0985958 
7.16056e-05 -0.000106218 0.198668 
6.18452e-05 -0.000119274 0.198698 
2.88841e-05 -0.000116292 0.198716 
-6.81769e-05 -0.000130198 0.0986878 
3.52282e-05 -2.73774e-05 0.198581 
-3.24313e-05 -0.000194462 0.0986156 
-1.61271e-05 -0.000219308 0.0985911 
-5.89576e-05 -0.000270146 0.0985699 
4.74991e-06 -0.000232419 0.0986012 
1.46834e-05 -0.000284854 0.0985782 
3.55265e-06 6.5238e-07 0.198553 
-2.40418e-06 -0.000316898 0.0985423 
0.000108851 -5.99394e-05 0.0985754 
4.75027e-05 -4.58839e-05 0.148271 
9.05187e-05 -4.35611e-05 0.0986288 
0.000123985 -5.89767e-05 0.0985898 
2.06478e-05 -0.000232154 0.0986109 
-9.61398e-06 -1.64495e-06 0.198543 
-1.38298e-06 -6.51131e-05 0.198646 
3.55265e-06 6.5238e-07 0.198553 
5.66904e-05 -1.30172e-05 0.0987075 
3.82481e-05 -8.60176e-05 0.098698 
9.02248e-05 -9.35233e-06 0.0986701 
-0.000106893 -0.000205081 0.198653 
1.64494e-05 -0.000112346 0.198711 
2.88841e-05 -0.000116292 0.198716 
1.56304e-05 -0.000123738 0.198731 
2.7285e-06 -0.000128764 0.154597 
8.7723e-05 -0.000206549 0.0985646 
-8.47088e-05 5.20099e-06 0.198324 
-9.45023e-05 -2.23736e-05 0.198462 
-4.77656e-05 -4.70591e-05 0.198566 
0.000115545 -2.46522e-05 0.198449 
-7.45435e-05 -0.000178022 0.148168 
-6.83946e-05 -0.000149917 0.148047 
-0.000123353 -0.000204751 0.0985958 
-8.47389e-05 0.000188738 0.197633 
5.42862e-05 -0.000191439 0.148096 
3.93023e-05 -0.000236793 0.1481 
-2.15634e-05 5.68939e-05 0.19835 
9.78998e-06 -0.000135056 0.098732 
6.42127e-06 -0.000140011 0.0987325 
1.22125e-05 -0.000140349 0.0987248 
2.59372e-06 -0.000136768 0.156021 
5.66904e-05 -1.30172e-05 0.0987075 
-5.69415e-05 -0.000269294 0.198609 
-5.38558e-05 -0.000208467 0.198699 
-0.000112397 -0.000254177 0.198487 
-0.000111047 -0.00012518 0.0986562 
-5.99953e-05 -0.000136715 0.0986759 
7.16056e-05 -0.000106218 0.198668 
-9.2961e-05 -0.000141415 0.0986549 
-3.46312e-07 -0.000145087 0.0987096 
-5.77733e-07 -0.000143366 0.0987195 
-7.26374e-06 -0.000142568 0.0987131 
2.7285e-06 -0.000128764 0.154597 
-0.000111047 -0.00012518 0.0986562 
0.00015314 -9.35615e-05 0.198547 
-0.00017295 -0.000150118 0.0986149 
-9.2961e-05 -0.000141415 0.0986549 
2.42564e-05 -0.000214768 0.198716 
-8.20485e-06 -0.000237665 0.198722 
-6.76343e-07 -0.000174658 0.198765 
-3.12835e-06 -4.04236e-05 0.0987595 
7.76625e-05 -0.00016456 0.0985853 
0.000126173 -0.000161717 0.0985607 
7.70838e-05 -0.000143042 0.0986031 
-4.98937e-05 -7.73269e-05 0.198603 
7.16056e-05 -0.000106218 0.198668 
-5.99953e-05 -0.000136715 0.0986759 
-0.000111047 -0.00012518 0.0986562 
-6.81769e-05 -0.000130198 0.0986878 
4.75027e-05 -4.58839e-05 0.148271 
0.000108851 -5.99394e-05 0.0985754 
6.20454e-05 -5.50934e-05 0.148112 
0.000123985 -5.89767e-05 0.0985898 
-9.44893e-05 -0.000170583 0.0986275 
0.000142749 -4.88281e-05 0.198525 
-0.00017295 -0.000150118 0.0986149 
-0.000176737 -0.000192527 0.0985956 
6.24499e-06 -0.00014552 0.0987067 
-3.46312e-07 -0.000145087 0.0987096 
2.28184e-06 -0.000146766 0.0987 
4.15397e-06 -0.000128299 0.15489 
-6.83946e-05 -0.000149917 0.148047 
0.000317931 -5.39e-06 0.197617 
0.000185747 -6.64946e-05 0.198351 
-0.000107352 -0.000145662 0.148105 
-0.0002164 -0.000117584 0.198349 
0.000237452 -0.000102962 0.0985348 
-0.000225631 -0.000103818 0.198345 
-0.000129786 -0.000112964 0.198543 
-5.3456e-06 -1.04369e-05 0.148323 
3.65122e-05 -0.000270076 0.198577 
0.000115378 -0.000407117 0.197872 
-2.20644e-05 -5.43625e-05 0.148267 
1.61452e-05 -3.13073e-05 0.0987437 
2.22232e-05 6.85568e-06 0.0987367 
1.01766e-05 3.04368e-05 0.0987567 
-2.26558e-05 -0.000309243 0.198617 
3.30413e-05 -2.77078e-05 0.0987212 
5.66904e-05 -1.30172e-05 0.0987075 
2.55454e-05 -4.87602e-05 0.148319 
1.0395e-05 -2.82875e-05 0.148309 
-0.000137108 -0.000388031 0.197809 
-5.69415e-05 -0.000269294 0.198609 
1.0395e-05 -2.82875e-05 0.148309 
-0.000112397 -0.000254177 0.198487 
3.08965e-05 -0.000102342 0.198696 
7.79548e-05 -8.71934e-05 0.198639 
7.16056e-05 -0.000106218 0.198668 
-9.2961e-05 -0.000141415 0.0986549 
5.24145e-05 -0.000173747 0.0986015 
-2.09937e-05 -5.64184e-05 0.19861 
-4.77656e-05 -4.70591e-05 0.198566 
-2.23137e-05 -8.31625e-05 0.19864 
-1.68326e-05 -5.64173e-05 0.0987538 
-2.04563e-05 -0.000106953 0.0987433 
4.14573e-05 -0.000180131 0.198748 
-4.66989e-05 -6.397e-05 0.0987407 
-0.000141189 -9.49616e-05 0.14809 
-8.1556e-05 -7.73372e-05 0.148064 
0.000379622 -0.00011315 0.197514 
0.000194829 -0.000107856 0.198325 
1.45742e-05 -0.000143765 0.0987128 
4.28576e-06 -0.000134371 0.150125 
5.51477e-06 -0.000131311 0.149008 
5.65505e-06 -0.000131786 0.149519 
-4.77656e-05 -4.70591e-05 0.198566 
-9.45023e-05 -2.23736e-05 0.198462 
7.76625e-05 -0.00016456 0.0985853 
-4.98937e-05 -7.73269e-05 0.198603 
-6.6197e-05 -0.000224688 0.0985424 
-5.02644e-05 -0.000174951 0.148047 
-3.89032e-05 -0.000207832 0.148118 
-5.89576e-05 -0.000270146 0.0985699 
3.55265e-06 6.5238e-07 0.198553 
1.06806e-05 0.000100076 0.198327 
3.57854e-05 3.6476e-05 0.198469 
-2.40418e-06 -0.000316898 0.0985423 
0.000108094 -0.000228054 0.1985 
-8.31007e-05 -3.46911e-05 0.0987316 
7.72807e-05 -0.000175176 0.198705 
0.000131267 -0.000183147 0.198631 
-6.6197e-05 -0.000224688 0.0985424 
-5.02644e-05 -0.000174951 0.148047 
-5.89576e-05 -0.000270146 0.0985699 
-9.62771e-05 -0.000260633 0.0985874 
7.79548e-05 -8.71934e-05 0.198639 
0.000185747 -6.64946e-05 0.198351 
0.00015314 -9.35615e-05 0.198547 
-0.00017295 -0.000150118 0.0986149 
5.50887e-05 -7.07673e-05 0.19864 
3.12223e-05 -6.35297e-05 0.198652 
7.74044e-05 -2.50285e-07 0.198569 
-6.38574e-05 -0.000184374 0.0986254 
-8.20485e-06 -0.000237665 0.198722 
-2.26558e-05 -0.000309243 0.198617 
1.01766e-05 3.04368e-05 0.0987567 
5.21066e-06 -0.000302459 0.198617 
-0.0002164 -0.000117584 0.198349 
0.000167915 -8.46023e-05 0.0985589 
0.000237452 -0.000102962 0.0985348 
-0.000129786 -0.000112964 0.198543 
-4.60891e-05 -5.56599e-05 0.148261 
-9.37577e-05 -7.09436e-05 0.0987112 
-0.000115557 -7.78762e-05 0.0986784 
-8.48685e-05 -6.33643e-05 0.0986786 
-0.000284349 -0.000234079 0.19771 
-0.000131416 -0.000183572 0.198468 
4.75027e-05 -4.58839e-05 0.148271 
6.20454e-05 -5.50934e-05 0.148112 
1.30646e-05 -0.000142502 0.0987191 
8.28895e-06 -0.000143238 0.0987259 
9.49126e-06 -0.000144124 0.0987197 
4.28576e-06 -0.000134371 0.150125 
-2.26558e-05 -0.000309243 0.198617 
-5.69415e-05 -0.000269294 0.198609 
-1.15848e-05 -8.89347e-06 0.148211 
-4.50608e-05 -0.000482632 0.197667 
-5.69415e-05 -0.000269294 0.198609 
1.0395e-05 -2.82875e-05 0.148309 
-1.15848e-05 -8.89347e-06 0.148211 
-4.50608e-05 -0.000482632 0.197667 
-1.68326e-05 -5.64173e-05 0.0987538 
4.14573e-05 -0.000180131 0.198748 
7.08831e-05 -0.000238612 0.198689 
-4.66989e-05 -6.397e-05 0.0987407 
1.45742e-05 -0.000143765 0.0987128 
9.49126e-06 -0.000144124 0.0987197 
1.07972e-05 -0.000144509 0.0987131 
4.28576e-06 -0.000134371 0.150125 
0.000115545 -2.46522e-05 0.198449 
7.74044e-05 -2.50285e-07 0.198569 
-5.02644e-05 -0.000174951 0.148047 
-9.62771e-05 -0.000260633 0.0985874 
0.000126173 -0.000161717 0.0985607 
0.000201692 -0.000194003 0.0985189 
0.000203037 -0.000149054 0.098534 
-0.00013989 -4.62554e-05 0.198457 
-2.46153e-05 -0.000320305 0.0984903 
-4.26277e-05 -0.000332007 0.0985467 
-2.73093e-05 -0.000226381 0.147901 
-1.14611e-06 -0.000270633 0.147927 
1.0395e-05 -2.82875e-05 0.148309 
2.55454e-05 -4.87602e-05 0.148319 
-0.000137108 -0.000388031 0.197809 
-0.000112397 -0.000254177 0.198487 
5.66904e-05 -1.30172e-05 0.0987075 
3.30413e-05 -2.77078e-05 0.0987212 
2.22232e-05 6.85568e-06 0.0987367 
1.0395e-05 -2.82875e-05 0.148309 
3.69664e-05 -0.000241054 0.0985792 
-9.61398e-06 -1.64495e-06 0.198543 
-5.26467e-05 8.09226e-06 0.198504 
-2.09937e-05 -5.64184e-05 0.19861 
1.70095e-05 -8.50517e-05 0.0987243 
3.82481e-05 -8.60176e-05 0.098698 
-5.38558e-05 -0.000208467 0.198699 
-4.09737e-05 -0.000161045 0.198724 
-0.000112397 -0.000254177 0.198487 
5.66904e-05 -1.30172e-05 0.0987075 
9.02248e-05 -9.35233e-06 0.0986701 
-0.000106893 -0.000205081 0.198653 
-1.61271e-05 -0.000219308 0.0985911 
3.57854e-05 3.6476e-05 0.198469 
-4.26277e-05 -0.000332007 0.0985467 
-2.40418e-06 -0.000316898 0.0985423 
3.82481e-05 -8.60176e-05 0.098698 
-0.000106893 -0.000205081 0.198653 
-4.09737e-05 -0.000161045 0.198724 
-6.07481e-05 -0.000148206 0.198686 
3.55265e-06 6.5238e-07 0.198553 
1.52826e-05 -4.57119e-05 0.198619 
-1.38298e-06 -6.51131e-05 0.198646 
4.74991e-06 -0.000232419 0.0986012 
3.64261e-06 -0.000130615 0.15648 
5.51477e-06 -0.000131311 0.149008 
1.07972e-05 -0.000144509 0.0987131 
4.28576e-06 -0.000134371 0.150125 
-0.000131416 -0.000183572 0.198468 
9.02248e-05 -9.35233e-06 0.0986701 
9.05187e-05 -4.35611e-05 0.0986288 
-0.000106893 -0.000205081 0.198653 
6.09343e-05 -0.000251581 0.0984915 
9.41511e-05 -0.000250563 0.0985415 
4.20888e-05 -0.000288366 0.0985388 
5.42862e-05 -0.000191439 0.148096 
-7.22207e-06 -0.000141663 0.0987201 
-5.77733e-07 -0.000143366 0.0987195 
-4.81241e-06 -0.00014148 0.0987264 
3.42555e-06 -0.000133458 0.153642 
0.000203037 -0.000149054 0.098534 
-8.75286e-05 -8.62582e-05 0.198575 
-0.00013989 -4.62554e-05 0.198457 
-0.000170233 -7.41135e-05 0.198407 
9.01172e-05 -0.000166427 0.148138 
8.24293e-05 -0.00014449 0.148006 
-9.45023e-05 -2.23736e-05 0.198462 
-0.000254393 5.81254e-05 0.197598 
0.000142749 -4.88281e-05 0.198525 
7.79548e-05 -8.71934e-05 0.198639 
-9.44893e-05 -0.000170583 0.0986275 
-0.00017295 -0.000150118 0.0986149 
-4.8482e-05 -0.000130928 0.198686 
-1.53298e-05 -0.000127862 0.198709 
-2.72069e-05 -0.000138529 0.198721 
5.09189e-06 -0.000130254 0.149913 
2.06858e-05 -9.60047e-05 0.19869 
5.50887e-05 -7.07673e-05 0.19864 
3.08965e-05 -0.000102342 0.198696 
-5.27775e-05 -0.000154192 0.0986567 
0.00012839 -0.000130446 0.147993 
0.000213577 -0.000125901 0.0984496 
0.000203037 -0.000149054 0.098534 
0.000173461 -9.49141e-05 0.147919 
7.79548e-05 -8.71934e-05 0.198639 
0.000142749 -4.88281e-05 0.198525 
0.000185747 -6.64946e-05 0.198351 
-0.00017295 -0.000150118 0.0986149 
-0.000131416 -0.000183572 0.198468 
-0.000284349 -0.000234079 0.19771 
-0.000141043 -0.000141237 0.19856 
6.20454e-05 -5.50934e-05 0.148112 
4.17963e-06 -0.000134045 0.0987388 
-3.61778e-08 -0.000145691 0.198755 
2.68461e-06 -0.000136444 0.156859 
2.59372e-06 -0.000136768 0.156021 
1.52826e-05 -4.57119e-05 0.198619 
4.74991e-06 -0.000232419 0.0986012 
-1.61271e-05 -0.000219308 0.0985911 
-4.99163e-06 -0.000189575 0.0986234 
-0.00021618 -0.000118373 0.0986262 
0.000112561 -0.000112808 0.19862 
0.00015314 -9.35615e-05 0.198547 
-0.000111047 -0.00012518 0.0986562 
8.24293e-05 -0.00014449 0.148006 
0.00012839 -0.000130446 0.147993 
-0.00013989 -4.62554e-05 0.198457 
-0.000302978 1.29285e-05 0.197543 
2.42564e-05 -0.000214768 0.198716 
4.14573e-05 -0.000180131 0.198748 
7.08831e-05 -0.000238612 0.198689 
-1.68326e-05 -5.64173e-05 0.0987538 
-0.000263143 -0.000126712 0.0986073 
0.00015314 -9.35615e-05 0.198547 
-0.00017295 -0.000150118 0.0986149 
-0.000111047 -0.00012518 0.0986562 
0.000309205 -0.000173893 0.197732 
-8.1556e-05 -7.73372e-05 0.148064 
-7.40084e-05 -5.62546e-05 0.148217 
0.000151874 -0.000160644 0.198496 
-6.07481e-05 -0.000148206 0.198686 
-4.09737e-05 -0.000161045 0.198724 
3.41961e-05 -0.000112834 0.0986923 
-2.72069e-05 -0.000138529 0.198721 
0.000237452 -0.000102962 0.0985348 
0.000167915 -8.46023e-05 0.0985589 
-0.0002164 -0.000117584 0.198349 
0.000103177 -7.2382e-05 0.148113 
-7.40084e-05 -5.62546e-05 0.148217 
-4.60891e-05 -5.56599e-05 0.148261 
0.000295274 -0.000249823 0.197773 
0.000151874 -0.000160644 0.198496 
-7.45435e-05 -0.000178022 0.148168 
0.000115545 -2.46522e-05 0.198449 
0.000200984 0.000104373 0.197701 
-5.02644e-05 -0.000174951 0.148047 
-0.00016144 -0.000100696 0.0986497 
-0.000141189 -9.49616e-05 0.14809 
-8.1556e-05 -7.73372e-05 0.148064 
-0.000166722 -7.19016e-05 0.0985762 
-4.09737e-05 -0.000161045 0.198724 
-5.38558e-05 -0.000208467 0.198699 
1.70095e-05 -8.50517e-05 0.0987243 
-2.41524e-05 -0.00018041 0.198749 
-0.000182065 -0.000131911 0.098556 
-0.000153408 -0.000111882 0.147992 
-0.00017295 -0.000150118 0.0986149 
-0.000263143 -0.000126712 0.0986073 
-8.31007e-05 -3.46911e-05 0.0987316 
-9.37577e-05 -7.09436e-05 0.0987112 
7.72807e-05 -0.000175176 0.198705 
0.000131267 -0.000183147 0.198631 
-2.46153e-05 -0.000320305 0.0984903 
-4.26277e-05 -0.000332007 0.0985467 
-1.14611e-06 -0.000270633 0.147927 
-2.40418e-06 -0.000316898 0.0985423 
-3.47517e-06 -0.000146964 0.0986993 
4.15397e-06 -0.000128299 0.15489 
-3.46312e-07 -0.000145087 0.0987096 
2.7285e-06 -0.000128764 0.154597 
-0.000263143 -0.000126712 0.0986073 
-0.00021618 -0.000118373 0.0986262 
0.00015314 -9.35615e-05 0.198547 
-0.000111047 -0.00012518 0.0986562 
0.000142749 -4.88281e-05 0.198525 
0.000317931 -5.39e-06 0.197617 
0.000185747 -6.64946e-05 0.198351 
-6.83946e-05 -0.000149917 0.148047 
6.78629e-05 -7.62124e-05 0.0986654 
9.02248e-05 -9.35233e-06 0.0986701 
3.82481e-05 -8.60176e-05 0.098698 
-0.000106893 -0.000205081 0.198653 
0.000151871 -0.000126869 0.0985826 
0.000261222 -0.000110621 0.098529 
0.000154201 -0.000116364 0.0985857 
-0.000114455 -0.000104408 0.19856 
7.77405e-05 -0.0001447 0.19869 
6.18452e-05 -0.000119274 0.198698 
0.000147038 -0.000128922 0.198616 
-8.53275e-05 -0.000100946 0.0986885 
-9.44893e-05 -0.000170583 0.0986275 
-5.27775e-05 -0.000154192 0.0986567 
5.50887e-05 -7.07673e-05 0.19864 
-6.38574e-05 -0.000184374 0.0986254 
4.20888e-05 -0.000288366 0.0985388 
1.5664e-05 -0.00034645 0.0985479 
2.7554e-05 -0.000295876 0.0984742 
1.12507e-05 -0.000264686 0.14792 
-0.00016144 -0.000100696 0.0986497 
-0.00021618 -0.000118373 0.0986262 
-0.000141189 -9.49616e-05 0.14809 
-0.000166722 -7.19016e-05 0.0985762 
-0.00017295 -0.000150118 0.0986149 
7.79548e-05 -8.71934e-05 0.198639 
-9.44893e-05 -0.000170583 0.0986275 
-9.2961e-05 -0.000141415 0.0986549 
-3.12835e-06 -4.04236e-05 0.0987595 
-5.3681e-06 -9.10017e-05 0.0987516 
2.42564e-05 -0.000214768 0.198716 
-1.68326e-05 -5.64173e-05 0.0987538 
5.50887e-05 -7.07673e-05 0.19864 
2.06858e-05 -9.60047e-05 0.19869 
3.12223e-05 -6.35297e-05 0.198652 
-3.2455e-05 -0.000162827 0.0986497 
2.42564e-05 -0.000214768 0.198716 
-2.24766e-05 -2.21132e-05 0.098766 
-3.12835e-06 -4.04236e-05 0.0987595 
-1.68326e-05 -5.64173e-05 0.0987538 
7.08831e-05 -0.000238612 0.198689 
0.000115378 -0.000407117 0.197872 
3.65122e-05 -0.000270076 0.198577 
-2.20644e-05 -5.43625e-05 0.148267 
0.000130569 -0.000213373 0.098537 
0.000165876 -0.000190339 0.0984885 
0.000201692 -0.000194003 0.0985189 
9.01172e-05 -0.000166427 0.148138 
-0.000157862 0.000130993 0.197624 
-8.47088e-05 5.20099e-06 0.198324 
5.42862e-05 -0.000191439 0.148096 
-5.26467e-05 8.09226e-06 0.198504 
5.50887e-05 -7.07673e-05 0.19864 
7.79548e-05 -8.71934e-05 0.198639 
3.08965e-05 -0.000102342 0.198696 
-5.27775e-05 -0.000154192 0.0986567 
7.74044e-05 -2.50285e-07 0.198569 
0.000115545 -2.46522e-05 0.198449 
5.50887e-05 -7.07673e-05 0.19864 
-6.38574e-05 -0.000184374 0.0986254 
-0.000111047 -0.00012518 0.0986562 
-0.00021618 -0.000118373 0.0986262 
0.000112561 -0.000112808 0.19862 
-0.000111037 -0.000119808 0.0986719 
0.000108094 -0.000228054 0.1985 
7.08831e-05 -0.000238612 0.198689 
7.72807e-05 -0.000175176 0.198705 
-4.66989e-05 -6.397e-05 0.0987407 
8.24293e-05 -0.00014449 0.148006 
0.000201692 -0.000194003 0.0985189 
0.000165876 -0.000190339 0.0984885 
9.01172e-05 -0.000166427 0.148138 
-5.27775e-05 -0.000154192 0.0986567 
-3.2455e-05 -0.000162827 0.0986497 
5.50887e-05 -7.07673e-05 0.19864 
-6.38574e-05 -0.000184374 0.0986254 
0.000261222 -0.000110621 0.098529 
0.000203037 -0.000149054 0.098534 
0.000213577 -0.000125901 0.0984496 
0.000173461 -9.49141e-05 0.147919 
6.20454e-05 -5.50934e-05 0.148112 
0.000167915 -8.46023e-05 0.0985589 
0.000126637 -5.99167e-05 0.0985157 
0.000103177 -7.2382e-05 0.148113 
0.000171975 -0.000362181 0.19785 
-4.08014e-05 -4.5733e-05 0.148353 
-2.20644e-05 -5.43625e-05 0.148267 
0.000108094 -0.000228054 0.1985 
6.20454e-05 -5.50934e-05 0.148112 
-0.000351731 -0.000166141 0.197615 
-0.0002164 -0.000117584 0.198349 
0.000103177 -7.2382e-05 0.148113 
8.28895e-06 -0.000143238 0.0987259 
4.28576e-06 -0.000134371 0.150125 
1.30646e-05 -0.000142502 0.0987191 
2.59372e-06 -0.000136768 0.156021 
3.52282e-05 -2.73774e-05 0.198581 
1.52826e-05 -4.57119e-05 0.198619 
3.57854e-05 3.6476e-05 0.198469 
-1.61271e-05 -0.000219308 0.0985911 
2.24402e-06 -0.000142345 0.0987313 
2.68461e-06 -0.000136444 0.156859 
3.42555e-06 -0.000133458 0.153642 
2.59372e-06 -0.000136768 0.156021 
-4.25467e-05 -0.000106974 0.0987268 
-9.37577e-05 -7.09436e-05 0.0987112 
7.72807e-05 -0.000175176 0.198705 
-4.66989e-05 -6.397e-05 0.0987407 
2.24402e-06 -0.000142345 0.0987313 
8.28895e-06 -0.000143238 0.0987259 
6.42127e-06 -0.000140011 0.0987325 
2.59372e-06 -0.000136768 0.156021 
-9.21463e-06 -0.000134663 0.198732 
-3.61778e-08 -0.000145691 0.198755 
-1.52734e-05 -0.000146462 0.198747 
2.59372e-06 -0.000136768 0.156021 
-8.31007e-05 -3.46911e-05 0.0987316 
7.72807e-05 -0.000175176 0.198705 
-9.37577e-05 -7.09436e-05 0.0987112 
-4.66989e-05 -6.397e-05 0.0987407 
-8.52525e-05 -0.000238897 0.0985575 
-7.45435e-05 -0.000178022 0.148168 
-5.02644e-05 -0.000174951 0.148047 
-9.62771e-05 -0.000260633 0.0985874 
0.000295274 -0.000249823 0.197773 
-4.60891e-05 -5.56599e-05 0.148261 
0.000131267 -0.000183147 0.198631 
0.000151874 -0.000160644 0.198496 
-0.000106893 -0.000205081 0.198653 
6.78629e-05 -7.62124e-05 0.0986654 
-0.000109183 -0.000162325 0.198604 
-6.07481e-05 -0.000148206 0.198686 
-8.20485e-06 -0.000237665 0.198722 
2.42564e-05 -0.000214768 0.198716 
5.21066e-06 -0.000302459 0.198617 
-3.12835e-06 -4.04236e-05 0.0987595 
0.000267779 4.85801e-05 0.197659 
0.000115545 -2.46522e-05 0.198449 
-7.45435e-05 -0.000178022 0.148168 
-6.83946e-05 -0.000149917 0.148047 
9.01172e-05 -0.000166427 0.148138 
7.37262e-05 -0.000184518 0.148119 
-0.000191142 0.000104789 0.197606 
-8.47088e-05 5.20099e-06 0.198324 
2.7554e-05 -0.000295876 0.0984742 
4.20888e-05 -0.000288366 0.0985388 
1.12507e-05 -0.000264686 0.14792 
3.93023e-05 -0.000236793 0.1481 
3.12223e-05 -6.35297e-05 0.198652 
3.52282e-05 -2.73774e-05 0.198581 
7.74044e-05 -2.50285e-07 0.198569 
-3.24313e-05 -0.000194462 0.0986156 
0.000147038 -0.000128922 0.198616 
6.18452e-05 -0.000119274 0.198698 
0.000112561 -0.000112808 0.19862 
-0.000111037 -0.000119808 0.0986719 
7.49347e-05 4.96516e-05 0.198308 
8.16125e-05 0.000203039 0.197539 
-3.89032e-05 -0.000207832 0.148118 
-2.73093e-05 -0.000226381 0.147901 
1.30646e-05 -0.000142502 0.0987191 
2.59372e-06 -0.000136768 0.156021 
4.28576e-06 -0.000134371 0.150125 
5.91828e-06 -0.000135001 0.144545 
7.79548e-05 -8.71934e-05 0.198639 
5.50887e-05 -7.07673e-05 0.19864 
0.000142749 -4.88281e-05 0.198525 
-9.44893e-05 -0.000170583 0.0986275 
0.000237387 -0.000316216 0.197804 
-4.60891e-05 -5.56599e-05 0.148261 
-4.08014e-05 -4.5733e-05 0.148353 
0.000108094 -0.000228054 0.1985 
-0.000107352 -0.000145662 0.148105 
-6.83946e-05 -0.000149917 0.148047 
-0.000158819 -0.000187843 0.0985626 
-0.000176737 -0.000192527 0.0985956 
-5.3456e-06 -1.04369e-05 0.148323 
-1.49713e-06 -9.48021e-06 0.148108 
-3.14663e-06 3.87181e-05 0.0987687 
1.25301e-05 2.61427e-05 0.098778 
7.08831e-05 -0.000238612 0.198689 
-6.05035e-05 -1.87932e-05 0.0987547 
-1.68326e-05 -5.64173e-05 0.0987538 
-4.66989e-05 -6.397e-05 0.0987407 
6.20454e-05 -5.50934e-05 0.148112 
0.000126637 -5.99167e-05 0.0985157 
0.000167915 -8.46023e-05 0.0985589 
0.000123985 -5.89767e-05 0.0985898 
-0.000254393 5.81254e-05 0.197598 
8.24293e-05 -0.00014449 0.148006 
-9.45023e-05 -2.23736e-05 0.198462 
-0.00013989 -4.62554e-05 0.198457 
1.5664e-05 -0.00034645 0.0985479 
1.1619e-05 -0.000327494 0.0984664 
9.39117e-06 -0.000272596 0.147822 
-2.40418e-06 -0.000316898 0.0985423 
-0.000114455 -0.000104408 0.19856 
-5.17878e-05 -0.000102674 0.198632 
0.000151871 -0.000126869 0.0985826 
-8.75286e-05 -8.62582e-05 0.198575 
0.000130569 -0.000213373 0.098537 
0.000116697 -0.000241367 0.0985268 
0.000117365 -0.000216389 0.0984932 
9.01172e-05 -0.000166427 0.148138 
9.01172e-05 -0.000166427 0.148138 
0.000116697 -0.000241367 0.0985268 
0.000117365 -0.000216389 0.0984932 
7.37262e-05 -0.000184518 0.148119 
0.000116697 -0.000241367 0.0985268 
5.42862e-05 -0.000191439 0.148096 
9.42323e-05 -0.000232994 0.0984942 
7.37262e-05 -0.000184518 0.148119 
8.24293e-05 -0.00014449 0.148006 
0.000186469 -0.000174861 0.098471 
0.000201692 -0.000194003 0.0985189 
0.00012839 -0.000130446 0.147993 
-9.37577e-05 -7.09436e-05 0.0987112 
-8.31007e-05 -3.46911e-05 0.0987316 
-4.60891e-05 -5.56599e-05 0.148261 
0.000131267 -0.000183147 0.198631 
5.21066e-06 -0.000302459 0.198617 
2.64157e-06 -0.00061425 0.197221 
-2.26558e-05 -0.000309243 0.198617 
-2.04354e-06 -1.19561e-05 0.148073 
-0.0002164 -0.000117584 0.198349 
-0.000141043 -0.000141237 0.19856 
-0.000351731 -0.000166141 0.197615 
6.20454e-05 -5.50934e-05 0.148112 
-2.15634e-05 5.68939e-05 0.19835 
-8.47389e-05 0.000188738 0.197633 
5.42862e-05 -0.000191439 0.148096 
-5.26467e-05 8.09226e-06 0.198504 
0.000108094 -0.000228054 0.1985 
0.000237387 -0.000316216 0.197804 
-4.60891e-05 -5.56599e-05 0.148261 
0.000131267 -0.000183147 0.198631 
2.50191e-05 -0.000151151 0.0986616 
2.88882e-05 -0.000145317 0.0986738 
2.0664e-05 -0.000148267 0.0986791 
4.98482e-06 -0.000125047 0.156442 
-9.32072e-06 -0.000144178 0.0987023 
-7.26374e-06 -0.000142568 0.0987131 
-1.97879e-05 -0.000140651 0.0987051 
2.7285e-06 -0.000128764 0.154597 
7.49347e-05 4.96516e-05 0.198308 
0.000169685 0.00014821 0.19765 
-5.02644e-05 -0.000174951 0.148047 
-3.89032e-05 -0.000207832 0.148118 
0.000194829 -0.000107856 0.198325 
0.000453067 -7.83527e-05 0.197043 
-0.00014315 -0.000102409 0.147889 
0.00015314 -9.35615e-05 0.198547 
-0.00013989 -4.62554e-05 0.198457 
-8.75286e-05 -8.62582e-05 0.198575 
0.000126173 -0.000161717 0.0985607 
-4.98937e-05 -7.73269e-05 0.198603 
0.000203037 -0.000149054 0.098534 
0.000201692 -0.000194003 0.0985189 
0.000186469 -0.000174861 0.098471 
0.00012839 -0.000130446 0.147993 
7.72807e-05 -0.000175176 0.198705 
-8.31007e-05 -3.46911e-05 0.0987316 
0.000108094 -0.000228054 0.1985 
-4.66989e-05 -6.397e-05 0.0987407 
2.90976e-05 -0.000143215 0.0986845 
2.84947e-05 -0.000141786 0.0986892 
2.22208e-05 -0.000143257 0.098697 
5.65505e-06 -0.000131786 0.149519 
-0.000182065 -0.000131911 0.098556 
-0.000153408 -0.000111882 0.147992 
-0.000107352 -0.000145662 0.148105 
-0.00017295 -0.000150118 0.0986149 
0.000185747 -6.64946e-05 0.198351 
0.000356635 -9.67759e-05 0.197465 
-0.000153408 -0.000111882 0.147992 
-0.000107352 -0.000145662 0.148105 
2.28184e-06 -0.000146766 0.0987 
7.23125e-06 -0.000147016 0.0986987 
6.24499e-06 -0.00014552 0.0987067 
4.15397e-06 -0.000128299 0.15489 
4.14573e-05 -0.000180131 0.198748 
7.72807e-05 -0.000175176 0.198705 
7.08831e-05 -0.000238612 0.198689 
-4.66989e-05 -6.397e-05 0.0987407 
-6.05035e-05 -1.87932e-05 0.0987547 
-4.08014e-05 -4.5733e-05 0.148353 
-2.20644e-05 -5.43625e-05 0.148267 
-4.34319e-05 -2.24538e-05 0.0987503 
7.72807e-05 -0.000175176 0.198705 
3.95773e-05 -0.000147386 0.198744 
7.77405e-05 -0.0001447 0.19869 
-4.25467e-05 -0.000106974 0.0987268 
0.000148215 -7.66026e-05 0.147805 
0.000207156 -8.74094e-05 0.0984582 
0.000237452 -0.000102962 0.0985348 
0.000103177 -7.2382e-05 0.148113 
-0.000302978 1.29285e-05 0.197543 
0.00012839 -0.000130446 0.147993 
-0.00013989 -4.62554e-05 0.198457 
-0.000170233 -7.41135e-05 0.198407 
-0.000225631 -0.000103818 0.198345 
-0.0002164 -0.000117584 0.198349 
-0.000431499 -8.59207e-05 0.19726 
0.000148215 -7.66026e-05 0.147805 
4.79245e-06 -0.000148983 0.0986899 
-1.08845e-06 -0.000153903 0.0986772 
9.35615e-06 -0.000155277 0.0986781 
5.7001e-06 -0.000128265 0.150752 
-7.45435e-05 -0.000178022 0.148168 
-8.52525e-05 -0.000238897 0.0985575 
-0.000123353 -0.000204751 0.0985958 
-9.62771e-05 -0.000260633 0.0985874 
-0.000106893 -0.000205081 0.198653 
-5.38558e-05 -0.000208467 0.198699 
3.82481e-05 -8.60176e-05 0.098698 
-4.09737e-05 -0.000161045 0.198724 
0.000171975 -0.000362181 0.19785 
-2.20644e-05 -5.43625e-05 0.148267 
7.08831e-05 -0.000238612 0.198689 
0.000108094 -0.000228054 0.1985 
-3.14663e-06 3.87181e-05 0.0987687 
-2.24766e-05 -2.21132e-05 0.098766 
-5.3456e-06 -1.04369e-05 0.148323 
1.25301e-05 2.61427e-05 0.098778 
2.61773e-05 -0.0001358 0.0987025 
2.68017e-05 -0.00013944 0.0986946 
3.99923e-05 -0.000133451 0.0986804 
5.09189e-06 -0.000130254 0.149913 
4.75027e-05 -4.58839e-05 0.148271 
-0.000131416 -0.000183572 0.198468 
-0.000210752 -0.000312172 0.197777 
1.51377e-05 -6.24202e-05 0.14811 
2.88882e-05 -0.000145317 0.0986738 
2.90976e-05 -0.000143215 0.0986845 
2.12208e-05 -0.000145121 0.0986883 
4.98482e-06 -0.000125047 0.156442 
7.23125e-06 -0.000147016 0.0986987 
4.79245e-06 -0.000148983 0.0986899 
1.09603e-05 -0.000149052 0.0986906 
5.7001e-06 -0.000128265 0.150752 
-6.60538e-07 -9.60737e-05 0.198679 
-1.14925e-06 -0.000113867 0.198702 
-8.64569e-06 -9.96195e-05 0.198677 
4.98482e-06 -0.000125047 0.156442 
9.42323e-05 -0.000232994 0.0984942 
9.41511e-05 -0.000250563 0.0985415 
5.42862e-05 -0.000191439 0.148096 
0.000116697 -0.000241367 0.0985268 
1.51377e-05 -6.24202e-05 0.14811 
-0.000217849 -0.000333373 0.197789 
2.55454e-05 -4.87602e-05 0.148319 
-0.000112397 -0.000254177 0.198487 
4.28576e-06 -0.000134371 0.150125 
5.65505e-06 -0.000131786 0.149519 
1.99599e-05 -0.000142453 0.0987033 
5.91828e-06 -0.000135001 0.144545 
-8.31007e-05 -3.46911e-05 0.0987316 
-4.08014e-05 -4.5733e-05 0.148353 
-6.05035e-05 -1.87932e-05 0.0987547 
-4.34319e-05 -2.24538e-05 0.0987503 
0.00015314 -9.35615e-05 0.198547 
0.000185747 -6.64946e-05 0.198351 
0.000356635 -9.67759e-05 0.197465 
-0.000153408 -0.000111882 0.147992 
-4.04776e-05 -0.000299917 0.0985199 
-4.26277e-05 -0.000332007 0.0985467 
-3.89032e-05 -0.000207832 0.148118 
-2.73093e-05 -0.000226381 0.147901 
-5.3456e-06 -1.04369e-05 0.148323 
1.4929e-05 -0.000512701 0.197564 
3.65122e-05 -0.000270076 0.198577 
-1.49713e-06 -9.48021e-06 0.148108 
1.23638e-05 -8.42638e-05 0.198676 
9.50863e-06 -0.000107259 0.198699 
-6.60538e-07 -9.60737e-05 0.198679 
5.7001e-06 -0.000128265 0.150752 
0.000115545 -2.46522e-05 0.198449 
0.000267779 4.85801e-05 0.197659 
0.000142749 -4.88281e-05 0.198525 
-6.83946e-05 -0.000149917 0.148047 
-2.04354e-06 -1.19561e-05 0.148073 
-1.01683e-05 -4.71687e-07 0.0987737 
1.01766e-05 3.04368e-05 0.0987567 
-3.14663e-06 3.87181e-05 0.0987687 
-0.0002164 -0.000117584 0.198349 
-0.000431499 -8.59207e-05 0.19726 
0.000148215 -7.66026e-05 0.147805 
0.000103177 -7.2382e-05 0.148113 
0.000453067 -7.83527e-05 0.197043 
-0.00014315 -0.000102409 0.147889 
0.00015314 -9.35615e-05 0.198547 
-0.000153408 -0.000111882 0.147992 
1.00086e-06 -0.000127694 0.198737 
4.28576e-06 -0.000134371 0.150125 
3.64261e-06 -0.000130615 0.15648 
3.42555e-06 -0.000133458 0.153642 
3.57854e-05 3.6476e-05 0.198469 
8.16125e-05 0.000203039 0.197539 
7.49347e-05 4.96516e-05 0.198308 
-2.73093e-05 -0.000226381 0.147901 
-0.000170233 -7.41135e-05 0.198407 
-0.000403555 -5.18047e-05 0.197301 
0.000173461 -9.49141e-05 0.147919 
-0.000271588 -9.45404e-05 0.198265 
-2.72069e-05 -0.000138529 0.198721 
-1.53298e-05 -0.000127862 0.198709 
-9.21463e-06 -0.000134663 0.198732 
5.91828e-06 -0.000135001 0.144545 
0.000261222 -0.000110621 0.098529 
0.000251806 -7.22967e-05 0.0984244 
0.000237452 -0.000102962 0.0985348 
0.000169954 -8.70703e-05 0.147759 
1.4929e-05 -0.000512701 0.197564 
5.21066e-06 -0.000302459 0.198617 
3.65122e-05 -0.000270076 0.198577 
-1.49713e-06 -9.48021e-06 0.148108 
1.69994e-05 -0.000142342 0.0987116 
1.99599e-05 -0.000142453 0.0987033 
2.12162e-05 -0.000140924 0.098706 
5.91828e-06 -0.000135001 0.144545 
2.12162e-05 -0.000140924 0.098706 
5.65505e-06 -0.000131786 0.149519 
2.68017e-05 -0.00013944 0.0986946 
5.91828e-06 -0.000135001 0.144545 
-3.89032e-05 -0.000207832 0.148118 
-4.26277e-05 -0.000332007 0.0985467 
-4.04776e-05 -0.000299917 0.0985199 
-5.89576e-05 -0.000270146 0.0985699 
1.56859e-05 -0.000145437 0.0986993 
2.1596e-05 -0.000144465 0.0986954 
1.7244e-05 -0.000144349 0.0987042 
5.51477e-06 -0.000131311 0.149008 
-1.14925e-06 -0.000113867 0.198702 
4.15397e-06 -0.000128299 0.15489 
3.64261e-06 -0.000130615 0.15648 
5.51477e-06 -0.000131311 0.149008 
-1.14611e-06 -0.000270633 0.147927 
9.39117e-06 -0.000272596 0.147822 
1.1619e-05 -0.000327494 0.0984664 
-2.40418e-06 -0.000316898 0.0985423 
0.000151874 -0.000160644 0.198496 
0.000309205 -0.000173893 0.197732 
-8.1556e-05 -7.73372e-05 0.148064 
0.000147038 -0.000128922 0.198616 
-0.000176737 -0.000192527 0.0985956 
-6.83946e-05 -0.000149917 0.148047 
-0.000113162 -0.000180784 0.0985649 
-0.000123353 -0.000204751 0.0985958 
-5.55276e-07 -0.000136947 0.0987369 
-1.22698e-05 -0.000127505 0.0987371 
-4.51911e-06 -0.000138143 0.0987322 
2.68461e-06 -0.000136444 0.156859 
-5.55276e-07 -0.000136947 0.0987369 
2.24402e-06 -0.000142345 0.0987313 
6.42127e-06 -0.000140011 0.0987325 
2.68461e-06 -0.000136444 0.156859 
7.23125e-06 -0.000147016 0.0986987 
4.15397e-06 -0.000128299 0.15489 
4.79245e-06 -0.000148983 0.0986899 
5.7001e-06 -0.000128265 0.150752 
-1.15848e-05 -8.89347e-06 0.148211 
2.22232e-05 6.85568e-06 0.0987367 
-3.85628e-07 -9.50948e-06 0.0987536 
1.0395e-05 -2.82875e-05 0.148309 
-8.99073e-07 7.381e-05 0.19836 
9.39117e-06 -0.000272596 0.147822 
-9.97548e-06 0.000390377 0.196895 
1.06806e-05 0.000100076 0.198327 
-0.000225631 -0.000103818 0.198345 
-0.000553908 -0.000114366 0.196792 
-0.000271588 -9.45404e-05 0.198265 
0.000169954 -8.70703e-05 0.147759 
0.000115545 -2.46522e-05 0.198449 
7.74044e-05 -2.50285e-07 0.198569 
0.000200984 0.000104373 0.197701 
-5.02644e-05 -0.000174951 0.148047 
0.000147038 -0.000128922 0.198616 
0.000379622 -0.00011315 0.197514 
-8.1556e-05 -7.73372e-05 0.148064 
0.000194829 -0.000107856 0.198325 
2.12162e-05 -0.000140924 0.098706 
1.99599e-05 -0.000142453 0.0987033 
2.68017e-05 -0.00013944 0.0986946 
5.65505e-06 -0.000131786 0.149519 
0.000148215 -7.66026e-05 0.147805 
0.000237452 -0.000102962 0.0985348 
0.000251806 -7.22967e-05 0.0984244 
0.000169954 -8.70703e-05 0.147759 
-6.83946e-05 -0.000149917 0.148047 
-7.45435e-05 -0.000178022 0.148168 
-0.000113162 -0.000180784 0.0985649 
-0.000123353 -0.000204751 0.0985958 
1.00086e-06 -0.000127694 0.198737 
3.42555e-06 -0.000133458 0.153642 
1.56304e-05 -0.000123738 0.198731 
2.68461e-06 -0.000136444 0.156859 
7.16056e-05 -0.000106218 0.198668 
0.00015314 -9.35615e-05 0.198547 
0.000112561 -0.000112808 0.19862 
-0.000111047 -0.00012518 0.0986562 
-8.47088e-05 5.20099e-06 0.198324 
-0.000191142 0.000104789 0.197606 
9.01172e-05 -0.000166427 0.148138 
-9.45023e-05 -2.23736e-05 0.198462 
4.32509e-07 0.000270457 0.197351 
3.93023e-05 -0.000236793 0.1481 
1.12507e-05 -0.000264686 0.14792 
-2.15634e-05 5.68939e-05 0.19835 
-0.00017295 -0.000150118 0.0986149 
-0.000107352 -0.000145662 0.148105 
-0.000158819 -0.000187843 0.0985626 
-0.000176737 -0.000192527 0.0985956 
-0.000403555 -5.18047e-05 0.197301 
0.000173461 -9.49141e-05 0.147919 
0.00012839 -0.000130446 0.147993 
-0.000170233 -7.41135e-05 0.198407 
-2.26558e-05 -0.000309243 0.198617 
2.64157e-06 -0.00061425 0.197221 
-1.15848e-05 -8.89347e-06 0.148211 
-2.04354e-06 -1.19561e-05 0.148073 
1.12507e-05 -0.000264686 0.14792 
4.32509e-07 0.000270457 0.197351 
-2.15634e-05 5.68939e-05 0.19835 
-8.99073e-07 7.381e-05 0.19836 
2.68017e-05 -0.00013944 0.0986946 
5.91828e-06 -0.000135001 0.144545 
5.65505e-06 -0.000131786 0.149519 
5.09189e-06 -0.000130254 0.149913 
-0.00021618 -0.000118373 0.0986262 
-0.00014315 -0.000102409 0.147889 
-0.000222343 -0.000114075 0.0985433 
-0.000263143 -0.000126712 0.0986073 
-1.01683e-05 -4.71687e-07 0.0987737 
1.01766e-05 3.04368e-05 0.0987567 
-1.15848e-05 -8.89347e-06 0.148211 
-2.04354e-06 -1.19561e-05 0.148073 
-4.81241e-06 -0.00014148 0.0987264 
-5.77733e-07 -0.000143366 0.0987195 
3.95555e-06 -0.000143564 0.0987253 
3.42555e-06 -0.000133458 0.153642 
7.49347e-05 4.96516e-05 0.198308 
0.000169685 0.00014821 0.19765 
7.74044e-05 -2.50285e-07 0.198569 
-5.02644e-05 -0.000174951 0.148047 
0.000167915 -8.46023e-05 0.0985589 
0.000237452 -0.000102962 0.0985348 
0.000207156 -8.74094e-05 0.0984582 
0.000103177 -7.2382e-05 0.148113 
-3.61778e-08 -0.000145691 0.198755 
1.74413e-05 -0.000135021 0.198746 
1.51222e-05 -0.000153363 0.198763 
2.68461e-06 -0.000136444 0.156859 
-0.000131416 -0.000183572 0.198468 
-0.000210752 -0.000312172 0.197777 
1.51377e-05 -6.24202e-05 0.14811 
-0.000106893 -0.000205081 0.198653 
1.56859e-05 -0.000145437 0.0986993 
1.7244e-05 -0.000144349 0.0987042 
1.3111e-05 -0.000144837 0.0987066 
5.51477e-06 -0.000131311 0.149008 
1.01766e-05 3.04368e-05 0.0987567 
2.22232e-05 6.85568e-06 0.0987367 
-3.85628e-07 -9.50948e-06 0.0987536 
-1.15848e-05 -8.89347e-06 0.148211 
4.11676e-05 -0.00013732 0.0986738 
6.74801e-05 -0.000129824 0.0986545 
3.99923e-05 -0.000133451 0.0986804 
5.09189e-06 -0.000130254 0.149913 
1.00086e-06 -0.000127694 0.198737 
3.64261e-06 -0.000130615 0.15648 
3.08177e-06 -0.000120188 0.198719 
3.42555e-06 -0.000133458 0.153642 
-0.000112397 -0.000254177 0.198487 
1.51377e-05 -6.24202e-05 0.14811 
-0.000217849 -0.000333373 0.197789 
-0.000106893 -0.000205081 0.198653 
2.24402e-06 -0.000142345 0.0987313 
6.42127e-06 -0.000140011 0.0987325 
2.68461e-06 -0.000136444 0.156859 
2.59372e-06 -0.000136768 0.156021 
-4.08014e-05 -4.5733e-05 0.148353 
-7.38042e-05 -5.1723e-05 0.0987177 
-8.31007e-05 -3.46911e-05 0.0987316 
-4.60891e-05 -5.56599e-05 0.148261 
1.30646e-05 -0.000142502 0.0987191 
1.69994e-05 -0.000142342 0.0987116 
1.76637e-05 -0.000140062 0.0987148 
5.91828e-06 -0.000135001 0.144545 
-9.32072e-06 -0.000144178 0.0987023 
-3.47517e-06 -0.000146964 0.0986993 
-3.46312e-07 -0.000145087 0.0987096 
2.7285e-06 -0.000128764 0.154597 
-0.000222343 -0.000114075 0.0985433 
-0.000141189 -9.49616e-05 0.14809 
-0.00014315 -0.000102409 0.147889 
-0.00021618 -0.000118373 0.0986262 
-9.21463e-06 -0.000134663 0.198732 
4.28576e-06 -0.000134371 0.150125 
1.00086e-06 -0.000127694 0.198737 
2.59372e-06 -0.000136768 0.156021 
-2.04354e-06 -1.19561e-05 0.148073 
5.21066e-06 -0.000302459 0.198617 
2.64157e-06 -0.00061425 0.197221 
-1.49713e-06 -9.48021e-06 0.148108 
2.88882e-05 -0.000145317 0.0986738 
2.12208e-05 -0.000145121 0.0986883 
2.0664e-05 -0.000148267 0.0986791 
4.98482e-06 -0.000125047 0.156442 
0.000173461 -9.49141e-05 0.147919 
0.000251806 -7.22967e-05 0.0984244 
0.000261222 -0.000110621 0.098529 
0.000169954 -8.70703e-05 0.147759 
6.42127e-06 -0.000140011 0.0987325 
8.28895e-06 -0.000143238 0.0987259 
1.22125e-05 -0.000140349 0.0987248 
2.59372e-06 -0.000136768 0.156021 
2.84947e-05 -0.000141786 0.0986892 
4.11676e-05 -0.00013732 0.0986738 
2.68017e-05 -0.00013944 0.0986946 
5.09189e-06 -0.000130254 0.149913 
-4.6527e-06 -0.000123922 0.198718 
3.64261e-06 -0.000130615 0.15648 
1.00086e-06 -0.000127694 0.198737 
4.28576e-06 -0.000134371 0.150125 
1.12507e-05 -0.000264686 0.14792 
9.39117e-06 -0.000272596 0.147822 
-9.97548e-06 0.000390377 0.196895 
-8.99073e-07 7.381e-05 0.19836 
3.08177e-06 -0.000120188 0.198719 
4.15397e-06 -0.000128299 0.15489 
9.50863e-06 -0.000107259 0.198699 
2.7285e-06 -0.000128764 0.154597 
-0.000553908 -0.000114366 0.196792 
-0.000225631 -0.000103818 0.198345 
0.000148215 -7.66026e-05 0.147805 
0.000169954 -8.70703e-05 0.147759 
-5.77733e-07 -0.000143366 0.0987195 
5.22721e-06 -0.000144263 0.0987198 
3.95555e-06 -0.000143564 0.0987253 
3.42555e-06 -0.000133458 0.153642 
3.08177e-06 -0.000120188 0.198719 
3.64261e-06 -0.000130615 0.15648 
4.15397e-06 -0.000128299 0.15489 
3.42555e-06 -0.000133458 0.153642 
9.49126e-06 -0.000144124 0.0987197 
1.45742e-05 -0.000143765 0.0987128 
1.30646e-05 -0.000142502 0.0987191 
4.28576e-06 -0.000134371 0.150125 
1.99599e-05 -0.000142453 0.0987033 
5.65505e-06 -0.000131786 0.149519 
2.12162e-05 -0.000140924 0.098706 
5.91828e-06 -0.000135001 0.144545 
1.76637e-05 -0.000140062 0.0987148 
2.12162e-05 -0.000140924 0.098706 
2.61773e-05 -0.0001358 0.0987025 
5.91828e-06 -0.000135001 0.144545 
-1.14925e-06 -0.000113867 0.198702 
-4.6527e-06 -0.000123922 0.198718 
-1.3317e-05 -0.000116052 0.198695 
5.51477e-06 -0.000131311 0.149008 
3.08177e-06 -0.000120188 0.198719 
-4.6527e-06 -0.000123922 0.198718 
-1.14925e-06 -0.000113867 0.198702 
3.64261e-06 -0.000130615 0.15648 
9.50863e-06 -0.000107259 0.198699 
3.08177e-06 -0.000120188 0.198719 
-1.14925e-06 -0.000113867 0.198702 
4.15397e-06 -0.000128299 0.15489 
3.08177e-06 -0.000120188 0.198719 
3.42555e-06 -0.000133458 0.153642 
4.15397e-06 -0.000128299 0.15489 
2.7285e-06 -0.000128764 0.154597 
1.00086e-06 -0.000127694 0.198737 
1.56304e-05 -0.000123738 0.198731 
1.74413e-05 -0.000135021 0.198746 
2.68461e-06 -0.000136444 0.156859 
-1.53298e-05 -0.000127862 0.198709 
-4.6527e-06 -0.000123922 0.198718 
-9.21463e-06 -0.000134663 0.198732 
5.91828e-06 -0.000135001 0.144545 
-4.6527e-06 -0.000123922 0.198718 
1.00086e-06 -0.000127694 0.198737 
-9.21463e-06 -0.000134663 0.198732 
4.28576e-06 -0.000134371 0.150125 
3.08177e-06 -0.000120188 0.198719 
1.00086e-06 -0.000127694 0.198737 
-4.6527e-06 -0.000123922 0.198718 
3.64261e-06 -0.000130615 0.15648 
-1.3317e-05 -0.000116052 0.198695 
5.65505e-06 -0.000131786 0.149519 
-1.53298e-05 -0.000127862 0.198709 
5.09189e-06 -0.000130254 0.149913 
-8.64569e-06 -9.96195e-05 0.198677 
-1.14925e-06 -0.000113867 0.198702 
-1.3317e-05 -0.000116052 0.198695 
4.98482e-06 -0.000125047 0.156442 
-1.01683e-05 -4.71687e-07 0.0987737 
-2.04354e-06 -1.19561e-05 0.148073 
-1.49713e-06 -9.48021e-06 0.148108 
-3.14663e-06 3.87181e-05 0.0987687 
-1.3317e-05 -0.000116052 0.198695 
-2.62373e-05 -0.000103121 0.198663 
-8.64569e-06 -9.96195e-05 0.198677 
4.98482e-06 -0.000125047 0.156442 
9.39117e-06 -0.000272596 0.147822 
1.1619e-05 -0.000327494 0.0984664 
1.5664e-05 -0.00034645 0.0985479 
1.12507e-05 -0.000264686 0.14792 
-1.3317e-05 -0.000116052 0.198695 
-1.53298e-05 -0.000127862 0.198709 
-3.19666e-05 -0.000116689 0.198677 
5.09189e-06 -0.000130254 0.149913 
9.50863e-06 -0.000107259 0.198699 
-1.14925e-06 -0.000113867 0.198702 
-6.60538e-07 -9.60737e-05 0.198679 
5.7001e-06 -0.000128265 0.150752 
-1.53298e-05 -0.000127862 0.198709 
-1.3317e-05 -0.000116052 0.198695 
-4.6527e-06 -0.000123922 0.198718 
5.65505e-06 -0.000131786 0.149519 
9.35615e-06 -0.000155277 0.0986781 
1.58635e-05 -0.000154156 0.0986802 
1.09603e-05 -0.000149052 0.0986906 
5.7001e-06 -0.000128265 0.150752 
-9.21463e-06 -0.000134663 0.198732 
1.00086e-06 -0.000127694 0.198737 
-3.61778e-08 -0.000145691 0.198755 
2.59372e-06 -0.000136768 0.156021 
-4.6527e-06 -0.000123922 0.198718 
4.28576e-06 -0.000134371 0.150125 
-9.21463e-06 -0.000134663 0.198732 
5.91828e-06 -0.000135001 0.144545 
-1.3317e-05 -0.000116052 0.198695 
4.98482e-06 -0.000125047 0.156442 
5.51477e-06 -0.000131311 0.149008 
5.65505e-06 -0.000131786 0.149519 
1.64494e-05 -0.000112346 0.198711 
3.08177e-06 -0.000120188 0.198719 
9.50863e-06 -0.000107259 0.198699 
2.7285e-06 -0.000128764 0.154597 
-4.51911e-06 -0.000138143 0.0987322 
2.24402e-06 -0.000142345 0.0987313 
-5.55276e-07 -0.000136947 0.0987369 
2.68461e-06 -0.000136444 0.156859 
-9.37577e-05 -7.09436e-05 0.0987112 
-8.31007e-05 -3.46911e-05 0.0987316 
-7.38042e-05 -5.1723e-05 0.0987177 
-4.60891e-05 -5.56599e-05 0.148261 
1.56304e-05 -0.000123738 0.198731 
1.00086e-06 -0.000127694 0.198737 
3.08177e-06 -0.000120188 0.198719 
3.42555e-06 -0.000133458 0.153642 
2.84947e-05 -0.000141786 0.0986892 
2.68017e-05 -0.00013944 0.0986946 
5.65505e-06 -0.000131786 0.149519 
5.09189e-06 -0.000130254 0.149913 
3.08177e-06 -0.000120188 0.198719 
1.64494e-05 -0.000112346 0.198711 
1.56304e-05 -0.000123738 0.198731 
2.7285e-06 -0.000128764 0.154597 
1.06806e-05 0.000100076 0.198327 
9.39117e-06 -0.000272596 0.147822 
-9.97548e-06 0.000390377 0.196895 
-1.14611e-06 -0.000270633 0.147927 
-1.53298e-05 -0.000127862 0.198709 
5.65505e-06 -0.000131786 0.149519 
-4.6527e-06 -0.000123922 0.198718 
5.91828e-06 -0.000135001 0.144545 
1.74413e-05 -0.000135021 0.198746 
-3.61778e-08 -0.000145691 0.198755 
1.00086e-06 -0.000127694 0.198737 
2.68461e-06 -0.000136444 0.156859 
3.08177e-06 -0.000120188 0.198719 
1.56304e-05 -0.000123738 0.198731 
3.42555e-06 -0.000133458 0.153642 
2.7285e-06 -0.000128764 0.154597 
-1.14925e-06 -0.000113867 0.198702 
3.64261e-06 -0.000130615 0.15648 
-4.6527e-06 -0.000123922 0.198718 
5.51477e-06 -0.000131311 0.149008 
-0.00014315 -0.000102409 0.147889 
-0.000141189 -9.49616e-05 0.14809 
0.000453067 -7.83527e-05 0.197043 
0.000194829 -0.000107856 0.198325 
-1.14925e-06 -0.000113867 0.198702 
5.51477e-06 -0.000131311 0.149008 
-1.3317e-05 -0.000116052 0.198695 
4.98482e-06 -0.000125047 0.156442 
-0.000153408 -0.000111882 0.147992 
-0.000222343 -0.000114075 0.0985433 
-0.00014315 -0.000102409 0.147889 
-0.000263143 -0.000126712 0.0986073 
-1.3317e-05 -0.000116052 0.198695 
5.51477e-06 -0.000131311 0.149008 
-4.6527e-06 -0.000123922 0.198718 
5.65505e-06 -0.000131786 0.149519 
-1.14925e-06 -0.000113867 0.198702 
3.08177e-06 -0.000120188 0.198719 
3.64261e-06 -0.000130615 0.15648 
4.15397e-06 -0.000128299 0.15489 
0.000356635 -9.67759e-05 0.197465 
0.000453067 -7.83527e-05 0.197043 
0.00015314 -9.35615e-05 0.198547 
-0.000153408 -0.000111882 0.147992 
-3.46312e-07 -0.000145087 0.0987096 
-7.26374e-06 -0.000142568 0.0987131 
-9.32072e-06 -0.000144178 0.0987023 
2.7285e-06 -0.000128764 0.154597 
-0.000271588 -9.45404e-05 0.198265 
-0.000553908 -0.000114366 0.196792 
0.000173461 -9.49141e-05 0.147919 
0.000169954 -8.70703e-05 0.147759 
-2.26558e-05 -0.000309243 0.198617 
-1.15848e-05 -8.89347e-06 0.148211 
2.64157e-06 -0.00061425 0.197221 
-4.50608e-05 -0.000482632 0.197667 
1.01766e-05 3.04368e-05 0.0987567 
-3.85628e-07 -9.50948e-06 0.0987536 
-1.01683e-05 -4.71687e-07 0.0987737 
-1.15848e-05 -8.89347e-06 0.148211 
-4.6527e-06 -0.000123922 0.198718 
5.65505e-06 -0.000131786 0.149519 
4.28576e-06 -0.000134371 0.150125 
5.91828e-06 -0.000135001 0.144545 
5.51477e-06 -0.000131311 0.149008 
4.28576e-06 -0.000134371 0.150125 
-4.6527e-06 -0.000123922 0.198718 
5.65505e-06 -0.000131786 0.149519 
-3.19666e-05 -0.000116689 0.198677 
-1.53298e-05 -0.000127862 0.198709 
-4.8482e-05 -0.000130928 0.198686 
5.09189e-06 -0.000130254 0.149913 
-1.14611e-06 -0.000270633 0.147927 
1.1619e-05 -0.000327494 0.0984664 
-2.46153e-05 -0.000320305 0.0984903 
-2.40418e-06 -0.000316898 0.0985423 
2.84947e-05 -0.000141786 0.0986892 
2.68017e-05 -0.00013944 0.0986946 
1.99599e-05 -0.000142453 0.0987033 
5.65505e-06 -0.000131786 0.149519 
9.50863e-06 -0.000107259 0.198699 
4.15397e-06 -0.000128299 0.15489 
-1.14925e-06 -0.000113867 0.198702 
5.7001e-06 -0.000128265 0.150752 
4.28576e-06 -0.000134371 0.150125 
3.42555e-06 -0.000133458 0.153642 
1.00086e-06 -0.000127694 0.198737 
2.59372e-06 -0.000136768 0.156021 
-0.00021618 -0.000118373 0.0986262 
-0.000222343 -0.000114075 0.0985433 
-0.000141189 -9.49616e-05 0.14809 
-0.000166722 -7.19016e-05 0.0985762 
0.000261222 -0.000110621 0.098529 
0.000213577 -0.000125901 0.0984496 
0.000251806 -7.22967e-05 0.0984244 
0.000173461 -9.49141e-05 0.147919 
-0.000284349 -0.000234079 0.19771 
-0.000351731 -0.000166141 0.197615 
-0.000141043 -0.000141237 0.19856 
6.20454e-05 -5.50934e-05 0.148112 
4.28576e-06 -0.000134371 0.150125 
2.59372e-06 -0.000136768 0.156021 
-9.21463e-06 -0.000134663 0.198732 
5.91828e-06 -0.000135001 0.144545 
0.000251806 -7.22967e-05 0.0984244 
0.000207156 -8.74094e-05 0.0984582 
0.000237452 -0.000102962 0.0985348 
0.000148215 -7.66026e-05 0.147805 
4.32509e-07 0.000270457 0.197351 
1.12507e-05 -0.000264686 0.14792 
-9.97548e-06 0.000390377 0.196895 
-8.99073e-07 7.381e-05 0.19836 
0.000186469 -0.000174861 0.098471 
0.000213577 -0.000125901 0.0984496 
0.000203037 -0.000149054 0.098534 
0.00012839 -0.000130446 0.147993 
1.51377e-05 -6.24202e-05 0.14811 
-0.000210752 -0.000312172 0.197777 
-0.000217849 -0.000333373 0.197789 
-0.000106893 -0.000205081 0.198653 
-8.1556e-05 -7.73372e-05 0.148064 
-0.00016144 -0.000100696 0.0986497 
-0.000166722 -7.19016e-05 0.0985762 
-0.000105702 -8.14495e-05 0.0986264 
6.56697e-05 -1.0594e-05 0.098628 
1.51377e-05 -6.24202e-05 0.14811 
8.1177e-05 -3.99744e-05 0.0986789 
9.02248e-05 -9.35233e-06 0.0986701 
5.65505e-06 -0.000131786 0.149519 
5.91828e-06 -0.000135001 0.144545 
-1.53298e-05 -0.000127862 0.198709 
5.09189e-06 -0.000130254 0.149913 
-0.000553908 -0.000114366 0.196792 
-0.000225631 -0.000103818 0.198345 
-0.000431499 -8.59207e-05 0.19726 
0.000148215 -7.66026e-05 0.147805 
-4.60891e-05 -5.56599e-05 0.148261 
-7.38042e-05 -5.1723e-05 0.0987177 
-9.37577e-05 -7.09436e-05 0.0987112 
-8.48685e-05 -6.33643e-05 0.0986786 
-0.00013989 -4.62554e-05 0.198457 
-0.000254393 5.81254e-05 0.197598 
8.24293e-05 -0.00014449 0.148006 
-0.000302978 1.29285e-05 0.197543 
3.30413e-05 -2.77078e-05 0.0987212 
5.66904e-05 -1.30172e-05 0.0987075 
8.1177e-05 -3.99744e-05 0.0986789 
2.55454e-05 -4.87602e-05 0.148319 
2.84947e-05 -0.000141786 0.0986892 
1.99599e-05 -0.000142453 0.0987033 
2.22208e-05 -0.000143257 0.098697 
5.65505e-06 -0.000131786 0.149519 
1.09603e-05 -0.000149052 0.0986906 
4.79245e-06 -0.000148983 0.0986899 
9.35615e-06 -0.000155277 0.0986781 
5.7001e-06 -0.000128265 0.150752 
5.21066e-06 -0.000302459 0.198617 
1.4929e-05 -0.000512701 0.197564 
2.64157e-06 -0.00061425 0.197221 
-1.49713e-06 -9.48021e-06 0.148108 
-0.000115557 -7.78762e-05 0.0986784 
-0.000105702 -8.14495e-05 0.0986264 
-7.40084e-05 -5.62546e-05 0.148217 
-8.48685e-05 -6.33643e-05 0.0986786 
7.08831e-05 -0.000238612 0.198689 
0.000115378 -0.000407117 0.197872 
-2.20644e-05 -5.43625e-05 0.148267 
0.000171975 -0.000362181 0.19785 
0.000317931 -5.39e-06 0.197617 
0.000142749 -4.88281e-05 0.198525 
0.000267779 4.85801e-05 0.197659 
-6.83946e-05 -0.000149917 0.148047 
3.57854e-05 3.6476e-05 0.198469 
6.02336e-05 0.000286005 0.197321 
8.16125e-05 0.000203039 0.197539 
-2.73093e-05 -0.000226381 0.147901 
3.99923e-05 -0.000133451 0.0986804 
2.68017e-05 -0.00013944 0.0986946 
4.11676e-05 -0.00013732 0.0986738 
5.09189e-06 -0.000130254 0.149913 
9.41511e-05 -0.000250563 0.0985415 
6.09343e-05 -0.000251581 0.0984915 
9.42323e-05 -0.000232994 0.0984942 
5.42862e-05 -0.000191439 0.148096 
0.000108851 -5.99394e-05 0.0985754 
4.75027e-05 -4.58839e-05 0.148271 
6.56697e-05 -1.0594e-05 0.098628 
9.05187e-05 -4.35611e-05 0.0986288 
1.00086e-06 -0.000127694 0.198737 
3.42555e-06 -0.000133458 0.153642 
2.68461e-06 -0.000136444 0.156859 
2.59372e-06 -0.000136768 0.156021 
0.000130569 -0.000213373 0.098537 
0.000117365 -0.000216389 0.0984932 
0.000165876 -0.000190339 0.0984885 
9.01172e-05 -0.000166427 0.148138 
0.000207156 -8.74094e-05 0.0984582 
0.000126637 -5.99167e-05 0.0985157 
0.000167915 -8.46023e-05 0.0985589 
0.000103177 -7.2382e-05 0.148113 
0.000108851 -5.99394e-05 0.0985754 
0.000126637 -5.99167e-05 0.0985157 
6.20454e-05 -5.50934e-05 0.148112 
0.000123985 -5.89767e-05 0.0985898 
-4.50608e-05 -0.000482632 0.197667 
-5.69415e-05 -0.000269294 0.198609 
1.0395e-05 -2.82875e-05 0.148309 
-0.000137108 -0.000388031 0.197809 
0.000379622 -0.00011315 0.197514 
-8.1556e-05 -7.73372e-05 0.148064 
0.000309205 -0.000173893 0.197732 
0.000147038 -0.000128922 0.198616 
1.1619e-05 -0.000327494 0.0984664 
2.7554e-05 -0.000295876 0.0984742 
1.5664e-05 -0.00034645 0.0985479 
1.12507e-05 -0.000264686 0.14792 
0.000200984 0.000104373 0.197701 
7.74044e-05 -2.50285e-07 0.198569 
0.000169685 0.00014821 0.19765 
-5.02644e-05 -0.000174951 0.148047 
-8.47389e-05 0.000188738 0.197633 
-0.000157862 0.000130993 0.197624 
5.42862e-05 -0.000191439 0.148096 
-5.26467e-05 8.09226e-06 0.198504 
1.25301e-05 2.61427e-05 0.098778 
-2.24766e-05 -2.21132e-05 0.098766 
-5.3456e-06 -1.04369e-05 0.148323 
-2.65287e-05 -4.34172e-05 0.0987705 
-0.000158819 -0.000187843 0.0985626 
-0.000182065 -0.000131911 0.098556 
-0.000107352 -0.000145662 0.148105 
-0.00017295 -0.000150118 0.0986149 
-9.45023e-05 -2.23736e-05 0.198462 
-0.000191142 0.000104789 0.197606 
9.01172e-05 -0.000166427 0.148138 
-0.000254393 5.81254e-05 0.197598 
0.00012839 -0.000130446 0.147993 
-0.000302978 1.29285e-05 0.197543 
-0.000403555 -5.18047e-05 0.197301 
-0.000170233 -7.41135e-05 0.198407 
1.00086e-06 -0.000127694 0.198737 
2.68461e-06 -0.000136444 0.156859 
-3.61778e-08 -0.000145691 0.198755 
2.59372e-06 -0.000136768 0.156021 
4.20888e-05 -0.000288366 0.0985388 
2.7554e-05 -0.000295876 0.0984742 
6.09343e-05 -0.000251581 0.0984915 
3.93023e-05 -0.000236793 0.1481 
6.02336e-05 0.000286005 0.197321 
1.06806e-05 0.000100076 0.198327 
-9.97548e-06 0.000390377 0.196895 
-1.14611e-06 -0.000270633 0.147927 
-5.02644e-05 -0.000174951 0.148047 
-6.6197e-05 -0.000224688 0.0985424 
-8.52525e-05 -0.000238897 0.0985575 
-9.62771e-05 -0.000260633 0.0985874 
-0.000403555 -5.18047e-05 0.197301 
-0.000553908 -0.000114366 0.196792 
0.000173461 -9.49141e-05 0.147919 
-0.000271588 -9.45404e-05 0.198265 
-3.14663e-06 3.87181e-05 0.0987687 
-1.49713e-06 -9.48021e-06 0.148108 
-1.01683e-05 -4.71687e-07 0.0987737 
1.25301e-05 2.61427e-05 0.098778 
-0.000182065 -0.000131911 0.098556 
-0.000222343 -0.000114075 0.0985433 
-0.000153408 -0.000111882 0.147992 
-0.000263143 -0.000126712 0.0986073 
3.30413e-05 -2.77078e-05 0.0987212 
-3.85628e-07 -9.50948e-06 0.0987536 
2.22232e-05 6.85568e-06 0.0987367 
1.0395e-05 -2.82875e-05 0.148309 
1.76637e-05 -0.000140062 0.0987148 
1.69994e-05 -0.000142342 0.0987116 
2.12162e-05 -0.000140924 0.098706 
5.91828e-06 -0.000135001 0.144545 
-3.89032e-05 -0.000207832 0.148118 
-4.04776e-05 -0.000299917 0.0985199 
-6.6197e-05 -0.000224688 0.0985424 
-5.89576e-05 -0.000270146 0.0985699 
-2.20644e-05 -5.43625e-05 0.148267 
-2.65287e-05 -4.34172e-05 0.0987705 
-6.05035e-05 -1.87932e-05 0.0987547 
-4.34319e-05 -2.24538e-05 0.0987503 
-8.52525e-05 -0.000238897 0.0985575 
-0.000113162 -0.000180784 0.0985649 
-7.45435e-05 -0.000178022 0.148168 
-0.000123353 -0.000204751 0.0985958 
0.000131267 -0.000183147 0.198631 
0.000237387 -0.000316216 0.197804 
-4.60891e-05 -5.56599e-05 0.148261 
0.000295274 -0.000249823 0.197773 
0.000317931 -5.39e-06 0.197617 
0.000356635 -9.67759e-05 0.197465 
0.000185747 -6.64946e-05 0.198351 
-0.000107352 -0.000145662 0.148105 
0.000379622 -0.00011315 0.197514 
0.000453067 -7.83527e-05 0.197043 
-0.000141189 -9.49616e-05 0.14809 
0.000194829 -0.000107856 0.198325 
7.37262e-05 -0.000184518 0.148119 
-0.000191142 0.000104789 0.197606 
-8.47088e-05 5.20099e-06 0.198324 
-0.000157862 0.000130993 0.197624 
0.000115378 -0.000407117 0.197872 
1.4929e-05 -0.000512701 0.197564 
3.65122e-05 -0.000270076 0.198577 
-5.3456e-06 -1.04369e-05 0.148323 
-0.000351731 -0.000166141 0.197615 
-0.000431499 -8.59207e-05 0.19726 
-0.0002164 -0.000117584 0.198349 
0.000103177 -7.2382e-05 0.148113 
-4.6527e-06 -0.000123922 0.198718 
5.51477e-06 -0.000131311 0.149008 
3.64261e-06 -0.000130615 0.15648 
4.28576e-06 -0.000134371 0.150125 
4.32509e-07 0.000270457 0.197351 
-8.47389e-05 0.000188738 0.197633 
3.93023e-05 -0.000236793 0.1481 
-2.15634e-05 5.68939e-05 0.19835 
-8.31007e-05 -3.46911e-05 0.0987316 
-7.38042e-05 -5.1723e-05 0.0987177 
-4.08014e-05 -4.5733e-05 0.148353 
-4.34319e-05 -2.24538e-05 0.0987503 
-4.26277e-05 -0.000332007 0.0985467 
-4.04776e-05 -0.000299917 0.0985199 
-2.46153e-05 -0.000320305 0.0984903 
-2.73093e-05 -0.000226381 0.147901 
-7.40084e-05 -5.62546e-05 0.148217 
0.000295274 -0.000249823 0.197773 
0.000309205 -0.000173893 0.197732 
0.000151874 -0.000160644 0.198496 
0.000267779 4.85801e-05 0.197659 
0.000115545 -2.46522e-05 0.198449 
0.000200984 0.000104373 0.197701 
-7.45435e-05 -0.000178022 0.148168 
-0.000113162 -0.000180784 0.0985649 
-0.000158819 -0.000187843 0.0985626 
-6.83946e-05 -0.000149917 0.148047 
-0.000176737 -0.000192527 0.0985956 
-4.08014e-05 -4.5733e-05 0.148353 
0.000171975 -0.000362181 0.19785 
0.000237387 -0.000316216 0.197804 
0.000108094 -0.000228054 0.1985 
0.000201692 -0.000194003 0.0985189 
0.000165876 -0.000190339 0.0984885 
0.000186469 -0.000174861 0.098471 
8.24293e-05 -0.00014449 0.148006 
-0.000131416 -0.000183572 0.198468 
-0.000210752 -0.000312172 0.197777 
-0.000284349 -0.000234079 0.19771 
4.75027e-05 -4.58839e-05 0.148271 
-0.000137108 -0.000388031 0.197809 
2.55454e-05 -4.87602e-05 0.148319 
-0.000217849 -0.000333373 0.197789 
-0.000112397 -0.000254177 0.198487 
0.000116697 -0.000241367 0.0985268 
9.42323e-05 -0.000232994 0.0984942 
0.000117365 -0.000216389 0.0984932 
7.37262e-05 -0.000184518 0.148119 
0.000169685 0.00014821 0.19765 
7.49347e-05 4.96516e-05 0.198308 
8.16125e-05 0.000203039 0.197539 
-3.89032e-05 -0.000207832 0.148118 
-3.02799e-05 -0.000135485 0.0987059 
1.56304e-05 -0.000123738 0.198731 
-1.97879e-05 -0.000140651 0.0987051 
-1.52417e-05 -0.000139456 0.0987176 
-3.02799e-05 -0.000135485 0.0987059 
-1.97879e-05 -0.000140651 0.0987051 
1.56304e-05 -0.000123738 0.198731 
2.88841e-05 -0.000116292 0.198716 
-4.8482e-05 -0.000130928 0.198686 
9.56593e-05 -0.000121409 0.098626 
6.74801e-05 -0.000129824 0.0986545 
6.32439e-05 -0.000124317 0.0986584 
-4.8482e-05 -0.000130928 0.198686 
6.74801e-05 -0.000129824 0.0986545 
9.56593e-05 -0.000121409 0.098626 
-6.68664e-05 -0.000116965 0.198631 
1.94676e-05 -0.000115176 0.0987166 
-2.41524e-05 -0.00018041 0.198749 
-1.52734e-05 -0.000146462 0.198747 
-4.09737e-05 -0.000161045 0.198724 
-1.52734e-05 -0.000146462 0.198747 
-2.41524e-05 -0.00018041 0.198749 
1.94676e-05 -0.000115176 0.0987166 
8.29905e-06 -0.000109342 0.0987371 
-3.61778e-08 -0.000145691 0.198755 
4.14139e-07 -0.000116796 0.0987471 
7.17475e-06 -0.000125914 0.0987388 
4.17963e-06 -0.000134045 0.0987388 
7.17475e-06 -0.000125914 0.0987388 
4.14139e-07 -0.000116796 0.0987471 
-3.61778e-08 -0.000145691 0.198755 
-6.76343e-07 -0.000174658 0.198765 
5.09189e-06 -0.000130254 0.149913 
2.84947e-05 -0.000141786 0.0986892 
4.15961e-05 -0.000140705 0.0986683 
5.65505e-06 -0.000131786 0.149519 
5.09189e-06 -0.000130254 0.149913 
4.15961e-05 -0.000140705 0.0986683 
2.84947e-05 -0.000141786 0.0986892 
4.11676e-05 -0.00013732 0.0986738 
5.09189e-06 -0.000130254 0.149913 
6.23988e-05 -0.000133868 0.0986476 
4.15961e-05 -0.000140705 0.0986683 
4.11676e-05 -0.00013732 0.0986738 
5.09189e-06 -0.000130254 0.149913 
4.15961e-05 -0.000140705 0.0986683 
6.23988e-05 -0.000133868 0.0986476 
-3.19666e-05 -0.000116689 0.198677 
-7.5038e-05 -9.11398e-05 0.0987054 
0.000131267 -0.000183147 0.198631 
7.72807e-05 -0.000175176 0.198705 
-9.37577e-05 -7.09436e-05 0.0987112 
-7.5038e-05 -9.11398e-05 0.0987054 
7.72807e-05 -0.000175176 0.198705 
0.000131267 -0.000183147 0.198631 
7.77405e-05 -0.0001447 0.19869 
2.06858e-05 -9.60047e-05 0.19869 
-5.27775e-05 -0.000154192 0.0986567 
-3.2455e-05 -0.000162827 0.0986497 
5.50887e-05 -7.07673e-05 0.19864 
-3.2455e-05 -0.000162827 0.0986497 
-5.27775e-05 -0.000154192 0.0986567 
2.06858e-05 -9.60047e-05 0.19869 
-2.86808e-05 -0.000150788 0.0986701 
1.51222e-05 -0.000153363 0.198763 
4.14139e-07 -0.000116796 0.0987471 
-3.61778e-08 -0.000145691 0.198755 
-3.40318e-06 -0.000125188 0.098744 
-3.61778e-08 -0.000145691 0.198755 
4.14139e-07 -0.000116796 0.0987471 
1.51222e-05 -0.000153363 0.198763 
-6.76343e-07 -0.000174658 0.198765 
5.7001e-06 -0.000128265 0.150752 
7.23125e-06 -0.000147016 0.0986987 
1.10645e-05 -0.000146442 0.0987008 
1.09603e-05 -0.000149052 0.0986906 
5.7001e-06 -0.000128265 0.150752 
1.10645e-05 -0.000146442 0.0987008 
7.23125e-06 -0.000147016 0.0986987 
4.15397e-06 -0.000128299 0.15489 
5.91828e-06 -0.000135001 0.144545 
1.45742e-05 -0.000143765 0.0987128 
1.30646e-05 -0.000142502 0.0987191 
1.69994e-05 -0.000142342 0.0987116 
5.91828e-06 -0.000135001 0.144545 
1.30646e-05 -0.000142502 0.0987191 
1.45742e-05 -0.000143765 0.0987128 
4.28576e-06 -0.000134371 0.150125 
3.65122e-05 -0.000270076 0.198577 
-3.14663e-06 3.87181e-05 0.0987687 
-3.12835e-06 -4.04236e-05 0.0987595 
-2.24766e-05 -2.21132e-05 0.098766 
-3.12835e-06 -4.04236e-05 0.0987595 
-3.14663e-06 3.87181e-05 0.0987687 
3.65122e-05 -0.000270076 0.198577 
5.21066e-06 -0.000302459 0.198617 
3.12223e-05 -6.35297e-05 0.198652 
-4.99163e-06 -0.000189575 0.0986234 
1.23638e-05 -8.42638e-05 0.198676 
1.52826e-05 -4.57119e-05 0.198619 
1.23638e-05 -8.42638e-05 0.198676 
-4.99163e-06 -0.000189575 0.0986234 
3.12223e-05 -6.35297e-05 0.198652 
-1.07643e-05 -0.000166677 0.0986426 
3.42555e-06 -0.000133458 0.153642 
3.64261e-06 -0.000130615 0.15648 
9.49126e-06 -0.000144124 0.0987197 
4.28576e-06 -0.000134371 0.150125 
5.65505e-06 -0.000131786 0.149519 
2.1596e-05 -0.000144465 0.0986954 
1.7244e-05 -0.000144349 0.0987042 
2.22208e-05 -0.000143257 0.098697 
5.65505e-06 -0.000131786 0.149519 
1.7244e-05 -0.000144349 0.0987042 
2.1596e-05 -0.000144465 0.0986954 
5.51477e-06 -0.000131311 0.149008 
2.59372e-06 -0.000136768 0.156021 
3.95555e-06 -0.000143564 0.0987253 
4.28576e-06 -0.000134371 0.150125 
3.42555e-06 -0.000133458 0.153642 
2.59372e-06 -0.000136768 0.156021 
4.28576e-06 -0.000134371 0.150125 
3.95555e-06 -0.000143564 0.0987253 
8.28895e-06 -0.000143238 0.0987259 
-8.99073e-07 7.381e-05 0.19836 
-2.40418e-06 -0.000316898 0.0985423 
9.39117e-06 -0.000272596 0.147822 
1.06806e-05 0.000100076 0.198327 
9.39117e-06 -0.000272596 0.147822 
-2.40418e-06 -0.000316898 0.0985423 
-8.99073e-07 7.381e-05 0.19836 
1.5664e-05 -0.00034645 0.0985479 
4.20888e-05 -0.000288366 0.0985388 
-8.99073e-07 7.381e-05 0.19836 
1.12507e-05 -0.000264686 0.14792 
-2.15634e-05 5.68939e-05 0.19835 
1.12507e-05 -0.000264686 0.14792 
-8.99073e-07 7.381e-05 0.19836 
4.20888e-05 -0.000288366 0.0985388 
1.5664e-05 -0.00034645 0.0985479 
-0.000129786 -0.000112964 0.198543 
0.000167915 -8.46023e-05 0.0985589 
-9.38596e-05 -0.000128843 0.198631 
-0.0002164 -0.000117584 0.198349 
-0.000129786 -0.000112964 0.198543 
-9.38596e-05 -0.000128843 0.198631 
0.000167915 -8.46023e-05 0.0985589 
0.000134709 -0.000110226 0.098578 
5.09189e-06 -0.000130254 0.149913 
6.32439e-05 -0.000124317 0.0986584 
4.07179e-05 -0.00012503 0.0986871 
-4.8482e-05 -0.000130928 0.198686 
5.09189e-06 -0.000130254 0.149913 
4.07179e-05 -0.00012503 0.0986871 
6.32439e-05 -0.000124317 0.0986584 
3.99923e-05 -0.000133451 0.0986804 
-7.5038e-05 -9.11398e-05 0.0987054 
0.000151874 -0.000160644 0.198496 
-8.53275e-05 -0.000100946 0.0986885 
7.77405e-05 -0.0001447 0.19869 
-7.5038e-05 -9.11398e-05 0.0987054 
-8.53275e-05 -0.000100946 0.0986885 
0.000151874 -0.000160644 0.198496 
-0.000115557 -7.78762e-05 0.0986784 
3.57854e-05 3.6476e-05 0.198469 
-1.14611e-06 -0.000270633 0.147927 
6.02336e-05 0.000286005 0.197321 
-2.73093e-05 -0.000226381 0.147901 
6.02336e-05 0.000286005 0.197321 
-1.14611e-06 -0.000270633 0.147927 
3.57854e-05 3.6476e-05 0.198469 
1.06806e-05 0.000100076 0.198327 
-5.38558e-05 -0.000208467 0.198699 
-2.41524e-05 -0.00018041 0.198749 
1.61452e-05 -3.13073e-05 0.0987437 
1.70095e-05 -8.50517e-05 0.0987243 
1.61452e-05 -3.13073e-05 0.0987437 
-2.41524e-05 -0.00018041 0.198749 
-5.38558e-05 -0.000208467 0.198699 
-5.69415e-05 -0.000269294 0.198609 
1.61452e-05 -3.13073e-05 0.0987437 
2.22232e-05 6.85568e-06 0.0987367 
-5.38558e-05 -0.000208467 0.198699 
1.70095e-05 -8.50517e-05 0.0987243 
-5.38558e-05 -0.000208467 0.198699 
2.22232e-05 6.85568e-06 0.0987367 
1.61452e-05 -3.13073e-05 0.0987437 
-5.69415e-05 -0.000269294 0.198609 
8.22433e-05 -8.68109e-05 0.0986341 
0.000123985 -5.89767e-05 0.0985898 
-0.000109183 -0.000162325 0.198604 
-0.000141043 -0.000141237 0.19856 
8.22433e-05 -8.68109e-05 0.0986341 
-0.000109183 -0.000162325 0.198604 
0.000123985 -5.89767e-05 0.0985898 
9.05187e-05 -4.35611e-05 0.0986288 
-0.000131416 -0.000183572 0.198468 
-0.000109183 -0.000162325 0.198604 
0.000123985 -5.89767e-05 0.0985898 
-0.000141043 -0.000141237 0.19856 
-0.000131416 -0.000183572 0.198468 
0.000123985 -5.89767e-05 0.0985898 
-0.000109183 -0.000162325 0.198604 
9.05187e-05 -4.35611e-05 0.0986288 
0.000201692 -0.000194003 0.0985189 
-9.45023e-05 -2.23736e-05 0.198462 
0.000126173 -0.000161717 0.0985607 
0.000130569 -0.000213373 0.098537 
0.000201692 -0.000194003 0.0985189 
0.000126173 -0.000161717 0.0985607 
-9.45023e-05 -2.23736e-05 0.198462 
-0.00013989 -4.62554e-05 0.198457 
-0.000115557 -7.78762e-05 0.0986784 
0.000147038 -0.000128922 0.198616 
-8.1556e-05 -7.73372e-05 0.148064 
-0.00016144 -0.000100696 0.0986497 
-0.000115557 -7.78762e-05 0.0986784 
-8.1556e-05 -7.73372e-05 0.148064 
0.000147038 -0.000128922 0.198616 
0.000151874 -0.000160644 0.198496 
3.42555e-06 -0.000133458 0.153642 
7.10638e-06 -0.000144703 0.0987148 
9.49126e-06 -0.000144124 0.0987197 
3.64261e-06 -0.000130615 0.15648 
3.42555e-06 -0.000133458 0.153642 
9.49126e-06 -0.000144124 0.0987197 
7.10638e-06 -0.000144703 0.0987148 
5.22721e-06 -0.000144263 0.0987198 
-0.00016144 -0.000100696 0.0986497 
0.000194829 -0.000107856 0.198325 
0.000112561 -0.000112808 0.19862 
0.000147038 -0.000128922 0.198616 
0.000112561 -0.000112808 0.19862 
0.000194829 -0.000107856 0.198325 
-0.00016144 -0.000100696 0.0986497 
-0.00021618 -0.000118373 0.0986262 
0.000112561 -0.000112808 0.19862 
-0.000111037 -0.000119808 0.0986719 
-0.00016144 -0.000100696 0.0986497 
0.000147038 -0.000128922 0.198616 
-0.00016144 -0.000100696 0.0986497 
-0.000111037 -0.000119808 0.0986719 
0.000112561 -0.000112808 0.19862 
-0.00021618 -0.000118373 0.0986262 
SCALARS VonMises float 
LOOKUP_TABLE default
100.021 100.021 100.021 100.021 100.03 100.03 100.03 100.03 100.022 100.022 100.022 100.022 100.028 100.028 100.028 100.028 100.027 100.027 100.027 100.027 100.022 100.022 100.022 100.022 100.03 100.03 100.03 100.03 100.027 100.027 100.027 100.027 100.019 100.019 100.019 100.019 100.023 100.023 100.023 100.023 100.03 100.03 100.03 100.03 100.023 100.023 100.023 100.023 100.027 100.027 100.027 100.027 100.018 100.018 100.018 100.018 100.03 100.03 100.03 100.03 100.026 100.026 100.026 100.026 100.021 100.021 100.021 100.021 100.03 100.03 100.03 100.03 100.05 100.05 100.05 100.05 100.036 100.036 100.036 100.036 100.032 100.032 100.032 100.032 100.024 100.024 100.024 100.024 100.023 100.023 100.023 100.023 100.025 100.025 100.025 100.025 100.038 100.038 100.038 100.038 100.043 100.043 100.043 100.043 100.045 100.045 100.045 100.045 100.03 100.03 100.03 100.03 100.032 100.032 100.032 100.032 100.029 100.029 100.029 100.029 100.035 100.035 100.035 100.035 100.056 100.056 100.056 100.056 100.028 100.028 100.028 100.028 100.038 100.038 100.038 100.038 100.047 100.047 100.047 100.047 100.033 100.033 100.033 100.033 100.047 100.047 100.047 100.047 100.048 100.048 100.048 100.048 100.018 100.018 100.018 100.018 100.018 100.018 100.018 100.018 100.048 100.048 100.048 100.048 100.018 100.018 100.018 100.018 100.033 100.033 100.033 100.033 100.017 100.017 100.017 100.017 100.024 100.024 100.024 100.024 100.039 100.039 100.039 100.039 100.053 100.053 100.053 100.053 100.026 100.026 100.026 100.026 100.021 100.021 100.021 100.021 100.035 100.035 100.035 100.035 100.033 100.033 100.033 100.033 100.049 100.049 100.049 100.049 100.031 100.031 100.031 100.031 100.038 100.038 100.038 100.038 100.021 100.021 100.021 100.021 100.023 100.023 100.023 100.023 100.022 100.022 100.022 100.022 100.033 100.033 100.033 100.033 100.041 100.041 100.041 100.041 100.027 100.027 100.027 100.027 100.028 100.028 100.028 100.028 100.037 100.037 100.037 100.037 100.028 100.028 100.028 100.028 100.027 100.027 100.027 100.027 100.031 100.031 100.031 100.031 100.02 100.02 100.02 100.02 100.029 100.029 100.029 100.029 100.033 100.033 100.033 100.033 100.035 100.035 100.035 100.035 100.036 100.036 100.036 100.036 100.03 100.03 100.03 100.03 100.028 100.028 100.028 100.028 100.032 100.032 100.032 100.032 100.025 100.025 100.025 100.025 100.061 100.061 100.061 100.061 100.047 100.047 100.047 100.047 100.044 100.044 100.044 100.044 100.039 100.039 100.039 100.039 100.017 100.017 100.017 100.017 100.027 100.027 100.027 100.027 100.039 100.039 100.039 100.039 100.02 100.02 100.02 100.02 100.049 100.049 100.049 100.049 100.019 100.019 100.019 100.019 100.02 100.02 100.02 100.02 100.041 100.041 100.041 100.041 100.026 100.026 100.026 100.026 100.033 100.033 100.033 100.033 100.048 100.048 100.048 100.048 100.017 100.017 100.017 100.017 100.032 100.032 100.032 100.032 100.014 100.014 100.014 100.014 100.069 100.069 100.069 100.069 100.022 100.022 100.022 100.022 100.018 100.018 100.018 100.018 100.04 100.04 100.04 100.04 100.025 100.025 100.025 100.025 100.034 100.034 100.034 100.034 100.018 100.018 100.018 100.018 100.038 100.038 100.038 100.038 100.026 100.026 100.026 100.026 100.038 100.038 100.038 100.038 100.04 100.04 100.04 100.04 99.9313 99.9313 99.9313 99.9313 100.024 100.024 100.024 100.024 100.008 100.008 100.008 100.008 100.029 100.029 100.029 100.029 100.024 100.024 100.024 100.024 99.9419 99.9419 99.9419 99.9419 100.026 100.026 100.026 100.026 100.033 100.033 100.033 100.033 100.025 100.025 100.025 100.025 100.035 100.035 100.035 100.035 100.032 100.032 100.032 100.032 100.056 100.056 100.056 100.056 100.039 100.039 100.039 100.039 100.028 100.028 100.028 100.028 100.036 100.036 100.036 100.036 100.015 100.015 100.015 100.015 100.026 100.026 100.026 100.026 100.028 100.028 100.028 100.028 100.022 100.022 100.022 100.022 100.023 100.023 100.023 100.023 100.034 100.034 100.034 100.034 100.021 100.021 100.021 100.021 100.02 100.02 100.02 100.02 100.036 100.036 100.036 100.036 100.023 100.023 100.023 100.023 100.042 100.042 100.042 100.042 100.028 100.028 100.028 100.028 100.021 100.021 100.021 100.021 100.021 100.021 100.021 100.021 100.044 100.044 100.044 100.044 100.024 100.024 100.024 100.024 100.034 100.034 100.034 100.034 100.025 100.025 100.025 100.025 100.016 100.016 100.016 100.016 99.8369 99.8369 99.8369 99.8369 99.9832 99.9832 99.9832 99.9832 100.024 100.024 100.024 100.024 100.019 100.019 100.019 100.019 100.03 100.03 100.03 100.03 100.026 100.026 100.026 100.026 100.081 100.081 100.081 100.081 100.035 100.035 100.035 100.035 100.039 100.039 100.039 100.039 100.025 100.025 100.025 100.025 100.039 100.039 100.039 100.039 99.9953 99.9953 99.9953 99.9953 100.057 100.057 100.057 100.057 100.016 100.016 100.016 100.016 100.024 100.024 100.024 100.024 100.038 100.038 100.038 100.038 100.022 100.022 100.022 100.022 100.024 100.024 100.024 100.024 100.05 100.05 100.05 100.05 100.033 100.033 100.033 100.033 100.038 100.038 100.038 100.038 100.061 100.061 100.061 100.061 100.024 100.024 100.024 100.024 100.05 100.05 100.05 100.05 100.023 100.023 100.023 100.023 100.023 100.023 100.023 100.023 99.9771 99.9771 99.9771 99.9771 100.049 100.049 100.049 100.049 100.015 100.015 100.015 100.015 100.036 100.036 100.036 100.036 100.051 100.051 100.051 100.051 100.052 100.052 100.052 100.052 100.026 100.026 100.026 100.026 100.051 100.051 100.051 100.051 100.013 100.013 100.013 100.013 100.025 100.025 100.025 100.025 100.043 100.043 100.043 100.043 100.016 100.016 100.016 100.016 100.039 100.039 100.039 100.039 100.002 100.002 100.002 100.002 99.9203 99.9203 99.9203 99.9203 100.028 100.028 100.028 100.028 100.022 100.022 100.022 100.022 100.024 100.024 100.024 100.024 100.03 100.03 100.03 100.03 100.043 100.043 100.043 100.043 100.035 100.035 100.035 100.035 99.9943 99.9943 99.9943 99.9943 100.028 100.028 100.028 100.028 100.05 100.05 100.05 100.05 100.035 100.035 100.035 100.035 100.031 100.031 100.031 100.031 99.9124 99.9124 99.9124 99.9124 100.019 100.019 100.019 100.019 99.8635 99.8635 99.8635 99.8635 100.025 100.025 100.025 100.025 100.034 100.034 100.034 100.034 99.8477 99.8477 99.8477 99.8477 100.02 100.02 100.02 100.02 100.027 100.027 100.027 100.027 100.016 100.016 100.016 100.016 99.8612 99.8612 99.8612 99.8612 100.008 100.008 100.008 100.008 100.058 100.058 100.058 100.058 99.9141 99.9141 99.9141 99.9141 100.022 100.022 100.022 100.022 100.017 100.017 100.017 100.017 100.014 100.014 100.014 100.014 99.9501 99.9501 99.9501 99.9501 100.022 100.022 100.022 100.022 100.019 100.019 100.019 100.019 100.033 100.033 100.033 100.033 100.025 100.025 100.025 100.025 100.045 100.045 100.045 100.045 100.025 100.025 100.025 100.025 100.018 100.018 100.018 100.018 99.9104 99.9104 99.9104 99.9104 100.04 100.04 100.04 100.04 100.022 100.022 100.022 100.022 99.8416 99.8416 99.8416 99.8416 100.039 100.039 100.039 100.039 100.04 100.04 100.04 100.04 100.062 100.062 100.062 100.062 100.022 100.022 100.022 100.022 100.037 100.037 100.037 100.037 100.061 100.061 100.061 100.061 100.027 100.027 100.027 100.027 100.012 100.012 100.012 100.012 100.045 100.045 100.045 100.045 100.034 100.034 100.034 100.034 100.023 100.023 100.023 100.023 100.011 100.011 100.011 100.011 100.04 100.04 100.04 100.04 100.022 100.022 100.022 100.022 100.02 100.02 100.02 100.02 100.058 100.058 100.058 100.058 100.015 100.015 100.015 100.015 100.02 100.02 100.02 100.02 100.027 100.027 100.027 100.027 100.019 100.019 100.019 100.019 100.025 100.025 100.025 100.025 100.039 100.039 100.039 100.039 100.026 100.026 100.026 100.026 100.024 100.024 100.024 100.024 100.028 100.028 100.028 100.028 100.036 100.036 100.036 100.036 100.052 100.052 100.052 100.052 100.024 100.024 100.024 100.024 99.8888 99.8888 99.8888 99.8888 100.024 100.024 100.024 100.024 100.038 100.038 100.038 100.038 100.023 100.023 100.023 100.023 100.023 100.023 100.023 100.023 100.051 100.051 100.051 100.051 100.026 100.026 100.026 100.026 100.053 100.053 100.053 100.053 100.025 100.025 100.025 100.025 100.083 100.083 100.083 100.083 100.009 100.009 100.009 100.009 100.018 100.018 100.018 100.018 100.035 100.035 100.035 100.035 99.9948 99.9948 99.9948 99.9948 100.022 100.022 100.022 100.022 100.043 100.043 100.043 100.043 99.8181 99.8181 99.8181 99.8181 100.045 100.045 100.045 100.045 100.023 100.023 100.023 100.023 99.8341 99.8341 99.8341 99.8341 99.9752 99.9752 99.9752 99.9752 100.027 100.027 100.027 100.027 99.9863 99.9863 99.9863 99.9863 100.064 100.064 100.064 100.064 100.033 100.033 100.033 100.033 100.024 100.024 100.024 100.024 99.9996 99.9996 99.9996 99.9996 100.042 100.042 100.042 100.042 100.023 100.023 100.023 100.023 100.032 100.032 100.032 100.032 100.066 100.066 100.066 100.066 100.043 100.043 100.043 100.043 99.9069 99.9069 99.9069 99.9069 100.01 100.01 100.01 100.01 100.025 100.025 100.025 100.025 100.048 100.048 100.048 100.048 100.06 100.06 100.06 100.06 100.024 100.024 100.024 100.024 100.025 100.025 100.025 100.025 100.015 100.015 100.015 100.015 100.086 100.086 100.086 100.086 100.007 100.007 100.007 100.007 100.036 100.036 100.036 100.036 100.021 100.021 100.021 100.021 99.9753 99.9753 99.9753 99.9753 100.016 100.016 100.016 100.016 100.016 100.016 100.016 100.016 99.9827 99.9827 99.9827 99.9827 100.037 100.037 100.037 100.037 99.8976 99.8976 99.8976 99.8976 100.011 100.011 100.011 100.011 99.9928 99.9928 99.9928 99.9928 100.021 100.021 100.021 100.021 100.004 100.004 100.004 100.004 100.02 100.02 100.02 100.02 100.024 100.024 100.024 100.024 100.067 100.067 100.067 100.067 100.022 100.022 100.022 100.022 99.8684 99.8684 99.8684 99.8684 99.8185 99.8185 99.8185 99.8185 100.038 100.038 100.038 100.038 100.024 100.024 100.024 100.024 99.8437 99.8437 99.8437 99.8437 99.9495 99.9495 99.9495 99.9495 99.6715 99.6715 99.6715 99.6715 100.025 100.025 100.025 100.025 100.023 100.023 100.023 100.023 100.059 100.059 100.059 100.059 100.023 100.023 100.023 100.023 99.897 99.897 99.897 99.897 99.9142 99.9142 99.9142 99.9142 99.9828 99.9828 99.9828 99.9828 99.9807 99.9807 99.9807 99.9807 99.7249 99.7249 99.7249 99.7249 99.8475 99.8475 99.8475 99.8475 99.9647 99.9647 99.9647 99.9647 99.9563 99.9563 99.9563 99.9563 100.021 100.021 100.021 100.021 99.7685 99.7685 99.7685 99.7685 100.023 100.023 100.023 100.023 100.025 100.025 100.025 100.025 99.9616 99.9616 99.9616 99.9616 99.834 99.834 99.834 99.834 100.005 100.005 100.005 100.005 99.831 99.831 99.831 99.831 100.046 100.046 100.046 100.046 99.9199 99.9199 99.9199 99.9199 100.004 100.004 100.004 100.004 100.067 100.067 100.067 100.067 100.019 100.019 100.019 100.019 100.038 100.038 100.038 100.038 99.8328 99.8328 99.8328 99.8328 99.8341 99.8341 99.8341 99.8341 100.02 100.02 100.02 100.02 99.8097 99.8097 99.8097 99.8097 100.009 100.009 100.009 100.009 100.026 100.026 100.026 100.026 100.04 100.04 100.04 100.04 99.8729 99.8729 99.8729 99.8729 100.018 100.018 100.018 100.018 99.9889 99.9889 99.9889 99.9889 100.004 100.004 100.004 100.004 99.8942 99.8942 99.8942 99.8942 99.9369 99.9369 99.9369 99.9369 99.8559 99.8559 99.8559 99.8559 100.029 100.029 100.029 100.029 100.019 100.019 100.019 100.019 100.031 100.031 100.031 100.031 100.029 100.029 100.029 100.029 100.017 100.017 100.017 100.017 99.7712 99.7712 99.7712 99.7712 99.7703 99.7703 99.7703 99.7703 99.8573 99.8573 99.8573 99.8573 99.9465 99.9465 99.9465 99.9465 100.039 100.039 100.039 100.039 99.9001 99.9001 99.9001 99.9001 99.9522 99.9522 99.9522 99.9522 99.9915 99.9915 99.9915 99.9915 100.024 100.024 100.024 100.024 100.013 100.013 100.013 100.013 99.9807 99.9807 99.9807 99.9807 99.996 99.996 99.996 99.996 100.044 100.044 100.044 100.044 100.018 100.018 100.018 100.018 100.003 100.003 100.003 100.003 100.03 100.03 100.03 100.03 99.9629 99.9629 99.9629 99.9629 99.8401 99.8401 99.8401 99.8401 100.022 100.022 100.022 100.022 100.023 100.023 100.023 100.023 99.9452 99.9452 99.9452 99.9452 100.024 100.024 100.024 100.024 100.044 100.044 100.044 100.044 100.001 100.001 100.001 100.001 99.998 99.998 99.998 99.998 99.9858 99.9858 99.9858 99.9858 100.024 100.024 100.024 100.024 100.02 100.02 100.02 100.02 99.826 99.826 99.826 99.826 100.014 100.014 100.014 100.014 100.016 100.016 100.016 100.016 99.8044 99.8044 99.8044 99.8044 100.036 100.036 100.036 100.036 99.9694 99.9694 99.9694 99.9694 100.039 100.039 100.039 100.039 99.9824 99.9824 99.9824 99.9824 99.9463 99.9463 99.9463 99.9463 99.9089 99.9089 99.9089 99.9089 100.021 100.021 100.021 100.021 99.9816 99.9816 99.9816 99.9816 99.9106 99.9106 99.9106 99.9106 99.8041 99.8041 99.8041 99.8041 100.023 100.023 100.023 100.023 100.022 100.022 100.022 100.022 100.046 100.046 100.046 100.046 99.7253 99.7253 99.7253 99.7253 99.9423 99.9423 99.9423 99.9423 99.8519 99.8519 99.8519 99.8519 99.9819 99.9819 99.9819 99.9819 100.018 100.018 100.018 100.018 99.9136 99.9136 99.9136 99.9136 99.9472 99.9472 99.9472 99.9472 100.013 100.013 100.013 100.013 100.019 100.019 100.019 100.019 99.8936 99.8936 99.8936 99.8936 99.958 99.958 99.958 99.958 99.9862 99.9862 99.9862 99.9862 100.057 100.057 100.057 100.057 100.076 100.076 100.076 100.076 99.9387 99.9387 99.9387 99.9387 100.029 100.029 100.029 100.029 100.022 100.022 100.022 100.022 99.9754 99.9754 99.9754 99.9754 99.8505 99.8505 99.8505 99.8505 100.039 100.039 100.039 100.039 100.072 100.072 100.072 100.072 99.999 99.999 99.999 99.999 100.027 100.027 100.027 100.027 100.007 100.007 100.007 100.007 100.046 100.046 100.046 100.046 99.8965 99.8965 99.8965 99.8965 99.8488 99.8488 99.8488 99.8488 100.049 100.049 100.049 100.049 99.9603 99.9603 99.9603 99.9603 100 100 100 100 99.9593 99.9593 99.9593 99.9593 99.8188 99.8188 99.8188 99.8188 99.9847 99.9847 99.9847 99.9847 100.033 100.033 100.033 100.033 100.008 100.008 100.008 100.008 99.9134 99.9134 99.9134 99.9134 100.03 100.03 100.03 100.03 100.005 100.005 100.005 100.005 100.058 100.058 100.058 100.058 99.9029 99.9029 99.9029 99.9029 99.9852 99.9852 99.9852 99.9852 99.7268 99.7268 99.7268 99.7268 100.016 100.016 100.016 100.016 99.9782 99.9782 99.9782 99.9782 100.01 100.01 100.01 100.01 100.021 100.021 100.021 100.021 99.9911 99.9911 99.9911 99.9911 99.9671 99.9671 99.9671 99.9671 100.022 100.022 100.022 100.022 100.016 100.016 100.016 100.016 99.9798 99.9798 99.9798 99.9798 99.8396 99.8396 99.8396 99.8396 99.7529 99.7529 99.7529 99.7529 99.9038 99.9038 99.9038 99.9038 100.024 100.024 100.024 100.024 99.8219 99.8219 99.8219 99.8219 100.033 100.033 100.033 100.033 99.8974 99.8974 99.8974 99.8974 99.9942 99.9942 99.9942 99.9942 100.024 100.024 100.024 100.024 100.021 100.021 100.021 100.021 100.022 100.022 100.022 100.022 99.8284 99.8284 99.8284 99.8284 100.022 100.022 100.022 100.022 99.9843 99.9843 99.9843 99.9843 100.034 100.034 100.034 100.034 99.7025 99.7025 99.7025 99.7025 99.9586 99.9586 99.9586 99.9586 99.8832 99.8832 99.8832 99.8832 100.017 100.017 100.017 100.017 99.9918 99.9918 99.9918 99.9918 99.9332 99.9332 99.9332 99.9332 100.008 100.008 100.008 100.008 99.9 99.9 99.9 99.9 100.018 100.018 100.018 100.018 99.9378 99.9378 99.9378 99.9378 99.991 99.991 99.991 99.991 99.983 99.983 99.983 99.983 99.8246 99.8246 99.8246 99.8246 99.8001 99.8001 99.8001 99.8001 99.8399 99.8399 99.8399 99.8399 99.9799 99.9799 99.9799 99.9799 99.8316 99.8316 99.8316 99.8316 99.8159 99.8159 99.8159 99.8159 100.016 100.016 100.016 100.016 100.035 100.035 100.035 100.035 100.025 100.025 100.025 100.025 100.019 100.019 100.019 100.019 99.9099 99.9099 99.9099 99.9099 100.021 100.021 100.021 100.021 99.8585 99.8585 99.8585 99.8585 99.9283 99.9283 99.9283 99.9283 100.003 100.003 100.003 100.003 99.8162 99.8162 99.8162 99.8162 100.017 100.017 100.017 100.017 100.032 100.032 100.032 100.032 100.016 100.016 100.016 100.016 100.023 100.023 100.023 100.023 99.9541 99.9541 99.9541 99.9541 99.9925 99.9925 99.9925 99.9925 100.028 100.028 100.028 100.028 100.01 100.01 100.01 100.01 99.9506 99.9506 99.9506 99.9506 100.022 100.022 100.022 100.022 99.9633 99.9633 99.9633 99.9633 100.024 100.024 100.024 100.024 100.004 100.004 100.004 100.004 100.06 100.06 100.06 100.06 99.7974 99.7974 99.7974 99.7974 100.062 100.062 100.062 100.062 100.067 100.067 100.067 100.067 100.026 100.026 100.026 100.026 100.02 100.02 100.02 100.02 100.048 100.048 100.048 100.048 99.9139 99.9139 99.9139 99.9139 100.018 100.018 100.018 100.018 100.004 100.004 100.004 100.004 100.011 100.011 100.011 100.011 100.072 100.072 100.072 100.072 100.029 100.029 100.029 100.029 100.072 100.072 100.072 100.072 100.023 100.023 100.023 100.023 100.047 100.047 100.047 100.047 99.7389 99.7389 99.7389 99.7389 99.8987 99.8987 99.8987 99.8987 99.8813 99.8813 99.8813 99.8813 99.868 99.868 99.868 99.868 99.9425 99.9425 99.9425 99.9425 99.9214 99.9214 99.9214 99.9214 100.029 100.029 100.029 100.029 99.98 99.98 99.98 99.98 100.02 100.02 100.02 100.02 100.008 100.008 100.008 100.008 99.7579 99.7579 99.7579 99.7579 99.8402 99.8402 99.8402 99.8402 99.8176 99.8176 99.8176 99.8176 99.9552 99.9552 99.9552 99.9552 99.9449 99.9449 99.9449 99.9449 100.002 100.002 100.002 100.002 99.9533 99.9533 99.9533 99.9533 99.9595 99.9595 99.9595 99.9595 100.011 100.011 100.011 100.011 99.9508 99.9508 99.9508 99.9508 100.052 100.052 100.052 100.052 99.9595 99.9595 99.9595 99.9595 100.047 100.047 100.047 100.047 99.941 99.941 99.941 99.941 99.9773 99.9773 99.9773 99.9773 100.021 100.021 100.021 100.021 99.9917 99.9917 99.9917 99.9917 100.024 100.024 100.024 100.024 99.9455 99.9455 99.9455 99.9455 99.7882 99.7882 99.7882 99.7882 99.9831 99.9831 99.9831 99.9831 99.2958 99.2958 99.2958 99.2958 99.9307 99.9307 99.9307 99.9307 100.022 100.022 100.022 100.022 99.8683 99.8683 99.8683 99.8683 100.06 100.06 100.06 100.06 100.015 100.015 100.015 100.015 100.008 100.008 100.008 100.008 100.001 100.001 100.001 100.001 99.8921 99.8921 99.8921 99.8921 100.031 100.031 100.031 100.031 100.011 100.011 100.011 100.011 100.028 100.028 100.028 100.028 99.9966 99.9966 99.9966 99.9966 100.008 100.008 100.008 100.008 99.1092 99.1092 99.1092 99.1092 99.8869 99.8869 99.8869 99.8869 99.9849 99.9849 99.9849 99.9849 99.7155 99.7155 99.7155 99.7155 99.8832 99.8832 99.8832 99.8832 100.016 100.016 100.016 100.016 99.7847 99.7847 99.7847 99.7847 100.019 100.019 100.019 100.019 99.9314 99.9314 99.9314 99.9314 100.021 100.021 100.021 100.021 100.029 100.029 100.029 100.029 100.022 100.022 100.022 100.022 100.017 100.017 100.017 100.017 100.016 100.016 100.016 100.016 100.014 100.014 100.014 100.014 99.9497 99.9497 99.9497 99.9497 99.9012 99.9012 99.9012 99.9012 100.032 100.032 100.032 100.032 100.04 100.04 100.04 100.04 99.7287 99.7287 99.7287 99.7287 99.9935 99.9935 99.9935 99.9935 100.052 100.052 100.052 100.052 99.9997 99.9997 99.9997 99.9997 100.026 100.026 100.026 100.026 99.9918 99.9918 99.9918 99.9918 99.8405 99.8405 99.8405 99.8405 100.03 100.03 100.03 100.03 99.7796 99.7796 99.7796 99.7796 100.016 100.016 100.016 100.016 99.8428 99.8428 99.8428 99.8428 100.05 100.05 100.05 100.05 99.981 99.981 99.981 99.981 99.1052 99.1052 99.1052 99.1052 100.008 100.008 100.008 100.008 100.018 100.018 100.018 100.018 99.9662 99.9662 99.9662 99.9662 99.9963 99.9963 99.9963 99.9963 100.036 100.036 100.036 100.036 100.035 100.035 100.035 100.035 99.9799 99.9799 99.9799 99.9799 99.9752 99.9752 99.9752 99.9752 100.019 100.019 100.019 100.019 99.0281 99.0281 99.0281 99.0281 99.9621 99.9621 99.9621 99.9621 99.8736 99.8736 99.8736 99.8736 99.9491 99.9491 99.9491 99.9491 99.8368 99.8368 99.8368 99.8368 99.9503 99.9503 99.9503 99.9503 99.1163 99.1163 99.1163 99.1163 99.9057 99.9057 99.9057 99.9057 99.8764 99.8764 99.8764 99.8764 99.9852 99.9852 99.9852 99.9852 99.4208 99.4208 99.4208 99.4208 99.2308 99.2308 99.2308 99.2308 100.015 100.015 100.015 100.015 100.027 100.027 100.027 100.027 99.9736 99.9736 99.9736 99.9736 99.9636 99.9636 99.9636 99.9636 99.8399 99.8399 99.8399 99.8399 99.8746 99.8746 99.8746 99.8746 100.036 100.036 100.036 100.036 99.9608 99.9608 99.9608 99.9608 100.016 100.016 100.016 100.016 99.0321 99.0321 99.0321 99.0321 100.045 100.045 100.045 100.045 99.7576 99.7576 99.7576 99.7576 100.022 100.022 100.022 100.022 99.1671 99.1671 99.1671 99.1671 100.057 100.057 100.057 100.057 100.058 100.058 100.058 100.058 99.1907 99.1907 99.1907 99.1907 99.1674 99.1674 99.1674 99.1674 99.9501 99.9501 99.9501 99.9501 99.8837 99.8837 99.8837 99.8837 100.002 100.002 100.002 100.002 100.056 100.056 100.056 100.056 100.029 100.029 100.029 100.029 99.4205 99.4205 99.4205 99.4205 99.9705 99.9705 99.9705 99.9705 100.055 100.055 100.055 100.055 100.014 100.014 100.014 100.014 99.8874 99.8874 99.8874 99.8874 99.0901 99.0901 99.0901 99.0901 99.9174 99.9174 99.9174 99.9174 100.023 100.023 100.023 100.023 99.7409 99.7409 99.7409 99.7409 100.053 100.053 100.053 100.053 100.021 100.021 100.021 100.021 99.978 99.978 99.978 99.978 99.909 99.909 99.909 99.909 100.067 100.067 100.067 100.067 100.044 100.044 100.044 100.044 99.2848 99.2848 99.2848 99.2848 100.016 100.016 100.016 100.016 100.017 100.017 100.017 100.017 98.9359 98.9359 98.9359 98.9359 99.7827 99.7827 99.7827 99.7827 99.0177 99.0177 99.0177 99.0177 99.9297 99.9297 99.9297 99.9297 99.2221 99.2221 99.2221 99.2221 98.9643 98.9643 98.9643 98.9643 99.988 99.988 99.988 99.988 99.9901 99.9901 99.9901 99.9901 100.056 100.056 100.056 100.056 100.023 100.023 100.023 100.023 99.9683 99.9683 99.9683 99.9683 98.7331 98.7331 98.7331 98.7331 99.1852 99.1852 99.1852 99.1852 99.7744 99.7744 99.7744 99.7744 99.7323 99.7323 99.7323 99.7323 99.08 99.08 99.08 99.08 99.7491 99.7491 99.7491 99.7491 99.9622 99.9622 99.9622 99.9622 99.8095 99.8095 99.8095 99.8095 99.22 99.22 99.22 99.22 98.9402 98.9402 98.9402 98.9402 100.016 100.016 100.016 100.016 98.782 98.782 98.782 98.782 98.7394 98.7394 98.7394 98.7394 99.9505 99.9505 99.9505 99.9505 100.016 100.016 100.016 100.016 99.9041 99.9041 99.9041 99.9041 100.02 100.02 100.02 100.02 98.8799 98.8799 98.8799 98.8799 98.9135 98.9135 98.9135 98.9135 99.1498 99.1498 99.1498 99.1498 99.935 99.935 99.935 99.935 99.9701 99.9701 99.9701 99.9701 99.8256 99.8256 99.8256 99.8256 100.013 100.013 100.013 100.013 99.9593 99.9593 99.9593 99.9593 99.9664 99.9664 99.9664 99.9664 100.021 100.021 100.021 100.021 99.9554 99.9554 99.9554 99.9554 99.2038 99.2038 99.2038 99.2038 100.02 100.02 100.02 100.02 99.8425 99.8425 99.8425 99.8425 99.0562 99.0562 99.0562 99.0562 99.963 99.963 99.963 99.963 100.007 100.007 100.007 100.007 99.0178 99.0178 99.0178 99.0178 99.732 99.732 99.732 99.732 99.0026 99.0026 99.0026 99.0026 100.022 100.022 100.022 100.022 100.052 100.052 100.052 100.052 99.9823 99.9823 99.9823 99.9823 99.9145 99.9145 99.9145 99.9145 99.0687 99.0687 99.0687 99.0687 100.029 100.029 100.029 100.029 99.0456 99.0456 99.0456 99.0456 100.001 100.001 100.001 100.001 99.9687 99.9687 99.9687 99.9687 98.8989 98.8989 98.8989 98.8989 99.0349 99.0349 99.0349 99.0349 99.0443 99.0443 99.0443 99.0443 99.9567 99.9567 99.9567 99.9567 98.9017 98.9017 98.9017 98.9017 99.9335 99.9335 99.9335 99.9335 98.9282 98.9282 98.9282 98.9282 100.025 100.025 100.025 100.025 100.012 100.012 100.012 100.012 99.0156 99.0156 99.0156 99.0156 100.051 100.051 100.051 100.051 100.069 100.069 100.069 100.069 99.9473 99.9473 99.9473 99.9473 100.055 100.055 100.055 100.055 98.9124 98.9124 98.9124 98.9124 99.0935 99.0935 99.0935 99.0935 100.073 100.073 100.073 100.073 100.008 100.008 100.008 100.008 100.006 100.006 100.006 100.006 99.9918 99.9918 99.9918 99.9918 98.9416 98.9416 98.9416 98.9416 99.0021 99.0021 99.0021 99.0021 99.2581 99.2581 99.2581 99.2581 100.003 100.003 100.003 100.003 99.9439 99.9439 99.9439 99.9439 100.04 100.04 100.04 100.04 99.9235 99.9235 99.9235 99.9235 99.1037 99.1037 99.1037 99.1037 100.048 100.048 100.048 100.048 98.9824 98.9824 98.9824 98.9824 99.1822 99.1822 99.1822 99.1822 98.9991 98.9991 98.9991 98.9991 98.912 98.912 98.912 98.912 100.016 100.016 100.016 100.016 99.9288 99.9288 99.9288 99.9288 100.025 100.025 100.025 100.025 100.034 100.034 100.034 100.034 100.022 100.022 100.022 100.022 100.013 100.013 100.013 100.013 100.033 100.033 100.033 100.033 99.1897 99.1897 99.1897 99.1897 99.9443 99.9443 99.9443 99.9443 98.9475 98.9475 98.9475 98.9475 99.888 99.888 99.888 99.888 98.96 98.96 98.96 98.96 98.9733 98.9733 98.9733 98.9733 99.0124 99.0124 99.0124 99.0124 99.9691 99.9691 99.9691 99.9691 99.9476 99.9476 99.9476 99.9476 100.022 100.022 100.022 100.022 99.9212 99.9212 99.9212 99.9212 98.901 98.901 98.901 98.901 98.8266 98.8266 98.8266 98.8266 99.096 99.096 99.096 99.096 98.8893 98.8893 98.8893 98.8893 99.9984 99.9984 99.9984 99.9984 99.1526 99.1526 99.1526 99.1526 99.1099 99.1099 99.1099 99.1099 98.7194 98.7194 98.7194 98.7194 99.9747 99.9747 99.9747 99.9747 99.2381 99.2381 99.2381 99.2381 99.1868 99.1868 99.1868 99.1868 99.2107 99.2107 99.2107 99.2107 99.0177 99.0177 99.0177 99.0177 100.059 100.059 100.059 100.059 98.0891 98.0891 98.0891 98.0891 99.0242 99.0242 99.0242 99.0242 98.9772 98.9772 98.9772 98.9772 100.026 100.026 100.026 100.026 98.8276 98.8276 98.8276 98.8276 100.025 100.025 100.025 100.025 98.9903 98.9903 98.9903 98.9903 98.384 98.384 98.384 98.384 99.9142 99.9142 99.9142 99.9142 99.0822 99.0822 99.0822 99.0822 99.8147 99.8147 99.8147 99.8147 100.023 100.023 100.023 100.023 99.0401 99.0401 99.0401 99.0401 98.7497 98.7497 98.7497 98.7497 100.017 100.017 100.017 100.017 99.2082 99.2082 99.2082 99.2082 99.9129 99.9129 99.9129 99.9129 99.9618 99.9618 99.9618 99.9618 98.9279 98.9279 98.9279 98.9279 98.7535 98.7535 98.7535 98.7535 99.0283 99.0283 99.0283 99.0283 100.027 100.027 100.027 100.027 99.3341 99.3341 99.3341 99.3341 99.9457 99.9457 99.9457 99.9457 99.2165 99.2165 99.2165 99.2165 98.8925 98.8925 98.8925 98.8925 100.037 100.037 100.037 100.037 99.0519 99.0519 99.0519 99.0519 100.024 100.024 100.024 100.024 100.022 100.022 100.022 100.022 100.019 100.019 100.019 100.019 99.1918 99.1918 99.1918 99.1918 99.0497 99.0497 99.0497 99.0497 100.024 100.024 100.024 100.024 99.3383 99.3383 99.3383 99.3383 98.7466 98.7466 98.7466 98.7466 99.0706 99.0706 99.0706 99.0706 98.5426 98.5426 98.5426 98.5426 100.015 100.015 100.015 100.015 98.5837 98.5837 98.5837 98.5837 99.0111 99.0111 99.0111 99.0111 98.5976 98.5976 98.5976 98.5976 98.4204 98.4204 98.4204 98.4204 100.016 100.016 100.016 100.016 98.686 98.686 98.686 98.686 98.9309 98.9309 98.9309 98.9309 100.014 100.014 100.014 100.014 98.6657 98.6657 98.6657 98.6657 98.6581 98.6581 98.6581 98.6581 100.02 100.02 100.02 100.02 100.02 100.02 100.02 100.02 99.2893 99.2893 99.2893 99.2893 100.019 100.019 100.019 100.019 100.014 100.014 100.014 100.014 98.7147 98.7147 98.7147 98.7147 99.0173 99.0173 99.0173 99.0173 99.0603 99.0603 99.0603 99.0603 100.034 100.034 100.034 100.034 100.029 100.029 100.029 100.029 100.022 100.022 100.022 100.022 99.0141 99.0141 99.0141 99.0141 98.1439 98.1439 98.1439 98.1439 98.1771 98.1771 98.1771 98.1771 99.0652 99.0652 99.0652 99.0652 98.7714 98.7714 98.7714 98.7714 100.021 100.021 100.021 100.021 98.6329 98.6329 98.6329 98.6329 99.1902 99.1902 99.1902 99.1902 100.016 100.016 100.016 100.016 98.9194 98.9194 98.9194 98.9194 99.9398 99.9398 99.9398 99.9398 98.6662 98.6662 98.6662 98.6662 99.2016 99.2016 99.2016 99.2016 98.6298 98.6298 98.6298 98.6298 98.0926 98.0926 98.0926 98.0926 98.6401 98.6401 98.6401 98.6401 100.033 100.033 100.033 100.033 98.6749 98.6749 98.6749 98.6749 98.5785 98.5785 98.5785 98.5785 100.018 100.018 100.018 100.018 98.9371 98.9371 98.9371 98.9371 99.1838 99.1838 99.1838 99.1838 100.01 100.01 100.01 100.01 99.0451 99.0451 99.0451 99.0451 100.018 100.018 100.018 100.018 98.8907 98.8907 98.8907 98.8907 100.049 100.049 100.049 100.049 100.018 100.018 100.018 100.018 99.0434 99.0434 99.0434 99.0434 100.027 100.027 100.027 100.027 99.2668 99.2668 99.2668 99.2668 100.02 100.02 100.02 100.02 100.022 100.022 100.022 100.022 98.663 98.663 98.663 98.663 100.02 100.02 100.02 100.02 98.0816 98.0816 98.0816 98.0816 100.025 100.025 100.025 100.025 98.6708 98.6708 98.6708 98.6708 100.022 100.022 100.022 100.022 100.035 100.035 100.035 100.035 100.019 100.019 100.019 100.019 98.1543 98.1543 98.1543 98.1543 100.018 100.018 100.018 100.018 98.1528 98.1528 98.1528 98.1528 100.016 100.016 100.016 100.016 100.012 100.012 100.012 100.012 100.017 100.017 100.017 100.017 100.024 100.024 100.024 100.024 100.024 100.024 100.024 100.024 100.025 100.025 100.025 100.025 100.025 100.025 100.025 100.025 100.025 100.025 100.025 100.025 100.011 100.011 100.011 100.011 100.008 100.008 100.008 100.008 100.023 100.023 100.023 100.023 100.02 100.02 100.02 100.02 100.022 100.022 100.022 100.022 100.019 100.019 100.019 100.019 100.027 100.027 100.027 100.027 98.5741 98.5741 98.5741 98.5741 100.019 100.019 100.019 100.019 98.6949 98.6949 98.6949 98.6949 100.019 100.019 100.019 100.019 100.026 100.026 100.026 100.026 100.023 100.023 100.023 100.023 100.026 100.026 100.026 100.026 100.015 100.015 100.015 100.015 100.013 100.013 100.013 100.013 100.016 100.016 100.016 100.016 100.023 100.023 100.023 100.023 99.2382 99.2382 99.2382 99.2382 100.028 100.028 100.028 100.028 100.021 100.021 100.021 100.021 100.032 100.032 100.032 100.032 100.022 100.022 100.022 100.022 98.1405 98.1405 98.1405 98.1405 100.022 100.022 100.022 100.022 100.01 100.01 100.01 100.01 100.017 100.017 100.017 100.017 100.019 100.019 100.019 100.019 98.4008 98.4008 98.4008 98.4008 100.024 100.024 100.024 100.024 98.6523 98.6523 98.6523 98.6523 100.019 100.019 100.019 100.019 100.021 100.021 100.021 100.021 98.6167 98.6167 98.6167 98.6167 100.021 100.021 100.021 100.021 98.196 98.196 98.196 98.196 98.3226 98.3226 98.3226 98.3226 98.8785 98.8785 98.8785 98.8785 100.011 100.011 100.011 100.011 100.013 100.013 100.013 100.013 100.01 100.01 100.01 100.01 98.9256 98.9256 98.9256 98.9256 100.022 100.022 100.022 100.022 100.025 100.025 100.025 100.025 100.012 100.012 100.012 100.012 99.0851 99.0851 99.0851 99.0851 98.9518 98.9518 98.9518 98.9518 98.8938 98.8938 98.8938 98.8938 100.014 100.014 100.014 100.014 98.7216 98.7216 98.7216 98.7216 98.4053 98.4053 98.4053 98.4053 99.0751 99.0751 99.0751 99.0751 98.9988 98.9988 98.9988 98.9988 99.1801 99.1801 99.1801 99.1801 98.9303 98.9303 98.9303 98.9303 100.017 100.017 100.017 100.017 98.4055 98.4055 98.4055 98.4055 99.22 99.22 99.22 99.22 99.0112 99.0112 99.0112 99.0112 99.305 99.305 99.305 99.305 100.022 100.022 100.022 100.022 100.026 100.026 100.026 100.026 98.378 98.378 98.378 98.378 99.2212 99.2212 99.2212 99.2212 98.9221 98.9221 98.9221 98.9221 98.9172 98.9172 98.9172 98.9172 98.7703 98.7703 98.7703 98.7703 100.037 100.037 100.037 100.037 99.4401 99.4401 99.4401 99.4401 99.1892 99.1892 99.1892 99.1892 100.009 100.009 100.009 100.009 99.2518 99.2518 99.2518 99.2518 99.2107 99.2107 99.2107 99.2107 99.1469 99.1469 99.1469 99.1469 98.6394 98.6394 98.6394 98.6394 98.8199 98.8199 98.8199 98.8199 98.8619 98.8619 98.8619 98.8619 99.0214 99.0214 99.0214 99.0214 98.9203 98.9203 98.9203 98.9203 99.2233 99.2233 99.2233 99.2233 98.8263 98.8263 98.8263 98.8263 99.205 99.205 99.205 99.205 98.6464 98.6464 98.6464 98.6464 100.007 100.007 100.007 100.007 99.1534 99.1534 99.1534 99.1534 98.25 98.25 98.25 98.25 99.0564 99.0564 99.0564 99.0564 98.3281 98.3281 98.3281 98.3281 98.6355 98.6355 98.6355 98.6355 98.8397 98.8397 98.8397 98.8397 99.1417 99.1417 99.1417 99.1417 100.021 100.021 100.021 100.021 99.2904 99.2904 99.2904 99.2904 99.0818 99.0818 99.0818 99.0818 99.3223 99.3223 99.3223 99.3223 98.7473 98.7473 98.7473 98.7473 98.5723 98.5723 98.5723 98.5723 98.2889 98.2889 98.2889 98.2889 98.8882 98.8882 98.8882 98.8882 98.4158 98.4158 98.4158 98.4158 98.4838 98.4838 98.4838 98.4838 100.012 100.012 100.012 100.012 98.6356 98.6356 98.6356 98.6356 99.3307 99.3307 99.3307 99.3307 98.8701 98.8701 98.8701 98.8701 98.7689 98.7689 98.7689 98.7689 98.7359 98.7359 98.7359 98.7359 99.0162 99.0162 99.0162 99.0162 98.6234 98.6234 98.6234 98.6234 98.9918 98.9918 98.9918 98.9918 98.6656 98.6656 98.6656 98.6656 98.7158 98.7158 98.7158 98.7158 99.1773 99.1773 99.1773 99.1773 98.6346 98.6346 98.6346 98.6346 100.026 100.026 100.026 100.026 100.017 100.017 100.017 100.017 99.9992 99.9992 99.9992 99.9992 100.015 100.015 100.015 100.015 100.004 100.004 100.004 100.004 99.9998 99.9998 99.9998 99.9998 100.014 100.014 100.014 100.014 100.034 100.034 100.034 100.034 100.034 100.034 100.034 100.034 100.029 100.029 100.029 100.029 100.032 100.032 100.032 100.032 100.042 100.042 100.042 100.042 99.9215 99.9215 99.9215 99.9215 99.9278 99.9278 99.9278 99.9278 100.029 100.029 100.029 100.029 100.009 100.009 100.009 100.009 100.007 100.007 100.007 100.007 100.021 100.021 100.021 100.021 100.021 100.021 100.021 100.021 100.023 100.023 100.023 100.023 100.02 100.02 100.02 100.02 100.021 100.021 100.021 100.021 99.8776 99.8776 99.8776 99.8776 99.899 99.899 99.899 99.899 100.001 100.001 100.001 100.001 100.03 100.03 100.03 100.03 100.022 100.022 100.022 100.022 100.021 100.021 100.021 100.021 100.023 100.023 100.023 100.023 100.019 100.019 100.019 100.019 100.021 100.021 100.021 100.021 99.8913 99.8913 99.8913 99.8913 99.8152 99.8152 99.8152 99.8152 99.9407 99.9407 99.9407 99.9407 99.9741 99.9741 99.9741 99.9741 99.9561 99.9561 99.9561 99.9561 99.9055 99.9055 99.9055 99.9055 100.033 100.033 100.033 100.033 100.05 100.05 100.05 100.05 99.9382 99.9382 99.9382 99.9382 99.8625 99.8625 99.8625 99.8625 98.7239 98.7239 98.7239 98.7239 98.6861 98.6861 98.6861 98.6861 99.8532 99.8532 99.8532 99.8532 100.048 100.048 100.048 100.048 99.8946 99.8946 99.8946 99.8946 100.033 100.033 100.033 100.033 100.026 100.026 100.026 100.026 100.024 100.024 100.024 100.024 99.859 99.859 99.859 99.859 99.9136 99.9136 99.9136 99.9136 99.9785 99.9785 99.9785 99.9785 100.019 100.019 100.019 100.019 99.908 99.908 99.908 99.908 99.984 99.984 99.984 99.984 100.016 100.016 100.016 100.016 100.019 100.019 100.019 100.019 99.748 99.748 99.748 99.748 99.8909 99.8909 99.8909 99.8909 100.037 100.037 100.037 100.037 100.043 100.043 100.043 100.043 100.022 100.022 100.022 100.022 100.031 100.031 100.031 100.031 100.025 100.025 100.025 100.025 100.032 100.032 100.032 100.032 100.031 100.031 100.031 100.031 100.014 100.014 100.014 100.014 100.029 100.029 100.029 100.029 100.022 100.022 100.022 100.022 100.025 100.025 100.025 100.025 100.032 100.032 100.032 100.032 100.025 100.025 100.025 100.025 100.03 100.03 100.03 100.03 100.013 100.013 100.013 100.013 100.031 100.031 100.031 100.031 100.029 100.029 100.029 100.029 100.024 100.024 100.024 100.024 100.03 100.03 100.03 100.03 100.051 100.051 100.051 100.051 100.038 100.038 100.038 100.038 100.035 100.035 100.035 100.035 100.018 100.018 100.018 100.018 100.021 100.021 100.021 100.021 100.016 100.016 100.016 100.016 100.042 100.042 100.042 100.042 100.044 100.044 100.044 100.044 100.05 100.05 100.05 100.05 100.034 100.034 100.034 100.034 100.035 100.035 100.035 100.035 100.031 100.031 100.031 100.031 100.025 100.025 100.025 100.025 100.055 100.055 100.055 100.055 100.029 100.029 100.029 100.029 100.04 100.04 100.04 100.04 100.047 100.047 100.047 100.047 100.032 100.032 100.032 100.032 100.051 100.051 100.051 100.051 100.049 100.049 100.049 100.049 100.019 100.019 100.019 100.019 100.013 100.013 100.013 100.013 100.051 100.051 100.051 100.051 100.014 100.014 100.014 100.014 100.036 100.036 100.036 100.036 100.019 100.019 100.019 100.019 100.016 100.016 100.016 100.016 100.046 100.046 100.046 100.046 100.055 100.055 100.055 100.055 100.03 100.03 100.03 100.03 100.02 100.02 100.02 100.02 100.04 100.04 100.04 100.04 100.034 100.034 100.034 100.034 100.053 100.053 100.053 100.053 100.014 100.014 100.014 100.014 100.043 100.043 100.043 100.043 100.025 100.025 100.025 100.025 100.009 100.009 100.009 100.009 100.027 100.027 100.027 100.027 100.035 100.035 100.035 100.035 100.044 100.044 100.044 100.044 100.016 100.016 100.016 100.016 100.03 100.03 100.03 100.03 100.042 100.042 100.042 100.042 100.017 100.017 100.017 100.017 100.026 100.026 100.026 100.026 100.006 100.006 100.006 100.006 100.024 100.024 100.024 100.024 100.032 100.032 100.032 100.032 100.041 100.041 100.041 100.041 100.015 100.015 100.015 100.015 100.039 100.039 100.039 100.039 100.035 100.035 100.035 100.035 100.022 100.022 100.022 100.022 100.035 100.035 100.035 100.035 100.028 100.028 100.028 100.028 100.063 100.063 100.063 100.063 100.051 100.051 100.051 100.051 100.047 100.047 100.047 100.047 100.016 100.016 100.016 100.016 100.032 100.032 100.032 100.032 100.04 100.04 100.04 100.04 100.023 100.023 100.023 100.023 100.053 100.053 100.053 100.053 100.021 100.021 100.021 100.021 100.014 100.014 100.014 100.014 100.044 100.044 100.044 100.044 100.018 100.018 100.018 100.018 100.036 100.036 100.036 100.036 100.053 100.053 100.053 100.053 100.018 100.018 100.018 100.018 100.033 100.033 100.033 100.033 100.011 100.011 100.011 100.011 100.014 100.014 100.014 100.014 100.071 100.071 100.071 100.071 100.021 100.021 100.021 100.021 100.041 100.041 100.041 100.041 100.008 100.008 100.008 100.008 100.021 100.021 100.021 100.021 100.021 100.021 100.021 100.021 100.039 100.039 100.039 100.039 100.024 100.024 100.024 100.024 100.042 100.042 100.042 100.042 99.8864 99.8864 99.8864 99.8864 100.028 100.028 100.028 100.028 100.011 100.011 100.011 100.011 100.018 100.018 100.018 100.018 100.014 100.014 100.014 100.014 100.018 100.018 100.018 100.018 100.019 100.019 100.019 100.019 100.005 100.005 100.005 100.005 100.017 100.017 100.017 100.017 100.025 100.025 100.025 100.025 100.06 100.06 100.06 100.06 100.041 100.041 100.041 100.041 100.001 100.001 100.001 100.001 100.037 100.037 100.037 100.037 100.016 100.016 100.016 100.016 100.018 100.018 100.018 100.018 100.015 100.015 100.015 100.015 100.024 100.024 100.024 100.024 100.018 100.018 100.018 100.018 100.019 100.019 100.019 100.019 100.023 100.023 100.023 100.023 100.026 100.026 100.026 100.026 100.022 100.022 100.022 100.022 100.054 100.054 100.054 100.054 100.032 100.032 100.032 100.032 100.009 100.009 100.009 100.009 100.021 100.021 100.021 100.021 100.049 100.049 100.049 100.049 99.9941 99.9941 99.9941 99.9941 100.018 100.018 100.018 100.018 100.012 100.012 100.012 100.012 100.017 100.017 100.017 100.017 99.7951 99.7951 99.7951 99.7951 99.9844 99.9844 99.9844 99.9844 100.023 100.023 100.023 100.023 100.022 100.022 100.022 100.022 100.032 100.032 100.032 100.032 100.003 100.003 100.003 100.003 100.086 100.086 100.086 100.086 100.039 100.039 100.039 100.039 100.033 100.033 100.033 100.033 100.019 100.019 100.019 100.019 100.039 100.039 100.039 100.039 99.9888 99.9888 99.9888 99.9888 100.059 100.059 100.059 100.059 100.018 100.018 100.018 100.018 100.025 100.025 100.025 100.025 100.042 100.042 100.042 100.042 99.9992 99.9992 99.9992 99.9992 100.017 100.017 100.017 100.017 100.048 100.048 100.048 100.048 100.028 100.028 100.028 100.028 100.042 100.042 100.042 100.042 100.064 100.064 100.064 100.064 100.021 100.021 100.021 100.021 100.054 100.054 100.054 100.054 100 100 100 100 100.011 100.011 100.011 100.011 99.9964 99.9964 99.9964 99.9964 100.051 100.051 100.051 100.051 99.9846 99.9846 99.9846 99.9846 100.014 100.014 100.014 100.014 100.05 100.05 100.05 100.05 100.055 100.055 100.055 100.055 100.019 100.019 100.019 100.019 100.053 100.053 100.053 100.053 100.013 100.013 100.013 100.013 100.006 100.006 100.006 100.006 100.046 100.046 100.046 100.046 100.02 100.02 100.02 100.02 100.023 100.023 100.023 100.023 99.9975 99.9975 99.9975 99.9975 99.8808 99.8808 99.8808 99.8808 100.031 100.031 100.031 100.031 100.009 100.009 100.009 100.009 100.004 100.004 100.004 100.004 100.016 100.016 100.016 100.016 100.035 100.035 100.035 100.035 100.046 100.046 100.046 100.046 100.047 100.047 100.047 100.047 100.015 100.015 100.015 100.015 100.006 100.006 100.006 100.006 100.06 100.06 100.06 100.06 100.029 100.029 100.029 100.029 100.006 100.006 100.006 100.006 99.9136 99.9136 99.9136 99.9136 100.021 100.021 100.021 100.021 99.8653 99.8653 99.8653 99.8653 100.006 100.006 100.006 100.006 100.046 100.046 100.046 100.046 99.8052 99.8052 99.8052 99.8052 100.023 100.023 100.023 100.023 100.026 100.026 100.026 100.026 100.017 100.017 100.017 100.017 99.8614 99.8614 99.8614 99.8614 100.003 100.003 100.003 100.003 100.06 100.06 100.06 100.06 99.8779 99.8779 99.8779 99.8779 100.005 100.005 100.005 100.005 100.017 100.017 100.017 100.017 100.003 100.003 100.003 100.003 99.9297 99.9297 99.9297 99.9297 100.025 100.025 100.025 100.025 100.022 100.022 100.022 100.022 100.014 100.014 100.014 100.014 99.9974 99.9974 99.9974 99.9974 100.049 100.049 100.049 100.049 99.999 99.999 99.999 99.999 100.013 100.013 100.013 100.013 99.8731 99.8731 99.8731 99.8731 100.042 100.042 100.042 100.042 100.014 100.014 100.014 100.014 99.8438 99.8438 99.8438 99.8438 100.041 100.041 100.041 100.041 99.8514 99.8514 99.8514 99.8514 100.041 100.041 100.041 100.041 100.066 100.066 100.066 100.066 100.02 100.02 100.02 100.02 100.073 100.073 100.073 100.073 100.029 100.029 100.029 100.029 100.004 100.004 100.004 100.004 100.025 100.025 100.025 100.025 100.034 100.034 100.034 100.034 100.011 100.011 100.011 100.011 99.996 99.996 99.996 99.996 100.043 100.043 100.043 100.043 100.01 100.01 100.01 100.01 100.01 100.01 100.01 100.01 100.062 100.062 100.062 100.062 100.001 100.001 100.001 100.001 100.021 100.021 100.021 100.021 100.022 100.022 100.022 100.022 100.018 100.018 100.018 100.018 100.006 100.006 100.006 100.006 100.024 100.024 100.024 100.024 100.025 100.025 100.025 100.025 99.9976 99.9976 99.9976 99.9976 100.013 100.013 100.013 100.013 100.039 100.039 100.039 100.039 100.055 100.055 100.055 100.055 100.028 100.028 100.028 100.028 99.8927 99.8927 99.8927 99.8927 100.015 100.015 100.015 100.015 100.041 100.041 100.041 100.041 100.016 100.016 100.016 100.016 100.005 100.005 100.005 100.005 100.052 100.052 100.052 100.052 100.002 100.002 100.002 100.002 100.057 100.057 100.057 100.057 100 100 100 100 100.085 100.085 100.085 100.085 100.014 100.014 100.014 100.014 100.014 100.014 100.014 100.014 100.039 100.039 100.039 100.039 99.9792 99.9792 99.9792 99.9792 100.006 100.006 100.006 100.006 100.02 100.02 100.02 100.02 99.8739 99.8739 99.8739 99.8739 99.8699 99.8699 99.8699 99.8699 100.046 100.046 100.046 100.046 100.03 100.03 100.03 100.03 99.8186 99.8186 99.8186 99.8186 99.962 99.962 99.962 99.962 100.004 100.004 100.004 100.004 99.9882 99.9882 99.9882 99.9882 100.001 100.001 100.001 100.001 100.066 100.066 100.066 100.066 100.005 100.005 100.005 100.005 100.006 100.006 100.006 100.006 100.006 100.006 100.006 100.006 100.045 100.045 100.045 100.045 100.024 100.024 100.024 100.024 100.031 100.031 100.031 100.031 100.021 100.021 100.021 100.021 100.07 100.07 100.07 100.07 100.048 100.048 100.048 100.048 99.9769 99.9769 99.9769 99.9769 99.8648 99.8648 99.8648 99.8648 99.9768 99.9768 99.9768 99.9768 100.014 100.014 100.014 100.014 100.036 100.036 100.036 100.036 100.06 100.06 100.06 100.06 100.022 100.022 100.022 100.022 100.002 100.002 100.002 100.002 100.003 100.003 100.003 100.003 100.091 100.091 100.091 100.091 99.9964 99.9964 99.9964 99.9964 100.032 100.032 100.032 100.032 100.016 100.016 100.016 100.016 99.9706 99.9706 99.9706 99.9706 99.9936 99.9936 99.9936 99.9936 99.9669 99.9669 99.9669 99.9669 100.019 100.019 100.019 100.019 100.011 100.011 100.011 100.011 99.9964 99.9964 99.9964 99.9964 100.006 100.006 100.006 100.006 99.9997 99.9997 99.9997 99.9997 100.011 100.011 100.011 100.011 100.03 100.03 100.03 100.03 100.068 100.068 100.068 100.068 100.017 100.017 100.017 100.017 99.8705 99.8705 99.8705 99.8705 99.8143 99.8143 99.8143 99.8143 100.046 100.046 100.046 100.046 100.004 100.004 100.004 100.004 99.8472 99.8472 99.8472 99.8472 99.9519 99.9519 99.9519 99.9519 99.6691 99.6691 99.6691 99.6691 100.019 100.019 100.019 100.019 100.006 100.006 100.006 100.006 100.063 100.063 100.063 100.063 100.02 100.02 100.02 100.02 99.8892 99.8892 99.8892 99.8892 99.9153 99.9153 99.9153 99.9153 99.9872 99.9872 99.9872 99.9872 99.9671 99.9671 99.9671 99.9671 99.7372 99.7372 99.7372 99.7372 99.8335 99.8335 99.8335 99.8335 99.9384 99.9384 99.9384 99.9384 99.9673 99.9673 99.9673 99.9673 100.015 100.015 100.015 100.015 99.7592 99.7592 99.7592 99.7592 100.013 100.013 100.013 100.013 99.9639 99.9639 99.9639 99.9639 100.024 100.024 100.024 100.024 99.82 99.82 99.82 99.82 99.986 99.986 99.986 99.986 99.8337 99.8337 99.8337 99.8337 100.046 100.046 100.046 100.046 99.9057 99.9057 99.9057 99.9057 99.9778 99.9778 99.9778 99.9778 100.071 100.071 100.071 100.071 100.011 100.011 100.011 100.011 100.041 100.041 100.041 100.041 99.835 99.835 99.835 99.835 100.012 100.012 100.012 100.012 99.8079 99.8079 99.8079 99.8079 100.009 100.009 100.009 100.009 100.029 100.029 100.029 100.029 100.025 100.025 100.025 100.025 99.8628 99.8628 99.8628 99.8628 100.007 100.007 100.007 100.007 99.9839 99.9839 99.9839 99.9839 99.9866 99.9866 99.9866 99.9866 99.8788 99.8788 99.8788 99.8788 99.9392 99.9392 99.9392 99.9392 99.8337 99.8337 99.8337 99.8337 100.031 100.031 100.031 100.031 100.013 100.013 100.013 100.013 100.028 100.028 100.028 100.028 100.018 100.018 100.018 100.018 99.7795 99.7795 99.7795 99.7795 100.001 100.001 100.001 100.001 99.7729 99.7729 99.7729 99.7729 99.8401 99.8401 99.8401 99.8401 99.9328 99.9328 99.9328 99.9328 100.047 100.047 100.047 100.047 99.8996 99.8996 99.8996 99.8996 99.9529 99.9529 99.9529 99.9529 99.9781 99.9781 99.9781 99.9781 99.9973 99.9973 99.9973 99.9973 100.071 100.071 100.071 100.071 99.9816 99.9816 99.9816 99.9816 99.971 99.971 99.971 99.971 100.045 100.045 100.045 100.045 100.021 100.021 100.021 100.021 100.004 100.004 100.004 100.004 100.018 100.018 100.018 100.018 99.9479 99.9479 99.9479 99.9479 99.8425 99.8425 99.8425 99.8425 100.011 100.011 100.011 100.011 99.9927 99.9927 99.9927 99.9927 99.946 99.946 99.946 99.946 100.026 100.026 100.026 100.026 100.046 100.046 100.046 100.046 99.9989 99.9989 99.9989 99.9989 99.9779 99.9779 99.9779 99.9779 99.9838 99.9838 99.9838 99.9838 100.025 100.025 100.025 100.025 100.003 100.003 100.003 100.003 99.8091 99.8091 99.8091 99.8091 99.9838 99.9838 99.9838 99.9838 100.026 100.026 100.026 100.026 99.7827 99.7827 99.7827 99.7827 100.028 100.028 100.028 100.028 99.9633 99.9633 99.9633 99.9633 100.057 100.057 100.057 100.057 100.041 100.041 100.041 100.041 99.9719 99.9719 99.9719 99.9719 99.9222 99.9222 99.9222 99.9222 99.8751 99.8751 99.8751 99.8751 99.9994 99.9994 99.9994 99.9994 99.953 99.953 99.953 99.953 99.9058 99.9058 99.9058 99.9058 99.8026 99.8026 99.8026 99.8026 100.003 100.003 100.003 100.003 100.003 100.003 100.003 100.003 100.046 100.046 100.046 100.046 99.7058 99.7058 99.7058 99.7058 99.9392 99.9392 99.9392 99.9392 99.8473 99.8473 99.8473 99.8473 99.9683 99.9683 99.9683 99.9683 100.019 100.019 100.019 100.019 99.9096 99.9096 99.9096 99.9096 99.9487 99.9487 99.9487 99.9487 100.016 100.016 100.016 100.016 99.9985 99.9985 99.9985 99.9985 99.8641 99.8641 99.8641 99.8641 99.9306 99.9306 99.9306 99.9306 99.9843 99.9843 99.9843 99.9843 100.059 100.059 100.059 100.059 100.077 100.077 100.077 100.077 99.9435 99.9435 99.9435 99.9435 100.029 100.029 100.029 100.029 100.01 100.01 100.01 100.01 99.9791 99.9791 99.9791 99.9791 99.8085 99.8085 99.8085 99.8085 100.018 100.018 100.018 100.018 100.074 100.074 100.074 100.074 100.002 100.002 100.002 100.002 100.03 100.03 100.03 100.03 99.9869 99.9869 99.9869 99.9869 100.047 100.047 100.047 100.047 99.8978 99.8978 99.8978 99.8978 99.8444 99.8444 99.8444 99.8444 100.048 100.048 100.048 100.048 99.9549 99.9549 99.9549 99.9549 99.9905 99.9905 99.9905 99.9905 100.001 100.001 100.001 100.001 99.8064 99.8064 99.8064 99.8064 99.9374 99.9374 99.9374 99.9374 100.003 100.003 100.003 100.003 99.9797 99.9797 99.9797 99.9797 99.9174 99.9174 99.9174 99.9174 100.033 100.033 100.033 100.033 99.9673 99.9673 99.9673 99.9673 100.06 100.06 100.06 100.06 99.8852 99.8852 99.8852 99.8852 99.992 99.992 99.992 99.992 99.7081 99.7081 99.7081 99.7081 100.017 100.017 100.017 100.017 99.9772 99.9772 99.9772 99.9772 100.017 100.017 100.017 100.017 99.9856 99.9856 99.9856 99.9856 99.9797 99.9797 99.9797 99.9797 99.9854 99.9854 99.9854 99.9854 100.02 100.02 100.02 100.02 99.9996 99.9996 99.9996 99.9996 99.9762 99.9762 99.9762 99.9762 99.8555 99.8555 99.8555 99.8555 99.6707 99.6707 99.6707 99.6707 99.8648 99.8648 99.8648 99.8648 99.9913 99.9913 99.9913 99.9913 99.8245 99.8245 99.8245 99.8245 100.033 100.033 100.033 100.033 99.8586 99.8586 99.8586 99.8586 99.9882 99.9882 99.9882 99.9882 99.9928 99.9928 99.9928 99.9928 100.011 100.011 100.011 100.011 100.009 100.009 100.009 100.009 99.8186 99.8186 99.8186 99.8186 100.016 100.016 100.016 100.016 99.9874 99.9874 99.9874 99.9874 100.034 100.034 100.034 100.034 99.6922 99.6922 99.6922 99.6922 99.926 99.926 99.926 99.926 99.8715 99.8715 99.8715 99.8715 100.021 100.021 100.021 100.021 99.9811 99.9811 99.9811 99.9811 99.9223 99.9223 99.9223 99.9223 99.9798 99.9798 99.9798 99.9798 99.9015 99.9015 99.9015 99.9015 100.023 100.023 100.023 100.023 99.9316 99.9316 99.9316 99.9316 99.9774 99.9774 99.9774 99.9774 99.9848 99.9848 99.9848 99.9848 99.822 99.822 99.822 99.822 99.835 99.835 99.835 99.835 99.8028 99.8028 99.8028 99.8028 99.9585 99.9585 99.9585 99.9585 99.8269 99.8269 99.8269 99.8269 99.8019 99.8019 99.8019 99.8019 100.005 100.005 100.005 100.005 100.016 100.016 100.016 100.016 100.022 100.022 100.022 100.022 100.024 100.024 100.024 100.024 99.8726 99.8726 99.8726 99.8726 100.023 100.023 100.023 100.023 99.8479 99.8479 99.8479 99.8479 99.9167 99.9167 99.9167 99.9167 99.9829 99.9829 99.9829 99.9829 99.8175 99.8175 99.8175 99.8175 100.016 100.016 100.016 100.016 100.019 100.019 100.019 100.019 99.9898 99.9898 99.9898 99.9898 100.007 100.007 100.007 100.007 99.9002 99.9002 99.9002 99.9002 99.9752 99.9752 99.9752 99.9752 100.01 100.01 100.01 100.01 99.9698 99.9698 99.9698 99.9698 99.9358 99.9358 99.9358 99.9358 100.021 100.021 100.021 100.021 99.935 99.935 99.935 99.935 100.026 100.026 100.026 100.026 99.988 99.988 99.988 99.988 100.062 100.062 100.062 100.062 99.7886 99.7886 99.7886 99.7886 100.063 100.063 100.063 100.063 100.065 100.065 100.065 100.065 100.015 100.015 100.015 100.015 100.023 100.023 100.023 100.023 100.027 100.027 100.027 100.027 99.9144 99.9144 99.9144 99.9144 99.9846 99.9846 99.9846 99.9846 99.9884 99.9884 99.9884 99.9884 99.9809 99.9809 99.9809 99.9809 100.074 100.074 100.074 100.074 100.032 100.032 100.032 100.032 100.072 100.072 100.072 100.072 100.022 100.022 100.022 100.022 100.022 100.022 100.022 100.022 99.6912 99.6912 99.6912 99.6912 99.8831 99.8831 99.8831 99.8831 99.865 99.865 99.865 99.865 99.8538 99.8538 99.8538 99.8538 99.927 99.927 99.927 99.927 99.907 99.907 99.907 99.907 100.049 100.049 100.049 100.049 99.9579 99.9579 99.9579 99.9579 99.999 99.999 99.999 99.999 99.9876 99.9876 99.9876 99.9876 99.7347 99.7347 99.7347 99.7347 99.838 99.838 99.838 99.838 99.786 99.786 99.786 99.786 99.9569 99.9569 99.9569 99.9569 99.8761 99.8761 99.8761 99.8761 99.9829 99.9829 99.9829 99.9829 99.9468 99.9468 99.9468 99.9468 99.9466 99.9466 99.9466 99.9466 99.9812 99.9812 99.9812 99.9812 99.9449 99.9449 99.9449 99.9449 100.053 100.053 100.053 100.053 99.9433 99.9433 99.9433 99.9433 100.048 100.048 100.048 100.048 99.9421 99.9421 99.9421 99.9421 99.9557 99.9557 99.9557 99.9557 100.023 100.023 100.023 100.023 99.9621 99.9621 99.9621 99.9621 99.9963 99.9963 99.9963 99.9963 99.9279 99.9279 99.9279 99.9279 99.7785 99.7785 99.7785 99.7785 99.9633 99.9633 99.9633 99.9633 99.2952 99.2952 99.2952 99.2952 99.9155 99.9155 99.9155 99.9155 99.9904 99.9904 99.9904 99.9904 99.8523 99.8523 99.8523 99.8523 100.064 100.064 100.064 100.064 100.018 100.018 100.018 100.018 99.9857 99.9857 99.9857 99.9857 99.9585 99.9585 99.9585 99.9585 99.8721 99.8721 99.8721 99.8721 100.021 100.021 100.021 100.021 99.9841 99.9841 99.9841 99.9841 100.018 100.018 100.018 100.018 99.9746 99.9746 99.9746 99.9746 100.008 100.008 100.008 100.008 99.0969 99.0969 99.0969 99.0969 99.8782 99.8782 99.8782 99.8782 99.9647 99.9647 99.9647 99.9647 99.6735 99.6735 99.6735 99.6735 99.8429 99.8429 99.8429 99.8429 99.9969 99.9969 99.9969 99.9969 99.7418 99.7418 99.7418 99.7418 100.009 100.009 100.009 100.009 99.9013 99.9013 99.9013 99.9013 99.9911 99.9911 99.9911 99.9911 100.031 100.031 100.031 100.031 99.9963 99.9963 99.9963 99.9963 100.01 100.01 100.01 100.01 100.018 100.018 100.018 100.018 99.9851 99.9851 99.9851 99.9851 99.9235 99.9235 99.9235 99.9235 99.8878 99.8878 99.8878 99.8878 100.006 100.006 100.006 100.006 100.018 100.018 100.018 100.018 99.712 99.712 99.712 99.712 99.9939 99.9939 99.9939 99.9939 100.054 100.054 100.054 100.054 99.9813 99.9813 99.9813 99.9813 100.013 100.013 100.013 100.013 99.9925 99.9925 99.9925 99.9925 99.834 99.834 99.834 99.834 100.032 100.032 100.032 100.032 99.7315 99.7315 99.7315 99.7315 100.022 100.022 100.022 100.022 99.8853 99.8853 99.8853 99.8853 100.052 100.052 100.052 100.052 99.961 99.961 99.961 99.961 99.1013 99.1013 99.1013 99.1013 99.9913 99.9913 99.9913 99.9913 100.012 100.012 100.012 100.012 99.9296 99.9296 99.9296 99.9296 99.9617 99.9617 99.9617 99.9617 100.037 100.037 100.037 100.037 100.021 100.021 100.021 100.021 99.9617 99.9617 99.9617 99.9617 99.9372 99.9372 99.9372 99.9372 100.011 100.011 100.011 100.011 99.8658 99.8658 99.8658 99.8658 99.9633 99.9633 99.9633 99.9633 99.0264 99.0264 99.0264 99.0264 99.9372 99.9372 99.9372 99.9372 99.7903 99.7903 99.7903 99.7903 99.9391 99.9391 99.9391 99.9391 99.8754 99.8754 99.8754 99.8754 99.1282 99.1282 99.1282 99.1282 99.8693 99.8693 99.8693 99.8693 99.9664 99.9664 99.9664 99.9664 99.4121 99.4121 99.4121 99.4121 100.022 100.022 100.022 100.022 99.2171 99.2171 99.2171 99.2171 100.032 100.032 100.032 100.032 99.9469 99.9469 99.9469 99.9469 99.9486 99.9486 99.9486 99.9486 99.8443 99.8443 99.8443 99.8443 99.8651 99.8651 99.8651 99.8651 100.034 100.034 100.034 100.034 99.9365 99.9365 99.9365 99.9365 99.9934 99.9934 99.9934 99.9934 100.048 100.048 100.048 100.048 99.0096 99.0096 99.0096 99.0096 99.7421 99.7421 99.7421 99.7421 100.022 100.022 100.022 100.022 99.1592 99.1592 99.1592 99.1592 100.057 100.057 100.057 100.057 100.058 100.058 100.058 100.058 99.1628 99.1628 99.1628 99.1628 99.1658 99.1658 99.1658 99.1658 99.9232 99.9232 99.9232 99.9232 99.87 99.87 99.87 99.87 99.9712 99.9712 99.9712 99.9712 100.059 100.059 100.059 100.059 100.039 100.039 100.039 100.039 99.4267 99.4267 99.4267 99.4267 99.937 99.937 99.937 99.937 100.056 100.056 100.056 100.056 99.9932 99.9932 99.9932 99.9932 99.8668 99.8668 99.8668 99.8668 99.9082 99.9082 99.9082 99.9082 99.0966 99.0966 99.0966 99.0966 100.026 100.026 100.026 100.026 99.7265 99.7265 99.7265 99.7265 100.054 100.054 100.054 100.054 100.026 100.026 100.026 100.026 99.9883 99.9883 99.9883 99.9883 99.8897 99.8897 99.8897 99.8897 100.069 100.069 100.069 100.069 100.045 100.045 100.045 100.045 99.2671 99.2671 99.2671 99.2671 100.016 100.016 100.016 100.016 100.022 100.022 100.022 100.022 98.9465 98.9465 98.9465 98.9465 99.7356 99.7356 99.7356 99.7356 99.0147 99.0147 99.0147 99.0147 99.931 99.931 99.931 99.931 99.2085 99.2085 99.2085 99.2085 98.9503 98.9503 98.9503 98.9503 99.955 99.955 99.955 99.955 99.965 99.965 99.965 99.965 100.057 100.057 100.057 100.057 98.7671 98.7671 98.7671 98.7671 100.008 100.008 100.008 100.008 99.9418 99.9418 99.9418 99.9418 99.1716 99.1716 99.1716 99.1716 99.7621 99.7621 99.7621 99.7621 99.7209 99.7209 99.7209 99.7209 99.0771 99.0771 99.0771 99.0771 99.7097 99.7097 99.7097 99.7097 99.9349 99.9349 99.9349 99.9349 99.7942 99.7942 99.7942 99.7942 99.8006 99.8006 99.8006 99.8006 99.2254 99.2254 99.2254 99.2254 98.9329 98.9329 98.9329 98.9329 100.018 100.018 100.018 100.018 98.7691 98.7691 98.7691 98.7691 98.7388 98.7388 98.7388 98.7388 99.9539 99.9539 99.9539 99.9539 100.019 100.019 100.019 100.019 99.8809 99.8809 99.8809 99.8809 100.02 100.02 100.02 100.02 98.8866 98.8866 98.8866 98.8866 98.9145 98.9145 98.9145 98.9145 99.1509 99.1509 99.1509 99.1509 99.9044 99.9044 99.9044 99.9044 99.9737 99.9737 99.9737 99.9737 99.8374 99.8374 99.8374 99.8374 100.023 100.023 100.023 100.023 99.9415 99.9415 99.9415 99.9415 99.9302 99.9302 99.9302 99.9302 100.006 100.006 100.006 100.006 99.9404 99.9404 99.9404 99.9404 99.2115 99.2115 99.2115 99.2115 100.021 100.021 100.021 100.021 99.7997 99.7997 99.7997 99.7997 99.0496 99.0496 99.0496 99.0496 99.9613 99.9613 99.9613 99.9613 99.9735 99.9735 99.9735 99.9735 99.9766 99.9766 99.9766 99.9766 99.0223 99.0223 99.0223 99.0223 99.6978 99.6978 99.6978 99.6978 99.0083 99.0083 99.0083 99.0083 100.013 100.013 100.013 100.013 100.053 100.053 100.053 100.053 99.984 99.984 99.984 99.984 99.0582 99.0582 99.0582 99.0582 99.9006 99.9006 99.9006 99.9006 100.049 100.049 100.049 100.049 99.0346 99.0346 99.0346 99.0346 99.9803 99.9803 99.9803 99.9803 99.9521 99.9521 99.9521 99.9521 98.9128 98.9128 98.9128 98.9128 99.0437 99.0437 99.0437 99.0437 99.0594 99.0594 99.0594 99.0594 99.942 99.942 99.942 99.942 98.8809 98.8809 98.8809 98.8809 99.919 99.919 99.919 99.919 98.9264 98.9264 98.9264 98.9264 100.016 100.016 100.016 100.016 100.032 100.032 100.032 100.032 98.9872 98.9872 98.9872 98.9872 100.052 100.052 100.052 100.052 100.076 100.076 100.076 100.076 99.9229 99.9229 99.9229 99.9229 100.053 100.053 100.053 100.053 98.876 98.876 98.876 98.876 99.0683 99.0683 99.0683 99.0683 100.075 100.075 100.075 100.075 100.01 100.01 100.01 100.01 99.9763 99.9763 99.9763 99.9763 99.9948 99.9948 99.9948 99.9948 98.9346 98.9346 98.9346 98.9346 99.255 99.255 99.255 99.255 98.9899 98.9899 98.9899 98.9899 99.9631 99.9631 99.9631 99.9631 99.9157 99.9157 99.9157 99.9157 100.047 100.047 100.047 100.047 99.9131 99.9131 99.9131 99.9131 99.0794 99.0794 99.0794 99.0794 100.046 100.046 100.046 100.046 98.9587 98.9587 98.9587 98.9587 99.1551 99.1551 99.1551 99.1551 98.9155 98.9155 98.9155 98.9155 99.0182 99.0182 99.0182 99.0182 100.017 100.017 100.017 100.017 99.901 99.901 99.901 99.901 100.012 100.012 100.012 100.012 100.036 100.036 100.036 100.036 100.024 100.024 100.024 100.024 99.9907 99.9907 99.9907 99.9907 100.037 100.037 100.037 100.037 99.1761 99.1761 99.1761 99.1761 98.9289 98.9289 98.9289 98.9289 99.9273 99.9273 99.9273 99.9273 99.8687 99.8687 99.8687 99.8687 98.9538 98.9538 98.9538 98.9538 98.973 98.973 98.973 98.973 99.0193 99.0193 99.0193 99.0193 99.9457 99.9457 99.9457 99.9457 99.9227 99.9227 99.9227 99.9227 98.8958 98.8958 98.8958 98.8958 100.009 100.009 100.009 100.009 99.8903 99.8903 99.8903 99.8903 98.8217 98.8217 98.8217 98.8217 99.0971 99.0971 99.0971 99.0971 98.8817 98.8817 98.8817 98.8817 99.9986 99.9986 99.9986 99.9986 99.1779 99.1779 99.1779 99.1779 99.1012 99.1012 99.1012 99.1012 98.718 98.718 98.718 98.718 99.9365 99.9365 99.9365 99.9365 99.2329 99.2329 99.2329 99.2329 99.1999 99.1999 99.1999 99.1999 99.1764 99.1764 99.1764 99.1764 99.0174 99.0174 99.0174 99.0174 100.054 100.054 100.054 100.054 98.077 98.077 98.077 98.077 99.0014 99.0014 99.0014 99.0014 98.9549 98.9549 98.9549 98.9549 98.8242 98.8242 98.8242 98.8242 100.033 100.033 100.033 100.033 100.03 100.03 100.03 100.03 98.9954 98.9954 98.9954 98.9954 98.1139 98.1139 98.1139 98.1139 99.8828 99.8828 99.8828 99.8828 99.0647 99.0647 99.0647 99.0647 99.8174 99.8174 99.8174 99.8174 100.025 100.025 100.025 100.025 99.0394 99.0394 99.0394 99.0394 98.731 98.731 98.731 98.731 100.022 100.022 100.022 100.022 99.8969 99.8969 99.8969 99.8969 99.2025 99.2025 99.2025 99.2025 99.9454 99.9454 99.9454 99.9454 98.9098 98.9098 98.9098 98.9098 99.0266 99.0266 99.0266 99.0266 98.7868 98.7868 98.7868 98.7868 100.034 100.034 100.034 100.034 99.3277 99.3277 99.3277 99.3277 99.9282 99.9282 99.9282 99.9282 98.8812 98.8812 98.8812 98.8812 99.2115 99.2115 99.2115 99.2115 100.043 100.043 100.043 100.043 99.0592 99.0592 99.0592 99.0592 100.031 100.031 100.031 100.031 100.029 100.029 100.029 100.029 99.9895 99.9895 99.9895 99.9895 99.1848 99.1848 99.1848 99.1848 99.0443 99.0443 99.0443 99.0443 100.01 100.01 100.01 100.01 99.3328 99.3328 99.3328 99.3328 98.7569 98.7569 98.7569 98.7569 99.0531 99.0531 99.0531 99.0531 98.5417 98.5417 98.5417 98.5417 99.98 99.98 99.98 99.98 99.003 99.003 99.003 99.003 98.5815 98.5815 98.5815 98.5815 98.58 98.58 98.58 98.58 98.1453 98.1453 98.1453 98.1453 100.004 100.004 100.004 100.004 98.929 98.929 98.929 98.929 98.6983 98.6983 98.6983 98.6983 99.9899 99.9899 99.9899 99.9899 98.6744 98.6744 98.6744 98.6744 98.6457 98.6457 98.6457 98.6457 100.024 100.024 100.024 100.024 100.022 100.022 100.022 100.022 99.2884 99.2884 99.2884 99.2884 100.024 100.024 100.024 100.024 100.004 100.004 100.004 100.004 98.7266 98.7266 98.7266 98.7266 99.0276 99.0276 99.0276 99.0276 99.0499 99.0499 99.0499 99.0499 100.038 100.038 100.038 100.038 100.031 100.031 100.031 100.031 100.019 100.019 100.019 100.019 99.002 99.002 99.002 99.002 97.9178 97.9178 97.9178 97.9178 97.8276 97.8276 97.8276 97.8276 99.0456 99.0456 99.0456 99.0456 98.7316 98.7316 98.7316 98.7316 100.023 100.023 100.023 100.023 98.6779 98.6779 98.6779 98.6779 99.1786 99.1786 99.1786 99.1786 99.9918 99.9918 99.9918 99.9918 99.9052 99.9052 99.9052 99.9052 98.9069 98.9069 98.9069 98.9069 98.6595 98.6595 98.6595 98.6595 99.1855 99.1855 99.1855 99.1855 98.6118 98.6118 98.6118 98.6118 98.0892 98.0892 98.0892 98.0892 98.6362 98.6362 98.6362 98.6362 100.015 100.015 100.015 100.015 98.6866 98.6866 98.6866 98.6866 98.5703 98.5703 98.5703 98.5703 100.021 100.021 100.021 100.021 98.9241 98.9241 98.9241 98.9241 99.2071 99.2071 99.2071 99.2071 99.9796 99.9796 99.9796 99.9796 99.0348 99.0348 99.0348 99.0348 100.023 100.023 100.023 100.023 98.89 98.89 98.89 98.89 100.054 100.054 100.054 100.054 99.999 99.999 99.999 99.999 99.0407 99.0407 99.0407 99.0407 100.019 100.019 100.019 100.019 99.264 99.264 99.264 99.264 100.024 100.024 100.024 100.024 100.029 100.029 100.029 100.029 98.7025 98.7025 98.7025 98.7025 99.9922 99.9922 99.9922 99.9922 98.079 98.079 98.079 98.079 100.033 100.033 100.033 100.033 98.6709 98.6709 98.6709 98.6709 100.025 100.025 100.025 100.025 100.04 100.04 100.04 100.04 99.997 99.997 99.997 99.997 97.9267 97.9267 97.9267 97.9267 99.9957 99.9957 99.9957 99.9957 97.8274 97.8274 97.8274 97.8274 100.02 100.02 100.02 100.02 100.001 100.001 100.001 100.001 100.02 100.02 100.02 100.02 100.018 100.018 100.018 100.018 100.027 100.027 100.027 100.027 99.9883 99.9883 99.9883 99.9883 99.9906 99.9906 99.9906 99.9906 99.9889 99.9889 99.9889 99.9889 100.003 100.003 100.003 100.003 99.9816 99.9816 99.9816 99.9816 99.9919 99.9919 99.9919 99.9919 99.9911 99.9911 99.9911 99.9911 99.9916 99.9916 99.9916 99.9916 99.9986 99.9986 99.9986 99.9986 99.9839 99.9839 99.9839 99.9839 98.5666 98.5666 98.5666 98.5666 99.985 99.985 99.985 99.985 98.695 98.695 98.695 98.695 99.9836 99.9836 99.9836 99.9836 99.9831 99.9831 99.9831 99.9831 99.9906 99.9906 99.9906 99.9906 100.033 100.033 100.033 100.033 99.986 99.986 99.986 99.986 99.9992 99.9992 99.9992 99.9992 100.003 100.003 100.003 100.003 99.9862 99.9862 99.9862 99.9862 100.033 100.033 100.033 100.033 99.2277 99.2277 99.2277 99.2277 99.9898 99.9898 99.9898 99.9898 100.019 100.019 100.019 100.019 99.9857 99.9857 99.9857 99.9857 97.9187 97.9187 97.9187 97.9187 99.9961 99.9961 99.9961 99.9961 99.9791 99.9791 99.9791 99.9791 99.9939 99.9939 99.9939 99.9939 99.9972 99.9972 99.9972 99.9972 98.1143 98.1143 98.1143 98.1143 99.9919 99.9919 99.9919 99.9919 98.6719 98.6719 98.6719 98.6719 99.9961 99.9961 99.9961 99.9961 99.9965 99.9965 99.9965 99.9965 98.3962 98.3962 98.3962 98.3962 100.028 100.028 100.028 100.028 97.8381 97.8381 97.8381 97.8381 98.3046 98.3046 98.3046 98.3046 98.8827 98.8827 98.8827 98.8827 100.004 100.004 100.004 100.004 100.002 100.002 100.002 100.002 99.9752 99.9752 99.9752 99.9752 98.9338 98.9338 98.9338 98.9338 100.026 100.026 100.026 100.026 99.9939 99.9939 99.9939 99.9939 100.003 100.003 100.003 100.003 99.085 99.085 99.085 99.085 98.9781 98.9781 98.9781 98.9781 98.8686 98.8686 98.8686 98.8686 100.004 100.004 100.004 100.004 98.6995 98.6995 98.6995 98.6995 98.2634 98.2634 98.2634 98.2634 99.0991 99.0991 99.0991 99.0991 99.1634 99.1634 99.1634 99.1634 99.0152 99.0152 99.0152 99.0152 98.9369 98.9369 98.9369 98.9369 100.006 100.006 100.006 100.006 98.2869 98.2869 98.2869 98.2869 99.2273 99.2273 99.2273 99.2273 98.9766 98.9766 98.9766 98.9766 99.3071 99.3071 99.3071 99.3071 100.026 100.026 100.026 100.026 100.034 100.034 100.034 100.034 98.3614 98.3614 98.3614 98.3614 99.2279 99.2279 99.2279 99.2279 98.9017 98.9017 98.9017 98.9017 98.8874 98.8874 98.8874 98.8874 98.745 98.745 98.745 98.745 100.044 100.044 100.044 100.044 99.1993 99.1993 99.1993 99.1993 99.4454 99.4454 99.4454 99.4454 100.003 100.003 100.003 100.003 99.2613 99.2613 99.2613 99.2613 99.1895 99.1895 99.1895 99.1895 99.1459 99.1459 99.1459 99.1459 98.6221 98.6221 98.6221 98.6221 98.8146 98.8146 98.8146 98.8146 98.8749 98.8749 98.8749 98.8749 98.9918 98.9918 98.9918 98.9918 98.8868 98.8868 98.8868 98.8868 99.2286 99.2286 99.2286 99.2286 99.2228 99.2228 99.2228 99.2228 98.7948 98.7948 98.7948 98.7948 98.6089 98.6089 98.6089 98.6089 99.9979 99.9979 99.9979 99.9979 99.1618 99.1618 99.1618 99.1618 98.1112 98.1112 98.1112 98.1112 99.0676 99.0676 99.0676 99.0676 98.0475 98.0475 98.0475 98.0475 98.6403 98.6403 98.6403 98.6403 98.8606 98.8606 98.8606 98.8606 99.1457 99.1457 99.1457 99.1457 100.025 100.025 100.025 100.025 99.2959 99.2959 99.2959 99.2959 99.0912 99.0912 99.0912 99.0912 99.331 99.331 99.331 99.331 98.7318 98.7318 98.7318 98.7318 98.5455 98.5455 98.5455 98.5455 98.1986 98.1986 98.1986 98.1986 98.869 98.869 98.869 98.869 98.402 98.402 98.402 98.402 98.4953 98.4953 98.4953 98.4953 100.001 100.001 100.001 100.001 98.6171 98.6171 98.6171 98.6171 99.3393 99.3393 99.3393 99.3393 98.8775 98.8775 98.8775 98.8775 98.758 98.758 98.758 98.758 98.7133 98.7133 98.7133 98.7133 99.0337 99.0337 99.0337 99.0337 98.61 98.61 98.61 98.61 99.0053 99.0053 99.0053 99.0053 98.6493 98.6493 98.6493 98.6493 98.7019 98.7019 98.7019 98.7019 99.1846 99.1846 99.1846 99.1846 98.6138 98.6138 98.6138 98.6138 100.027 100.027 100.027 100.027 100.014 100.014 100.014 100.014 100.05 100.05 100.05 100.05 100.018 100.018 100.018 100.018 99.981 99.981 99.981 99.981 100.004 100.004 100.004 100.004 100.037 100.037 100.037 100.037 100.013 100.013 100.013 100.013 100.017 100.017 100.017 100.017 100.04 100.04 100.04 100.04 100.044 100.044 100.044 100.044 100.032 100.032 100.032 100.032 99.9054 99.9054 99.9054 99.9054 99.9167 99.9167 99.9167 99.9167 99.9974 99.9974 99.9974 99.9974 100.05 100.05 100.05 100.05 100.014 100.014 100.014 100.014 99.9905 99.9905 99.9905 99.9905 100.027 100.027 100.027 100.027 100.018 100.018 100.018 100.018 100.022 100.022 100.022 100.022 100.014 100.014 100.014 100.014 99.8786 99.8786 99.8786 99.8786 99.8839 99.8839 99.8839 99.8839 99.9713 99.9713 99.9713 99.9713 100.022 100.022 100.022 100.022 100.006 100.006 100.006 100.006 100.023 100.023 100.023 100.023 100.016 100.016 100.016 100.016 100.007 100.007 100.007 100.007 100.016 100.016 100.016 100.016 100.035 100.035 100.035 100.035 99.8875 99.8875 99.8875 99.8875 99.9594 99.9594 99.9594 99.9594 99.8934 99.8934 99.8934 99.8934 99.7372 99.7372 99.7372 99.7372 99.9926 99.9926 99.9926 99.9926 100.033 100.033 100.033 100.033 100.052 100.052 100.052 100.052 99.9267 99.9267 99.9267 99.9267 99.865 99.865 99.865 99.865 98.6675 98.6675 98.6675 98.6675 98.7556 98.7556 98.7556 98.7556 100.021 100.021 100.021 100.021 99.8815 99.8815 99.8815 99.8815 100.046 100.046 100.046 100.046 99.8488 99.8488 99.8488 99.8488 100.025 100.025 100.025 100.025 100.028 100.028 100.028 100.028 99.9032 99.9032 99.9032 99.9032 99.8657 99.8657 99.8657 99.8657 100.022 100.022 100.022 100.022 99.9566 99.9566 99.9566 99.9566 99.9808 99.9808 99.9808 99.9808 99.916 99.916 99.916 99.916 100.01 100.01 100.01 100.01 100.018 100.018 100.018 100.018 99.8457 99.8457 99.8457 99.8457 99.7031 99.7031 99.7031 99.7031 100.037 100.037 100.037 100.037 100.046 100.046 100.046 100.046 
VECTORS Strain float 
-5.0538e-05 -2.89096e-05 1.00009 
-5.0538e-05 -2.89096e-05 1.00009 
-5.0538e-05 -2.89096e-05 1.00009 
-5.0538e-05 -2.89096e-05 1.00009 
-9.24738e-05 -1.74201e-05 1.00011 
-9.24738e-05 -1.74201e-05 1.00011 
-9.24738e-05 -1.74201e-05 1.00011 
-9.24738e-05 -1.74201e-05 1.00011 
1.79717e-05 -1.40129e-05 1.00012 
1.79717e-05 -1.40129e-05 1.00012 
1.79717e-05 -1.40129e-05 1.00012 
1.79717e-05 -1.40129e-05 1.00012 
3.19379e-05 -8.68061e-05 1.00012 
3.19379e-05 -8.68061e-05 1.00012 
3.19379e-05 -8.68061e-05 1.00012 
3.19379e-05 -8.68061e-05 1.00012 
2.52339e-05 -7.51461e-05 1.00012 
2.52339e-05 -7.51461e-05 1.00012 
2.52339e-05 -7.51461e-05 1.00012 
2.52339e-05 -7.51461e-05 1.00012 
-3.36769e-05 -2.05157e-05 1.00009 
-3.36769e-05 -2.05157e-05 1.00009 
-3.36769e-05 -2.05157e-05 1.00009 
-3.36769e-05 -2.05157e-05 1.00009 
-0.000115096 2.57204e-05 1.00015 
-0.000115096 2.57204e-05 1.00015 
-0.000115096 2.57204e-05 1.00015 
-0.000115096 2.57204e-05 1.00015 
-5.85867e-05 -9.72105e-06 1.00011 
-5.85867e-05 -9.72105e-06 1.00011 
-5.85867e-05 -9.72105e-06 1.00011 
-5.85867e-05 -9.72105e-06 1.00011 
-1.06753e-05 -2.46353e-06 1.00009 
-1.06753e-05 -2.46353e-06 1.00009 
-1.06753e-05 -2.46353e-06 1.00009 
-1.06753e-05 -2.46353e-06 1.00009 
-5.58737e-05 2.1802e-05 1.0001 
-5.58737e-05 2.1802e-05 1.0001 
-5.58737e-05 2.1802e-05 1.0001 
-5.58737e-05 2.1802e-05 1.0001 
-7.88858e-06 0.000137343 1.00015 
-7.88858e-06 0.000137343 1.00015 
-7.88858e-06 0.000137343 1.00015 
-7.88858e-06 0.000137343 1.00015 
-4.94671e-05 -4.21331e-05 1.00009 
-4.94671e-05 -4.21331e-05 1.00009 
-4.94671e-05 -4.21331e-05 1.00009 
-4.94671e-05 -4.21331e-05 1.00009 
5.20401e-05 0.000182435 1.00015 
5.20401e-05 0.000182435 1.00015 
5.20401e-05 0.000182435 1.00015 
5.20401e-05 0.000182435 1.00015 
1.10519e-05 1.27274e-05 1.00006 
1.10519e-05 1.27274e-05 1.00006 
1.10519e-05 1.27274e-05 1.00006 
1.10519e-05 1.27274e-05 1.00006 
-0.000119546 8.69133e-05 1.00014 
-0.000119546 8.69133e-05 1.00014 
-0.000119546 8.69133e-05 1.00014 
-0.000119546 8.69133e-05 1.00014 
1.70963e-05 0.000180358 1.00015 
1.70963e-05 0.000180358 1.00015 
1.70963e-05 0.000180358 1.00015 
1.70963e-05 0.000180358 1.00015 
-6.02233e-05 4.1183e-05 1.00009 
-6.02233e-05 4.1183e-05 1.00009 
-6.02233e-05 4.1183e-05 1.00009 
-6.02233e-05 4.1183e-05 1.00009 
6.00334e-05 0.000139756 1.00016 
6.00334e-05 0.000139756 1.00016 
6.00334e-05 0.000139756 1.00016 
6.00334e-05 0.000139756 1.00016 
0.000188051 2.49391e-05 1.00015 
0.000188051 2.49391e-05 1.00015 
0.000188051 2.49391e-05 1.00015 
0.000188051 2.49391e-05 1.00015 
4.57973e-05 -0.000178379 1.00015 
4.57973e-05 -0.000178379 1.00015 
4.57973e-05 -0.000178379 1.00015 
4.57973e-05 -0.000178379 1.00015 
5.18715e-05 -1.26126e-05 1.00012 
5.18715e-05 -1.26126e-05 1.00012 
5.18715e-05 -1.26126e-05 1.00012 
5.18715e-05 -1.26126e-05 1.00012 
7.40403e-05 0.000118036 1.00015 
7.40403e-05 0.000118036 1.00015 
7.40403e-05 0.000118036 1.00015 
7.40403e-05 0.000118036 1.00015 
2.75568e-05 -7.41941e-05 1.00011 
2.75568e-05 -7.41941e-05 1.00011 
2.75568e-05 -7.41941e-05 1.00011 
2.75568e-05 -7.41941e-05 1.00011 
-5.73153e-05 -1.89962e-05 1.0001 
-5.73153e-05 -1.89962e-05 1.0001 
-5.73153e-05 -1.89962e-05 1.0001 
-5.73153e-05 -1.89962e-05 1.0001 
0.000639328 -0.000176942 0.999952 
0.000639328 -0.000176942 0.999952 
0.000639328 -0.000176942 0.999952 
0.000639328 -0.000176942 0.999952 
0.000182389 -7.96128e-05 1.00016 
0.000182389 -7.96128e-05 1.00016 
0.000182389 -7.96128e-05 1.00016 
0.000182389 -7.96128e-05 1.00016 
-4.48139e-05 -0.000180801 1.00015 
-4.48139e-05 -0.000180801 1.00015 
-4.48139e-05 -0.000180801 1.00015 
-4.48139e-05 -0.000180801 1.00015 
4.3268e-05 -9.03113e-05 1.00011 
4.3268e-05 -9.03113e-05 1.00011 
4.3268e-05 -9.03113e-05 1.00011 
4.3268e-05 -9.03113e-05 1.00011 
2.15309e-06 -4.79479e-05 1.00012 
2.15309e-06 -4.79479e-05 1.00012 
2.15309e-06 -4.79479e-05 1.00012 
2.15309e-06 -4.79479e-05 1.00012 
-0.000128008 7.83008e-05 1.00014 
-0.000128008 7.83008e-05 1.00014 
-0.000128008 7.83008e-05 1.00014 
-0.000128008 7.83008e-05 1.00014 
-4.56849e-05 -0.000144844 1.00017 
-4.56849e-05 -0.000144844 1.00017 
-4.56849e-05 -0.000144844 1.00017 
-4.56849e-05 -0.000144844 1.00017 
-0.000406444 0.00012563 1.0001 
-0.000406444 0.00012563 1.0001 
-0.000406444 0.00012563 1.0001 
-0.000406444 0.00012563 1.0001 
-7.16269e-05 8.31087e-05 1.00016 
-7.16269e-05 8.31087e-05 1.00016 
-7.16269e-05 8.31087e-05 1.00016 
-7.16269e-05 8.31087e-05 1.00016 
0.000105402 0.000144749 1.00015 
0.000105402 0.000144749 1.00015 
0.000105402 0.000144749 1.00015 
0.000105402 0.000144749 1.00015 
-0.000209118 3.93684e-05 1.00015 
-0.000209118 3.93684e-05 1.00015 
-0.000209118 3.93684e-05 1.00015 
-0.000209118 3.93684e-05 1.00015 
0.000113666 0.000110977 1.00016 
0.000113666 0.000110977 1.00016 
0.000113666 0.000110977 1.00016 
0.000113666 0.000110977 1.00016 
0.000384948 -5.15225e-05 1.00013 
0.000384948 -5.15225e-05 1.00013 
0.000384948 -5.15225e-05 1.00013 
0.000384948 -5.15225e-05 1.00013 
-0.000204447 2.7161e-05 1.00014 
-0.000204447 2.7161e-05 1.00014 
-0.000204447 2.7161e-05 1.00014 
-0.000204447 2.7161e-05 1.00014 
-2.68859e-05 2.05226e-06 1.00009 
-2.68859e-05 2.05226e-06 1.00009 
-2.68859e-05 2.05226e-06 1.00009 
-2.68859e-05 2.05226e-06 1.00009 
-2.98162e-05 -3.65186e-05 1.00006 
-2.98162e-05 -3.65186e-05 1.00006 
-2.98162e-05 -3.65186e-05 1.00006 
-2.98162e-05 -3.65186e-05 1.00006 
0.000109833 3.35427e-05 1.0002 
0.000109833 3.35427e-05 1.0002 
0.000109833 3.35427e-05 1.0002 
0.000109833 3.35427e-05 1.0002 
0.00010435 -0.000957309 0.999599 
0.00010435 -0.000957309 0.999599 
0.00010435 -0.000957309 0.999599 
0.00010435 -0.000957309 0.999599 
-8.04256e-05 -0.000108316 1.00015 
-8.04256e-05 -0.000108316 1.00015 
-8.04256e-05 -0.000108316 1.00015 
-8.04256e-05 -0.000108316 1.00015 
-1.44826e-05 1.81529e-05 1.00009 
-1.44826e-05 1.81529e-05 1.00009 
-1.44826e-05 1.81529e-05 1.00009 
-1.44826e-05 1.81529e-05 1.00009 
-3.34786e-05 7.67865e-05 1.00012 
-3.34786e-05 7.67865e-05 1.00012 
-3.34786e-05 7.67865e-05 1.00012 
-3.34786e-05 7.67865e-05 1.00012 
6.42554e-05 2.81168e-05 1.00017 
6.42554e-05 2.81168e-05 1.00017 
6.42554e-05 2.81168e-05 1.00017 
6.42554e-05 2.81168e-05 1.00017 
0.00018377 -0.000227629 1.00016 
0.00018377 -0.000227629 1.00016 
0.00018377 -0.000227629 1.00016 
0.00018377 -0.000227629 1.00016 
8.63102e-06 -4.20604e-05 1.00011 
8.63102e-06 -4.20604e-05 1.00011 
8.63102e-06 -4.20604e-05 1.00011 
8.63102e-06 -4.20604e-05 1.00011 
-2.14942e-05 2.20333e-05 1.00013 
-2.14942e-05 2.20333e-05 1.00013 
-2.14942e-05 2.20333e-05 1.00013 
-2.14942e-05 2.20333e-05 1.00013 
-4.99548e-05 -0.000178512 1.00015 
-4.99548e-05 -0.000178512 1.00015 
-4.99548e-05 -0.000178512 1.00015 
-4.99548e-05 -0.000178512 1.00015 
1.95655e-06 -0.00012761 1.00011 
1.95655e-06 -0.00012761 1.00011 
1.95655e-06 -0.00012761 1.00011 
1.95655e-06 -0.00012761 1.00011 
-4.32198e-05 -0.000185411 1.00016 
-4.32198e-05 -0.000185411 1.00016 
-4.32198e-05 -0.000185411 1.00016 
-4.32198e-05 -0.000185411 1.00016 
3.21731e-05 -9.84443e-05 1.00013 
3.21731e-05 -9.84443e-05 1.00013 
3.21731e-05 -9.84443e-05 1.00013 
3.21731e-05 -9.84443e-05 1.00013 
-6.42339e-05 -0.000175046 1.00015 
-6.42339e-05 -0.000175046 1.00015 
-6.42339e-05 -0.000175046 1.00015 
-6.42339e-05 -0.000175046 1.00015 
-5.93661e-05 3.26759e-05 1.00009 
-5.93661e-05 3.26759e-05 1.00009 
-5.93661e-05 3.26759e-05 1.00009 
-5.93661e-05 3.26759e-05 1.00009 
-3.94075e-05 3.0424e-05 1.0001 
-3.94075e-05 3.0424e-05 1.0001 
-3.94075e-05 3.0424e-05 1.0001 
-3.94075e-05 3.0424e-05 1.0001 
-5.21565e-05 -1.63039e-05 1.0001 
-5.21565e-05 -1.63039e-05 1.0001 
-5.21565e-05 -1.63039e-05 1.0001 
-5.21565e-05 -1.63039e-05 1.0001 
4.61267e-05 0.000176678 1.00015 
4.61267e-05 0.000176678 1.00015 
4.61267e-05 0.000176678 1.00015 
4.61267e-05 0.000176678 1.00015 
0.000158251 -0.000184171 1.00016 
0.000158251 -0.000184171 1.00016 
0.000158251 -0.000184171 1.00016 
0.000158251 -0.000184171 1.00016 
3.47545e-05 -0.000159895 1.00015 
3.47545e-05 -0.000159895 1.00015 
3.47545e-05 -0.000159895 1.00015 
3.47545e-05 -0.000159895 1.00015 
-6.39222e-05 2.32109e-06 1.0001 
-6.39222e-05 2.32109e-06 1.0001 
-6.39222e-05 2.32109e-06 1.0001 
-6.39222e-05 2.32109e-06 1.0001 
-7.05237e-05 -0.000184016 1.00015 
-7.05237e-05 -0.000184016 1.00015 
-7.05237e-05 -0.000184016 1.00015 
-7.05237e-05 -0.000184016 1.00015 
-0.000126689 2.27514e-05 1.00013 
-0.000126689 2.27514e-05 1.00013 
-0.000126689 2.27514e-05 1.00013 
-0.000126689 2.27514e-05 1.00013 
2.91159e-05 -2.3477e-06 1.00013 
2.91159e-05 -2.3477e-06 1.00013 
2.91159e-05 -2.3477e-06 1.00013 
2.91159e-05 -2.3477e-06 1.00013 
9.21134e-06 -6.2126e-05 1.00015 
9.21134e-06 -6.2126e-05 1.00015 
9.21134e-06 -6.2126e-05 1.00015 
9.21134e-06 -6.2126e-05 1.00015 
1.17663e-05 -7.57939e-07 1.00008 
1.17663e-05 -7.57939e-07 1.00008 
1.17663e-05 -7.57939e-07 1.00008 
1.17663e-05 -7.57939e-07 1.00008 
2.31414e-05 0.000180285 1.00015 
2.31414e-05 0.000180285 1.00015 
2.31414e-05 0.000180285 1.00015 
2.31414e-05 0.000180285 1.00015 
-0.000154833 -9.12906e-05 1.00012 
-0.000154833 -9.12906e-05 1.00012 
-0.000154833 -9.12906e-05 1.00012 
-0.000154833 -9.12906e-05 1.00012 
4.58281e-06 0.000169296 1.00017 
4.58281e-06 0.000169296 1.00017 
4.58281e-06 0.000169296 1.00017 
4.58281e-06 0.000169296 1.00017 
-0.000158943 9.44505e-05 1.00014 
-0.000158943 9.44505e-05 1.00014 
-0.000158943 9.44505e-05 1.00014 
-0.000158943 9.44505e-05 1.00014 
5.62329e-05 -7.96674e-05 1.00011 
5.62329e-05 -7.96674e-05 1.00011 
5.62329e-05 -7.96674e-05 1.00011 
5.62329e-05 -7.96674e-05 1.00011 
-1.32084e-05 -0.000103048 1.00011 
-1.32084e-05 -0.000103048 1.00011 
-1.32084e-05 -0.000103048 1.00011 
-1.32084e-05 -0.000103048 1.00011 
-1.34183e-05 7.04959e-05 1.00015 
-1.34183e-05 7.04959e-05 1.00015 
-1.34183e-05 7.04959e-05 1.00015 
-1.34183e-05 7.04959e-05 1.00015 
-6.51473e-05 1.8464e-05 1.0001 
-6.51473e-05 1.8464e-05 1.0001 
-6.51473e-05 1.8464e-05 1.0001 
-6.51473e-05 1.8464e-05 1.0001 
5.93276e-05 -0.000438148 1.00013 
5.93276e-05 -0.000438148 1.00013 
5.93276e-05 -0.000438148 1.00013 
5.93276e-05 -0.000438148 1.00013 
-6.33796e-05 -0.000180452 1.00016 
-6.33796e-05 -0.000180452 1.00016 
-6.33796e-05 -0.000180452 1.00016 
-6.33796e-05 -0.000180452 1.00016 
-0.000192844 -0.000302627 1.00016 
-0.000192844 -0.000302627 1.00016 
-0.000192844 -0.000302627 1.00016 
-0.000192844 -0.000302627 1.00016 
0.000436932 8.61123e-05 1.00006 
0.000436932 8.61123e-05 1.00006 
0.000436932 8.61123e-05 1.00006 
0.000436932 8.61123e-05 1.00006 
-3.08655e-05 3.57378e-05 1.0001 
-3.08655e-05 3.57378e-05 1.0001 
-3.08655e-05 3.57378e-05 1.0001 
-3.08655e-05 3.57378e-05 1.0001 
-4.10573e-06 -1.71789e-05 1.00011 
-4.10573e-06 -1.71789e-05 1.00011 
-4.10573e-06 -1.71789e-05 1.00011 
-4.10573e-06 -1.71789e-05 1.00011 
0.000171442 -3.92045e-05 1.00016 
0.000171442 -3.92045e-05 1.00016 
0.000171442 -3.92045e-05 1.00016 
0.000171442 -3.92045e-05 1.00016 
-3.51845e-05 -1.11355e-05 1.00008 
-3.51845e-05 -1.11355e-05 1.00008 
-3.51845e-05 -1.11355e-05 1.00008 
-3.51845e-05 -1.11355e-05 1.00008 
0.000369499 -6.03347e-05 1.00013 
0.000369499 -6.03347e-05 1.00013 
0.000369499 -6.03347e-05 1.00013 
0.000369499 -6.03347e-05 1.00013 
3.13138e-06 3.00469e-05 1.00011 
3.13138e-06 3.00469e-05 1.00011 
3.13138e-06 3.00469e-05 1.00011 
3.13138e-06 3.00469e-05 1.00011 
-1.59294e-05 4.66864e-05 1.00007 
-1.59294e-05 4.66864e-05 1.00007 
-1.59294e-05 4.66864e-05 1.00007 
-1.59294e-05 4.66864e-05 1.00007 
7.6377e-05 -0.000179322 1.00015 
7.6377e-05 -0.000179322 1.00015 
7.6377e-05 -0.000179322 1.00015 
7.6377e-05 -0.000179322 1.00015 
5.63096e-05 0.000150093 1.00016 
5.63096e-05 0.000150093 1.00016 
5.63096e-05 0.000150093 1.00016 
5.63096e-05 0.000150093 1.00016 
-3.79286e-05 0.000136312 1.00014 
-3.79286e-05 0.000136312 1.00014 
-3.79286e-05 0.000136312 1.00014 
-3.79286e-05 0.000136312 1.00014 
0.000643802 -0.000172773 0.999952 
0.000643802 -0.000172773 0.999952 
0.000643802 -0.000172773 0.999952 
0.000643802 -0.000172773 0.999952 
1.17467e-05 7.75273e-06 1.00008 
1.17467e-05 7.75273e-06 1.00008 
1.17467e-05 7.75273e-06 1.00008 
1.17467e-05 7.75273e-06 1.00008 
-0.000132725 1.22398e-05 1.00014 
-0.000132725 1.22398e-05 1.00014 
-0.000132725 1.22398e-05 1.00014 
-0.000132725 1.22398e-05 1.00014 
3.40499e-05 0.000146254 1.00012 
3.40499e-05 0.000146254 1.00012 
3.40499e-05 0.000146254 1.00012 
3.40499e-05 0.000146254 1.00012 
0.000156844 -0.000455586 1.00011 
0.000156844 -0.000455586 1.00011 
0.000156844 -0.000455586 1.00011 
0.000156844 -0.000455586 1.00011 
-0.000129663 3.67302e-05 1.00011 
-0.000129663 3.67302e-05 1.00011 
-0.000129663 3.67302e-05 1.00011 
-0.000129663 3.67302e-05 1.00011 
-1.41928e-05 -1.83012e-06 1.00009 
-1.41928e-05 -1.83012e-06 1.00009 
-1.41928e-05 -1.83012e-06 1.00009 
-1.41928e-05 -1.83012e-06 1.00009 
5.58049e-05 0.000535426 1.0001 
5.58049e-05 0.000535426 1.0001 
5.58049e-05 0.000535426 1.0001 
5.58049e-05 0.000535426 1.0001 
-3.81522e-05 -9.93735e-06 1.0001 
-3.81522e-05 -9.93735e-06 1.0001 
-3.81522e-05 -9.93735e-06 1.0001 
-3.81522e-05 -9.93735e-06 1.0001 
1.46571e-06 -4.90153e-05 1.00014 
1.46571e-06 -4.90153e-05 1.00014 
1.46571e-06 -4.90153e-05 1.00014 
1.46571e-06 -4.90153e-05 1.00014 
-4.51892e-06 1.75397e-05 1.00009 
-4.51892e-06 1.75397e-05 1.00009 
-4.51892e-06 1.75397e-05 1.00009 
-4.51892e-06 1.75397e-05 1.00009 
0.0001063 0.000142638 1.00015 
0.0001063 0.000142638 1.00015 
0.0001063 0.000142638 1.00015 
0.0001063 0.000142638 1.00015 
3.60032e-05 5.99384e-05 1.00013 
3.60032e-05 5.99384e-05 1.00013 
3.60032e-05 5.99384e-05 1.00013 
3.60032e-05 5.99384e-05 1.00013 
-0.00035373 -0.00025402 1.00008 
-0.00035373 -0.00025402 1.00008 
-0.00035373 -0.00025402 1.00008 
-0.00035373 -0.00025402 1.00008 
2.15028e-05 -0.000330035 1.00012 
2.15028e-05 -0.000330035 1.00012 
2.15028e-05 -0.000330035 1.00012 
2.15028e-05 -0.000330035 1.00012 
0.00217128 -0.000645327 0.997866 
0.00217128 -0.000645327 0.997866 
0.00217128 -0.000645327 0.997866 
0.00217128 -0.000645327 0.997866 
2.82317e-05 4.69103e-06 1.00011 
2.82317e-05 4.69103e-06 1.00011 
2.82317e-05 4.69103e-06 1.00011 
2.82317e-05 4.69103e-06 1.00011 
0.000675863 0.000516573 0.999623 
0.000675863 0.000516573 0.999623 
0.000675863 0.000516573 0.999623 
0.000675863 0.000516573 0.999623 
-0.000138238 -0.000261426 1.00017 
-0.000138238 -0.000261426 1.00017 
-0.000138238 -0.000261426 1.00017 
-0.000138238 -0.000261426 1.00017 
-0.000152008 -6.13258e-05 1.00014 
-0.000152008 -6.13258e-05 1.00014 
-0.000152008 -6.13258e-05 1.00014 
-0.000152008 -6.13258e-05 1.00014 
-2.79828e-05 0.00218694 0.998153 
-2.79828e-05 0.00218694 0.998153 
-2.79828e-05 0.00218694 0.998153 
-2.79828e-05 0.00218694 0.998153 
7.2231e-05 -0.000164322 1.00015 
7.2231e-05 -0.000164322 1.00015 
7.2231e-05 -0.000164322 1.00015 
7.2231e-05 -0.000164322 1.00015 
6.07168e-05 -0.000155391 1.00014 
6.07168e-05 -0.000155391 1.00014 
6.07168e-05 -0.000155391 1.00014 
6.07168e-05 -0.000155391 1.00014 
0.000288425 4.48071e-06 1.00012 
0.000288425 4.48071e-06 1.00012 
0.000288425 4.48071e-06 1.00012 
0.000288425 4.48071e-06 1.00012 
5.69312e-05 0.00014986 1.00016 
5.69312e-05 0.00014986 1.00016 
5.69312e-05 0.00014986 1.00016 
5.69312e-05 0.00014986 1.00016 
-0.000169613 5.63746e-05 1.00015 
-0.000169613 5.63746e-05 1.00015 
-0.000169613 5.63746e-05 1.00015 
-0.000169613 5.63746e-05 1.00015 
0.000641214 -0.000178041 0.999952 
0.000641214 -0.000178041 0.999952 
0.000641214 -0.000178041 0.999952 
0.000641214 -0.000178041 0.999952 
0.000112047 0.00014937 1.00015 
0.000112047 0.00014937 1.00015 
0.000112047 0.00014937 1.00015 
0.000112047 0.00014937 1.00015 
2.90558e-05 -7.488e-05 1.00014 
2.90558e-05 -7.488e-05 1.00014 
2.90558e-05 -7.488e-05 1.00014 
2.90558e-05 -7.488e-05 1.00014 
-6.81085e-05 7.004e-05 1.00016 
-6.81085e-05 7.004e-05 1.00016 
-6.81085e-05 7.004e-05 1.00016 
-6.81085e-05 7.004e-05 1.00016 
-8.4712e-06 2.52543e-05 1.00007 
-8.4712e-06 2.52543e-05 1.00007 
-8.4712e-06 2.52543e-05 1.00007 
-8.4712e-06 2.52543e-05 1.00007 
2.66308e-05 5.87948e-05 1.00013 
2.66308e-05 5.87948e-05 1.00013 
2.66308e-05 5.87948e-05 1.00013 
2.66308e-05 5.87948e-05 1.00013 
0.000129578 -0.000152026 1.00016 
0.000129578 -0.000152026 1.00016 
0.000129578 -0.000152026 1.00016 
0.000129578 -0.000152026 1.00016 
8.49137e-06 4.63082e-06 1.00011 
8.49137e-06 4.63082e-06 1.00011 
8.49137e-06 4.63082e-06 1.00011 
8.49137e-06 4.63082e-06 1.00011 
-5.8372e-05 1.82584e-05 1.00009 
-5.8372e-05 1.82584e-05 1.00009 
-5.8372e-05 1.82584e-05 1.00009 
-5.8372e-05 1.82584e-05 1.00009 
0.000100111 -6.28422e-05 1.00017 
0.000100111 -6.28422e-05 1.00017 
0.000100111 -6.28422e-05 1.00017 
0.000100111 -6.28422e-05 1.00017 
-8.32247e-06 1.09053e-05 1.00011 
-8.32247e-06 1.09053e-05 1.00011 
-8.32247e-06 1.09053e-05 1.00011 
-8.32247e-06 1.09053e-05 1.00011 
-2.34746e-05 1.64434e-05 1.00009 
-2.34746e-05 1.64434e-05 1.00009 
-2.34746e-05 1.64434e-05 1.00009 
-2.34746e-05 1.64434e-05 1.00009 
0.000316779 0.00201101 0.998891 
0.000316779 0.00201101 0.998891 
0.000316779 0.00201101 0.998891 
0.000316779 0.00201101 0.998891 
5.65976e-05 2.23748e-05 1.00008 
5.65976e-05 2.23748e-05 1.00008 
5.65976e-05 2.23748e-05 1.00008 
5.65976e-05 2.23748e-05 1.00008 
0.000599839 0.000219159 0.999976 
0.000599839 0.000219159 0.999976 
0.000599839 0.000219159 0.999976 
0.000599839 0.000219159 0.999976 
4.95021e-05 -2.04788e-05 1.00012 
4.95021e-05 -2.04788e-05 1.00012 
4.95021e-05 -2.04788e-05 1.00012 
4.95021e-05 -2.04788e-05 1.00012 
-0.000135672 4.83483e-05 1.00011 
-0.000135672 4.83483e-05 1.00011 
-0.000135672 4.83483e-05 1.00011 
-0.000135672 4.83483e-05 1.00011 
-6.67358e-05 1.54945e-05 1.00009 
-6.67358e-05 1.54945e-05 1.00009 
-6.67358e-05 1.54945e-05 1.00009 
-6.67358e-05 1.54945e-05 1.00009 
0.000252919 0.000105127 1.00014 
0.000252919 0.000105127 1.00014 
0.000252919 0.000105127 1.00014 
0.000252919 0.000105127 1.00014 
-0.000247771 8.34374e-05 1.00014 
-0.000247771 8.34374e-05 1.00014 
-0.000247771 8.34374e-05 1.00014 
-0.000247771 8.34374e-05 1.00014 
-7.9722e-05 -0.000144042 1.00016 
-7.9722e-05 -0.000144042 1.00016 
-7.9722e-05 -0.000144042 1.00016 
-7.9722e-05 -0.000144042 1.00016 
9.36324e-05 4.21287e-05 1.0001 
9.36324e-05 4.21287e-05 1.0001 
9.36324e-05 4.21287e-05 1.0001 
9.36324e-05 4.21287e-05 1.0001 
-2.10781e-05 3.10573e-06 1.00007 
-2.10781e-05 3.10573e-06 1.00007 
-2.10781e-05 3.10573e-06 1.00007 
-2.10781e-05 3.10573e-06 1.00007 
0.00243811 -0.000429998 0.997225 
0.00243811 -0.000429998 0.997225 
0.00243811 -0.000429998 0.997225 
0.00243811 -0.000429998 0.997225 
0.000774982 0.000222662 0.999696 
0.000774982 0.000222662 0.999696 
0.000774982 0.000222662 0.999696 
0.000774982 0.000222662 0.999696 
-9.89066e-05 0.000226581 1.00016 
-9.89066e-05 0.000226581 1.00016 
-9.89066e-05 0.000226581 1.00016 
-9.89066e-05 0.000226581 1.00016 
-1.79451e-05 5.37089e-05 1.00011 
-1.79451e-05 5.37089e-05 1.00011 
-1.79451e-05 5.37089e-05 1.00011 
-1.79451e-05 5.37089e-05 1.00011 
-0.000130265 8.0964e-05 1.00014 
-0.000130265 8.0964e-05 1.00014 
-0.000130265 8.0964e-05 1.00014 
-0.000130265 8.0964e-05 1.00014 
-0.000119964 -2.57642e-05 1.00015 
-0.000119964 -2.57642e-05 1.00015 
-0.000119964 -2.57642e-05 1.00015 
-0.000119964 -2.57642e-05 1.00015 
0.000681151 -0.000180486 0.999951 
0.000681151 -0.000180486 0.999951 
0.000681151 -0.000180486 0.999951 
0.000681151 -0.000180486 0.999951 
-3.08706e-05 -3.13474e-05 1.00011 
-3.08706e-05 -3.13474e-05 1.00011 
-3.08706e-05 -3.13474e-05 1.00011 
-3.08706e-05 -3.13474e-05 1.00011 
-0.000184294 -2.51789e-05 1.00016 
-0.000184294 -2.51789e-05 1.00016 
-0.000184294 -2.51789e-05 1.00016 
-0.000184294 -2.51789e-05 1.00016 
4.54071e-05 -4.00409e-05 1.00009 
4.54071e-05 -4.00409e-05 1.00009 
4.54071e-05 -4.00409e-05 1.00009 
4.54071e-05 -4.00409e-05 1.00009 
0.000429817 9.32866e-05 1.00006 
0.000429817 9.32866e-05 1.00006 
0.000429817 9.32866e-05 1.00006 
0.000429817 9.32866e-05 1.00006 
-0.00167953 -8.95477e-05 0.998653 
-0.00167953 -8.95477e-05 0.998653 
-0.00167953 -8.95477e-05 0.998653 
-0.00167953 -8.95477e-05 0.998653 
0.000347086 0.000326328 1.00012 
0.000347086 0.000326328 1.00012 
0.000347086 0.000326328 1.00012 
0.000347086 0.000326328 1.00012 
4.3947e-06 2.07474e-05 1.00008 
4.3947e-06 2.07474e-05 1.00008 
4.3947e-06 2.07474e-05 1.00008 
4.3947e-06 2.07474e-05 1.00008 
-4.62025e-06 7.0017e-05 1.00012 
-4.62025e-06 7.0017e-05 1.00012 
-4.62025e-06 7.0017e-05 1.00012 
-4.62025e-06 7.0017e-05 1.00012 
-0.000188037 -0.000102121 1.00015 
-0.000188037 -0.000102121 1.00015 
-0.000188037 -0.000102121 1.00015 
-0.000188037 -0.000102121 1.00015 
9.42139e-05 9.5964e-05 1.00012 
9.42139e-05 9.5964e-05 1.00012 
9.42139e-05 9.5964e-05 1.00012 
9.42139e-05 9.5964e-05 1.00012 
1.39567e-06 -3.50843e-05 1.00008 
1.39567e-06 -3.50843e-05 1.00008 
1.39567e-06 -3.50843e-05 1.00008 
1.39567e-06 -3.50843e-05 1.00008 
-5.64818e-05 0.000314512 1.00018 
-5.64818e-05 0.000314512 1.00018 
-5.64818e-05 0.000314512 1.00018 
-5.64818e-05 0.000314512 1.00018 
0.000167328 -1.39362e-05 1.00015 
0.000167328 -1.39362e-05 1.00015 
0.000167328 -1.39362e-05 1.00015 
0.000167328 -1.39362e-05 1.00015 
-0.000196536 -7.20939e-05 1.00015 
-0.000196536 -7.20939e-05 1.00015 
-0.000196536 -7.20939e-05 1.00015 
-0.000196536 -7.20939e-05 1.00015 
1.98101e-05 -0.000431706 1.00013 
1.98101e-05 -0.000431706 1.00013 
1.98101e-05 -0.000431706 1.00013 
1.98101e-05 -0.000431706 1.00013 
-7.21832e-05 -2.43246e-05 1.0001 
-7.21832e-05 -2.43246e-05 1.0001 
-7.21832e-05 -2.43246e-05 1.0001 
-7.21832e-05 -2.43246e-05 1.0001 
0.000380827 -4.92289e-05 1.00013 
0.000380827 -4.92289e-05 1.00013 
0.000380827 -4.92289e-05 1.00013 
0.000380827 -4.92289e-05 1.00013 
-1.73878e-06 0.000156482 1.00016 
-1.73878e-06 0.000156482 1.00016 
-1.73878e-06 0.000156482 1.00016 
-1.73878e-06 0.000156482 1.00016 
-8.80794e-05 -9.15426e-05 1.00012 
-8.80794e-05 -9.15426e-05 1.00012 
-8.80794e-05 -9.15426e-05 1.00012 
-8.80794e-05 -9.15426e-05 1.00012 
0.000807806 0.000470689 0.999538 
0.000807806 0.000470689 0.999538 
0.000807806 0.000470689 0.999538 
0.000807806 0.000470689 0.999538 
0.000145635 -0.000236503 1.00016 
0.000145635 -0.000236503 1.00016 
0.000145635 -0.000236503 1.00016 
0.000145635 -0.000236503 1.00016 
-0.000252059 -1.64358e-05 1.00006 
-0.000252059 -1.64358e-05 1.00006 
-0.000252059 -1.64358e-05 1.00006 
-0.000252059 -1.64358e-05 1.00006 
0.000212134 -6.69535e-05 1.00016 
0.000212134 -6.69535e-05 1.00016 
0.000212134 -6.69535e-05 1.00016 
0.000212134 -6.69535e-05 1.00016 
0.000112699 5.81621e-05 1.00022 
0.000112699 5.81621e-05 1.00022 
0.000112699 5.81621e-05 1.00022 
0.000112699 5.81621e-05 1.00022 
4.88619e-05 -0.000214358 1.00015 
4.88619e-05 -0.000214358 1.00015 
4.88619e-05 -0.000214358 1.00015 
4.88619e-05 -0.000214358 1.00015 
-7.58845e-05 -1.85876e-05 1.0001 
-7.58845e-05 -1.85876e-05 1.0001 
-7.58845e-05 -1.85876e-05 1.0001 
-7.58845e-05 -1.85876e-05 1.0001 
-0.000172569 1.89726e-05 1.00014 
-0.000172569 1.89726e-05 1.00014 
-0.000172569 1.89726e-05 1.00014 
-0.000172569 1.89726e-05 1.00014 
-0.000569755 0.000489279 0.999705 
-0.000569755 0.000489279 0.999705 
-0.000569755 0.000489279 0.999705 
-0.000569755 0.000489279 0.999705 
-1.43826e-05 4.40876e-05 1.00009 
-1.43826e-05 4.40876e-05 1.00009 
-1.43826e-05 4.40876e-05 1.00009 
-1.43826e-05 4.40876e-05 1.00009 
-0.000161577 8.66154e-05 1.00014 
-0.000161577 8.66154e-05 1.00014 
-0.000161577 8.66154e-05 1.00014 
-0.000161577 8.66154e-05 1.00014 
-2.34545e-05 6.19088e-06 1.00007 
-2.34545e-05 6.19088e-06 1.00007 
-2.34545e-05 6.19088e-06 1.00007 
-2.34545e-05 6.19088e-06 1.00007 
-3.55696e-05 -0.000302941 1.00015 
-3.55696e-05 -0.000302941 1.00015 
-3.55696e-05 -0.000302941 1.00015 
-3.55696e-05 -0.000302941 1.00015 
0.00022454 -0.000176494 1.00003 
0.00022454 -0.000176494 1.00003 
0.00022454 -0.000176494 1.00003 
0.00022454 -0.000176494 1.00003 
-6.58317e-05 -0.000241616 0.999329 
-6.58317e-05 -0.000241616 0.999329 
-6.58317e-05 -0.000241616 0.999329 
-6.58317e-05 -0.000241616 0.999329 
2.13489e-05 -2.97744e-05 1.00012 
2.13489e-05 -2.97744e-05 1.00012 
2.13489e-05 -2.97744e-05 1.00012 
2.13489e-05 -2.97744e-05 1.00012 
-5.00936e-05 0.000191067 1.00017 
-5.00936e-05 0.000191067 1.00017 
-5.00936e-05 0.000191067 1.00017 
-5.00936e-05 0.000191067 1.00017 
-0.000108656 -6.39481e-05 1.00012 
-0.000108656 -6.39481e-05 1.00012 
-0.000108656 -6.39481e-05 1.00012 
-0.000108656 -6.39481e-05 1.00012 
3.33223e-05 -4.10939e-05 1.00011 
3.33223e-05 -4.10939e-05 1.00011 
3.33223e-05 -4.10939e-05 1.00011 
3.33223e-05 -4.10939e-05 1.00011 
0.000158961 -7.49916e-05 1.00015 
0.000158961 -7.49916e-05 1.00015 
0.000158961 -7.49916e-05 1.00015 
0.000158961 -7.49916e-05 1.00015 
0.000597783 0.000214542 0.999976 
0.000597783 0.000214542 0.999976 
0.000597783 0.000214542 0.999976 
0.000597783 0.000214542 0.999976 
0.000939481 0.000238018 0.999468 
0.000939481 0.000238018 0.999468 
0.000939481 0.000238018 0.999468 
0.000939481 0.000238018 0.999468 
-9.63669e-05 5.37021e-05 1.00015 
-9.63669e-05 5.37021e-05 1.00015 
-9.63669e-05 5.37021e-05 1.00015 
-9.63669e-05 5.37021e-05 1.00015 
0.000758313 0.000184459 0.999987 
0.000758313 0.000184459 0.999987 
0.000758313 0.000184459 0.999987 
0.000758313 0.000184459 0.999987 
0.000260791 1.02051e-05 1.00015 
0.000260791 1.02051e-05 1.00015 
0.000260791 1.02051e-05 1.00015 
0.000260791 1.02051e-05 1.00015 
-6.54251e-05 -0.000153099 1.00015 
-6.54251e-05 -0.000153099 1.00015 
-6.54251e-05 -0.000153099 1.00015 
-6.54251e-05 -0.000153099 1.00015 
-0.00102812 -0.000716321 0.998515 
-0.00102812 -0.000716321 0.998515 
-0.00102812 -0.000716321 0.998515 
-0.00102812 -0.000716321 0.998515 
1.22611e-06 0.000173725 1.00015 
1.22611e-06 0.000173725 1.00015 
1.22611e-06 0.000173725 1.00015 
1.22611e-06 0.000173725 1.00015 
-0.00116651 0.000520066 0.998179 
-0.00116651 0.000520066 0.998179 
-0.00116651 0.000520066 0.998179 
-0.00116651 0.000520066 0.998179 
-3.458e-05 7.01399e-05 1.00013 
-3.458e-05 7.01399e-05 1.00013 
-3.458e-05 7.01399e-05 1.00013 
-3.458e-05 7.01399e-05 1.00013 
0.00058596 0.000240474 0.999975 
0.00058596 0.000240474 0.999975 
0.00058596 0.000240474 0.999975 
0.00058596 0.000240474 0.999975 
0.000139009 -0.00152705 0.998207 
0.000139009 -0.00152705 0.998207 
0.000139009 -0.00152705 0.998207 
0.000139009 -0.00152705 0.998207 
-2.65809e-05 -1.67958e-05 1.00007 
-2.65809e-05 -1.67958e-05 1.00007 
-2.65809e-05 -1.67958e-05 1.00007 
-2.65809e-05 -1.67958e-05 1.00007 
-0.000116418 0.000129327 1.00012 
-0.000116418 0.000129327 1.00012 
-0.000116418 0.000129327 1.00012 
-0.000116418 0.000129327 1.00012 
-1.81342e-05 4.20174e-06 1.00007 
-1.81342e-05 4.20174e-06 1.00007 
-1.81342e-05 4.20174e-06 1.00007 
-1.81342e-05 4.20174e-06 1.00007 
-0.00117962 -0.00222982 0.997741 
-0.00117962 -0.00222982 0.997741 
-0.00117962 -0.00222982 0.997741 
-0.00117962 -0.00222982 0.997741 
2.87471e-05 -0.000956165 0.999606 
2.87471e-05 -0.000956165 0.999606 
2.87471e-05 -0.000956165 0.999606 
2.87471e-05 -0.000956165 0.999606 
0.000218301 -0.000407288 1.00011 
0.000218301 -0.000407288 1.00011 
0.000218301 -0.000407288 1.00011 
0.000218301 -0.000407288 1.00011 
4.86643e-05 -0.00147201 0.998467 
4.86643e-05 -0.00147201 0.998467 
4.86643e-05 -0.00147201 0.998467 
4.86643e-05 -0.00147201 0.998467 
6.08435e-06 -0.000216786 1.00013 
6.08435e-06 -0.000216786 1.00013 
6.08435e-06 -0.000216786 1.00013 
6.08435e-06 -0.000216786 1.00013 
1.58612e-05 2.06699e-05 1.00009 
1.58612e-05 2.06699e-05 1.00009 
1.58612e-05 2.06699e-05 1.00009 
1.58612e-05 2.06699e-05 1.00009 
0.000250001 0.000139908 1.00012 
0.000250001 0.000139908 1.00012 
0.000250001 0.000139908 1.00012 
0.000250001 0.000139908 1.00012 
-0.000248934 0.000912606 0.999275 
-0.000248934 0.000912606 0.999275 
-0.000248934 0.000912606 0.999275 
-0.000248934 0.000912606 0.999275 
-1.47201e-06 4.04233e-05 1.00011 
-1.47201e-06 4.04233e-05 1.00011 
-1.47201e-06 4.04233e-05 1.00011 
-1.47201e-06 4.04233e-05 1.00011 
-3.47266e-05 -6.98985e-06 1.00007 
-3.47266e-05 -6.98985e-06 1.00007 
-3.47266e-05 -6.98985e-06 1.00007 
-3.47266e-05 -6.98985e-06 1.00007 
-0.000152256 0.000295876 1.00016 
-0.000152256 0.000295876 1.00016 
-0.000152256 0.000295876 1.00016 
-0.000152256 0.000295876 1.00016 
5.08545e-05 -0.00014206 1.00014 
5.08545e-05 -0.00014206 1.00014 
5.08545e-05 -0.00014206 1.00014 
5.08545e-05 -0.00014206 1.00014 
-0.000211948 -6.81106e-05 1.00015 
-0.000211948 -6.81106e-05 1.00015 
-0.000211948 -6.81106e-05 1.00015 
-0.000211948 -6.81106e-05 1.00015 
0.000152279 0.000126965 1.00017 
0.000152279 0.000126965 1.00017 
0.000152279 0.000126965 1.00017 
0.000152279 0.000126965 1.00017 
0.000279403 -0.00013889 1.00012 
0.000279403 -0.00013889 1.00012 
0.000279403 -0.00013889 1.00012 
0.000279403 -0.00013889 1.00012 
0.000126384 -0.00150941 0.998472 
0.000126384 -0.00150941 0.998472 
0.000126384 -0.00150941 0.998472 
0.000126384 -0.00150941 0.998472 
-0.000117999 0.000281522 1.00016 
-0.000117999 0.000281522 1.00016 
-0.000117999 0.000281522 1.00016 
-0.000117999 0.000281522 1.00016 
3.119e-05 3.09794e-05 1.0001 
3.119e-05 3.09794e-05 1.0001 
3.119e-05 3.09794e-05 1.0001 
3.119e-05 3.09794e-05 1.0001 
0.00135558 -0.000803675 0.998574 
0.00135558 -0.000803675 0.998574 
0.00135558 -0.000803675 0.998574 
0.00135558 -0.000803675 0.998574 
4.70771e-05 0.00018237 1.00015 
4.70771e-05 0.00018237 1.00015 
4.70771e-05 0.00018237 1.00015 
4.70771e-05 0.00018237 1.00015 
0.000315591 0.000297134 1.00012 
0.000315591 0.000297134 1.00012 
0.000315591 0.000297134 1.00012 
0.000315591 0.000297134 1.00012 
-0.000223242 -5.93805e-05 1.00015 
-0.000223242 -5.93805e-05 1.00015 
-0.000223242 -5.93805e-05 1.00015 
-0.000223242 -5.93805e-05 1.00015 
0.000247525 0.000116642 1.00013 
0.000247525 0.000116642 1.00013 
0.000247525 0.000116642 1.00013 
0.000247525 0.000116642 1.00013 
0.000152913 -0.000137701 1.00017 
0.000152913 -0.000137701 1.00017 
0.000152913 -0.000137701 1.00017 
0.000152913 -0.000137701 1.00017 
0.000658148 0.000109762 0.999978 
0.000658148 0.000109762 0.999978 
0.000658148 0.000109762 0.999978 
0.000658148 0.000109762 0.999978 
-4.1732e-05 -2.01525e-05 1.00012 
-4.1732e-05 -2.01525e-05 1.00012 
-4.1732e-05 -2.01525e-05 1.00012 
-4.1732e-05 -2.01525e-05 1.00012 
0.000257079 -4.04579e-05 1.00013 
0.000257079 -4.04579e-05 1.00013 
0.000257079 -4.04579e-05 1.00013 
0.000257079 -4.04579e-05 1.00013 
5.96481e-05 -0.000277269 1.00016 
5.96481e-05 -0.000277269 1.00016 
5.96481e-05 -0.000277269 1.00016 
5.96481e-05 -0.000277269 1.00016 
-0.000208937 0.000234945 1.00011 
-0.000208937 0.000234945 1.00011 
-0.000208937 0.000234945 1.00011 
-0.000208937 0.000234945 1.00011 
-7.14632e-06 0.000284724 1.00017 
-7.14632e-06 0.000284724 1.00017 
-7.14632e-06 0.000284724 1.00017 
-7.14632e-06 0.000284724 1.00017 
-0.000120008 -0.000317933 1.00007 
-0.000120008 -0.000317933 1.00007 
-0.000120008 -0.000317933 1.00007 
-0.000120008 -0.000317933 1.00007 
0.000151998 -6.49453e-05 1.00015 
0.000151998 -6.49453e-05 1.00015 
0.000151998 -6.49453e-05 1.00015 
0.000151998 -6.49453e-05 1.00015 
3.71949e-05 0.000122312 1.00013 
3.71949e-05 0.000122312 1.00013 
3.71949e-05 0.000122312 1.00013 
3.71949e-05 0.000122312 1.00013 
2.31532e-05 1.30227e-06 1.00008 
2.31532e-05 1.30227e-06 1.00008 
2.31532e-05 1.30227e-06 1.00008 
2.31532e-05 1.30227e-06 1.00008 
-0.000221233 -8.17737e-05 1.00016 
-0.000221233 -8.17737e-05 1.00016 
-0.000221233 -8.17737e-05 1.00016 
-0.000221233 -8.17737e-05 1.00016 
0.000163729 9.92935e-05 1.00011 
0.000163729 9.92935e-05 1.00011 
0.000163729 9.92935e-05 1.00011 
0.000163729 9.92935e-05 1.00011 
0.000972505 0.000507117 0.999669 
0.000972505 0.000507117 0.999669 
0.000972505 0.000507117 0.999669 
0.000972505 0.000507117 0.999669 
-8.58278e-06 -0.000107259 1.00011 
-8.58278e-06 -0.000107259 1.00011 
-8.58278e-06 -0.000107259 1.00011 
-8.58278e-06 -0.000107259 1.00011 
0.000102873 -0.000906232 0.999585 
0.000102873 -0.000906232 0.999585 
0.000102873 -0.000906232 0.999585 
0.000102873 -0.000906232 0.999585 
1.26407e-05 -2.3113e-05 1.00012 
1.26407e-05 -2.3113e-05 1.00012 
1.26407e-05 -2.3113e-05 1.00012 
1.26407e-05 -2.3113e-05 1.00012 
0.000102788 -0.000209945 1.00017 
0.000102788 -0.000209945 1.00017 
0.000102788 -0.000209945 1.00017 
0.000102788 -0.000209945 1.00017 
5.25151e-05 -7.19839e-05 1.00011 
5.25151e-05 -7.19839e-05 1.00011 
5.25151e-05 -7.19839e-05 1.00011 
5.25151e-05 -7.19839e-05 1.00011 
0.000120507 3.17856e-05 1.00012 
0.000120507 3.17856e-05 1.00012 
0.000120507 3.17856e-05 1.00012 
0.000120507 3.17856e-05 1.00012 
-0.000126165 8.34463e-05 1.00014 
-0.000126165 8.34463e-05 1.00014 
-0.000126165 8.34463e-05 1.00014 
-0.000126165 8.34463e-05 1.00014 
1.7272e-05 0.000179503 1.00015 
1.7272e-05 0.000179503 1.00015 
1.7272e-05 0.000179503 1.00015 
1.7272e-05 0.000179503 1.00015 
0.000167669 -0.000212807 1.00015 
0.000167669 -0.000212807 1.00015 
0.000167669 -0.000212807 1.00015 
0.000167669 -0.000212807 1.00015 
4.37848e-05 4.18797e-05 1.0001 
4.37848e-05 4.18797e-05 1.0001 
4.37848e-05 4.18797e-05 1.0001 
4.37848e-05 4.18797e-05 1.0001 
0.000841541 0.000711568 0.998112 
0.000841541 0.000711568 0.998112 
0.000841541 0.000711568 0.998112 
0.000841541 0.000711568 0.998112 
-1.65186e-05 1.20808e-05 1.00011 
-1.65186e-05 1.20808e-05 1.00011 
-1.65186e-05 1.20808e-05 1.00011 
-1.65186e-05 1.20808e-05 1.00011 
-1.94648e-05 0.000405789 1.00016 
-1.94648e-05 0.000405789 1.00016 
-1.94648e-05 0.000405789 1.00016 
-1.94648e-05 0.000405789 1.00016 
0.000105572 -0.000293446 1.00014 
0.000105572 -0.000293446 1.00014 
0.000105572 -0.000293446 1.00014 
0.000105572 -0.000293446 1.00014 
-1.3204e-05 1.50255e-05 1.0001 
-1.3204e-05 1.50255e-05 1.0001 
-1.3204e-05 1.50255e-05 1.0001 
-1.3204e-05 1.50255e-05 1.0001 
-8.84828e-05 -0.000500809 1.00003 
-8.84828e-05 -0.000500809 1.00003 
-8.84828e-05 -0.000500809 1.00003 
-8.84828e-05 -0.000500809 1.00003 
-5.73274e-05 -2.27336e-05 1.00011 
-5.73274e-05 -2.27336e-05 1.00011 
-5.73274e-05 -2.27336e-05 1.00011 
-5.73274e-05 -2.27336e-05 1.00011 
7.01717e-05 -0.000214997 1.00015 
7.01717e-05 -0.000214997 1.00015 
7.01717e-05 -0.000214997 1.00015 
7.01717e-05 -0.000214997 1.00015 
9.83892e-06 -0.000144072 1.00014 
9.83892e-06 -0.000144072 1.00014 
9.83892e-06 -0.000144072 1.00014 
9.83892e-06 -0.000144072 1.00014 
0.000194571 -0.000437734 1.00011 
0.000194571 -0.000437734 1.00011 
0.000194571 -0.000437734 1.00011 
0.000194571 -0.000437734 1.00011 
-0.000510873 0.000124184 0.999919 
-0.000510873 0.000124184 0.999919 
-0.000510873 0.000124184 0.999919 
-0.000510873 0.000124184 0.999919 
1.61033e-06 1.63399e-05 1.00009 
1.61033e-06 1.63399e-05 1.00009 
1.61033e-06 1.63399e-05 1.00009 
1.61033e-06 1.63399e-05 1.00009 
-5.59746e-05 6.76176e-05 1.00014 
-5.59746e-05 6.76176e-05 1.00014 
-5.59746e-05 6.76176e-05 1.00014 
-5.59746e-05 6.76176e-05 1.00014 
-3.38971e-05 -0.00032652 0.999894 
-3.38971e-05 -0.00032652 0.999894 
-3.38971e-05 -0.00032652 0.999894 
-3.38971e-05 -0.00032652 0.999894 
-2.89646e-05 -3.46059e-05 1.00006 
-2.89646e-05 -3.46059e-05 1.00006 
-2.89646e-05 -3.46059e-05 1.00006 
-2.89646e-05 -3.46059e-05 1.00006 
0.000262675 -0.000286415 1.00014 
0.000262675 -0.000286415 1.00014 
0.000262675 -0.000286415 1.00014 
0.000262675 -0.000286415 1.00014 
0.000395817 -0.00066018 0.997178 
0.000395817 -0.00066018 0.997178 
0.000395817 -0.00066018 0.997178 
0.000395817 -0.00066018 0.997178 
-0.000256237 0.000229169 1.0001 
-0.000256237 0.000229169 1.0001 
-0.000256237 0.000229169 1.0001 
-0.000256237 0.000229169 1.0001 
-1.96988e-05 -0.000901944 0.999596 
-1.96988e-05 -0.000901944 0.999596 
-1.96988e-05 -0.000901944 0.999596 
-1.96988e-05 -0.000901944 0.999596 
0.00186367 0.000693265 0.997511 
0.00186367 0.000693265 0.997511 
0.00186367 0.000693265 0.997511 
0.00186367 0.000693265 0.997511 
-0.000596137 0.000831884 0.998597 
-0.000596137 0.000831884 0.998597 
-0.000596137 0.000831884 0.998597 
-0.000596137 0.000831884 0.998597 
0.000206689 -4.62644e-05 1.00016 
0.000206689 -4.62644e-05 1.00016 
0.000206689 -4.62644e-05 1.00016 
0.000206689 -4.62644e-05 1.00016 
0.000406465 0.000196392 0.99996 
0.000406465 0.000196392 0.99996 
0.000406465 0.000196392 0.99996 
0.000406465 0.000196392 0.99996 
-0.0002415 -0.000360556 1.00017 
-0.0002415 -0.000360556 1.00017 
-0.0002415 -0.000360556 1.00017 
-0.0002415 -0.000360556 1.00017 
-0.000277848 -0.00012201 1.00007 
-0.000277848 -0.00012201 1.00007 
-0.000277848 -0.00012201 1.00007 
-0.000277848 -0.00012201 1.00007 
-3.9348e-05 2.1182e-05 1.0001 
-3.9348e-05 2.1182e-05 1.0001 
-3.9348e-05 2.1182e-05 1.0001 
-3.9348e-05 2.1182e-05 1.0001 
-0.000514725 0.000278839 0.999805 
-0.000514725 0.000278839 0.999805 
-0.000514725 0.000278839 0.999805 
-0.000514725 0.000278839 0.999805 
-0.000156247 9.10736e-05 1.00014 
-0.000156247 9.10736e-05 1.00014 
-0.000156247 9.10736e-05 1.00014 
-0.000156247 9.10736e-05 1.00014 
-0.000206332 0.000133471 1.00012 
-0.000206332 0.000133471 1.00012 
-0.000206332 0.000133471 1.00012 
-0.000206332 0.000133471 1.00012 
-0.000188905 -9.87295e-05 1.00014 
-0.000188905 -9.87295e-05 1.00014 
-0.000188905 -9.87295e-05 1.00014 
-0.000188905 -9.87295e-05 1.00014 
3.27853e-05 -0.000388085 1.00012 
3.27853e-05 -0.000388085 1.00012 
3.27853e-05 -0.000388085 1.00012 
3.27853e-05 -0.000388085 1.00012 
-0.000164638 -7.46737e-05 1.00015 
-0.000164638 -7.46737e-05 1.00015 
-0.000164638 -7.46737e-05 1.00015 
-0.000164638 -7.46737e-05 1.00015 
0.000345242 0.000228429 0.999485 
0.000345242 0.000228429 0.999485 
0.000345242 0.000228429 0.999485 
0.000345242 0.000228429 0.999485 
-0.00201148 8.32478e-05 0.998612 
-0.00201148 8.32478e-05 0.998612 
-0.00201148 8.32478e-05 0.998612 
-0.00201148 8.32478e-05 0.998612 
0.000195013 6.87718e-05 1.00014 
0.000195013 6.87718e-05 1.00014 
0.000195013 6.87718e-05 1.00014 
0.000195013 6.87718e-05 1.00014 
3.79745e-05 -0.000471566 1.0001 
3.79745e-05 -0.000471566 1.0001 
3.79745e-05 -0.000471566 1.0001 
3.79745e-05 -0.000471566 1.0001 
0.000476703 8.96097e-05 1.00006 
0.000476703 8.96097e-05 1.00006 
0.000476703 8.96097e-05 1.00006 
0.000476703 8.96097e-05 1.00006 
0.000296297 0.0002176 1.00013 
0.000296297 0.0002176 1.00013 
0.000296297 0.0002176 1.00013 
0.000296297 0.0002176 1.00013 
-0.000298858 6.70236e-05 1.00014 
-0.000298858 6.70236e-05 1.00014 
-0.000298858 6.70236e-05 1.00014 
-0.000298858 6.70236e-05 1.00014 
-2.30026e-05 8.24798e-05 1.00009 
-2.30026e-05 8.24798e-05 1.00009 
-2.30026e-05 8.24798e-05 1.00009 
-2.30026e-05 8.24798e-05 1.00009 
0.00068223 -0.000174419 0.999951 
0.00068223 -0.000174419 0.999951 
0.00068223 -0.000174419 0.999951 
0.00068223 -0.000174419 0.999951 
-0.000248369 -0.000279833 1.00003 
-0.000248369 -0.000279833 1.00003 
-0.000248369 -0.000279833 1.00003 
-0.000248369 -0.000279833 1.00003 
0.000148486 2.7559e-05 1.00013 
0.000148486 2.7559e-05 1.00013 
0.000148486 2.7559e-05 1.00013 
0.000148486 2.7559e-05 1.00013 
0.000582649 0.000198125 0.999952 
0.000582649 0.000198125 0.999952 
0.000582649 0.000198125 0.999952 
0.000582649 0.000198125 0.999952 
0.000806724 -0.000693236 0.99854 
0.000806724 -0.000693236 0.99854 
0.000806724 -0.000693236 0.99854 
0.000806724 -0.000693236 0.99854 
-0.000173872 -0.000145925 1.0001 
-0.000173872 -0.000145925 1.0001 
-0.000173872 -0.000145925 1.0001 
-0.000173872 -0.000145925 1.0001 
8.13941e-05 0.000133867 1.00013 
8.13941e-05 0.000133867 1.00013 
8.13941e-05 0.000133867 1.00013 
8.13941e-05 0.000133867 1.00013 
-0.000142847 -0.00219902 0.99906 
-0.000142847 -0.00219902 0.99906 
-0.000142847 -0.00219902 0.99906 
-0.000142847 -0.00219902 0.99906 
0.00012864 0.000417198 1.00014 
0.00012864 0.000417198 1.00014 
0.00012864 0.000417198 1.00014 
0.00012864 0.000417198 1.00014 
-0.0001448 -0.000239865 0.999442 
-0.0001448 -0.000239865 0.999442 
-0.0001448 -0.000239865 0.999442 
-0.0001448 -0.000239865 0.999442 
0.000139768 0.000283897 1.00014 
0.000139768 0.000283897 1.00014 
0.000139768 0.000283897 1.00014 
0.000139768 0.000283897 1.00014 
0.000890433 -0.000770575 0.999187 
0.000890433 -0.000770575 0.999187 
0.000890433 -0.000770575 0.999187 
0.000890433 -0.000770575 0.999187 
4.81514e-05 -7.39554e-06 1.00007 
4.81514e-05 -7.39554e-06 1.00007 
4.81514e-05 -7.39554e-06 1.00007 
4.81514e-05 -7.39554e-06 1.00007 
-0.000108026 0.000315149 1.0001 
-0.000108026 0.000315149 1.0001 
-0.000108026 0.000315149 1.0001 
-0.000108026 0.000315149 1.0001 
-1.14053e-05 -6.36543e-06 1.00008 
-1.14053e-05 -6.36543e-06 1.00008 
-1.14053e-05 -6.36543e-06 1.00008 
-1.14053e-05 -6.36543e-06 1.00008 
3.77275e-06 -3.09472e-05 1.0001 
3.77275e-06 -3.09472e-05 1.0001 
3.77275e-06 -3.09472e-05 1.0001 
3.77275e-06 -3.09472e-05 1.0001 
-7.52662e-05 0.000382424 1.00017 
-7.52662e-05 0.000382424 1.00017 
-7.52662e-05 0.000382424 1.00017 
-7.52662e-05 0.000382424 1.00017 
-4.5248e-05 1.58868e-05 1.00009 
-4.5248e-05 1.58868e-05 1.00009 
-4.5248e-05 1.58868e-05 1.00009 
-4.5248e-05 1.58868e-05 1.00009 
0.000492056 -0.000452031 0.997517 
0.000492056 -0.000452031 0.997517 
0.000492056 -0.000452031 0.997517 
0.000492056 -0.000452031 0.997517 
-0.000677256 0.00114079 0.997267 
-0.000677256 0.00114079 0.997267 
-0.000677256 0.00114079 0.997267 
-0.000677256 0.00114079 0.997267 
-0.000147118 -9.88168e-05 1.00012 
-0.000147118 -9.88168e-05 1.00012 
-0.000147118 -9.88168e-05 1.00012 
-0.000147118 -9.88168e-05 1.00012 
0.000187685 0.000224612 1.00016 
0.000187685 0.000224612 1.00016 
0.000187685 0.000224612 1.00016 
0.000187685 0.000224612 1.00016 
0.0008413 -0.000981284 0.99787 
0.0008413 -0.000981284 0.99787 
0.0008413 -0.000981284 0.99787 
0.0008413 -0.000981284 0.99787 
0.0010084 0.000180219 0.998575 
0.0010084 0.000180219 0.998575 
0.0010084 0.000180219 0.998575 
0.0010084 0.000180219 0.998575 
-0.00107471 -0.00233627 0.995741 
-0.00107471 -0.00233627 0.995741 
-0.00107471 -0.00233627 0.995741 
-0.00107471 -0.00233627 0.995741 
5.12154e-05 1.37433e-06 1.0001 
5.12154e-05 1.37433e-06 1.0001 
5.12154e-05 1.37433e-06 1.0001 
5.12154e-05 1.37433e-06 1.0001 
-4.35296e-05 1.15035e-05 1.0001 
-4.35296e-05 1.15035e-05 1.0001 
-4.35296e-05 1.15035e-05 1.0001 
-4.35296e-05 1.15035e-05 1.0001 
-0.0001995 -0.000363734 1.00016 
-0.0001995 -0.000363734 1.00016 
-0.0001995 -0.000363734 1.00016 
-0.0001995 -0.000363734 1.00016 
9.20064e-06 -1.98981e-05 1.00011 
9.20064e-06 -1.98981e-05 1.00011 
9.20064e-06 -1.98981e-05 1.00011 
9.20064e-06 -1.98981e-05 1.00011 
0.000604883 -0.00138276 0.998652 
0.000604883 -0.00138276 0.998652 
0.000604883 -0.00138276 0.998652 
0.000604883 -0.00138276 0.998652 
-0.000279191 -9.98971e-05 0.998245 
-0.000279191 -9.98971e-05 0.998245 
-0.000279191 -9.98971e-05 0.998245 
-0.000279191 -9.98971e-05 0.998245 
0.000859174 -0.000807522 0.999182 
0.000859174 -0.000807522 0.999182 
0.000859174 -0.000807522 0.999182 
0.000859174 -0.000807522 0.999182 
0.00185161 0.0012366 0.998588 
0.00185161 0.0012366 0.998588 
0.00185161 0.0012366 0.998588 
0.00185161 0.0012366 0.998588 
0.000656652 0.000925992 0.996313 
0.000656652 0.000925992 0.996313 
0.000656652 0.000925992 0.996313 
0.000656652 0.000925992 0.996313 
-0.00220348 -0.000236659 0.998111 
-0.00220348 -0.000236659 0.998111 
-0.00220348 -0.000236659 0.998111 
-0.00220348 -0.000236659 0.998111 
-0.000395968 -8.30321e-05 0.998719 
-0.000395968 -8.30321e-05 0.998719 
-0.000395968 -8.30321e-05 0.998719 
-0.000395968 -8.30321e-05 0.998719 
-0.000902214 -6.82726e-06 0.998401 
-0.000902214 -6.82726e-06 0.998401 
-0.000902214 -6.82726e-06 0.998401 
-0.000902214 -6.82726e-06 0.998401 
-3.87928e-05 1.1437e-05 1.00009 
-3.87928e-05 1.1437e-05 1.00009 
-3.87928e-05 1.1437e-05 1.00009 
-3.87928e-05 1.1437e-05 1.00009 
-0.00116347 5.75493e-06 0.997056 
-0.00116347 5.75493e-06 0.997056 
-0.00116347 5.75493e-06 0.997056 
-0.00116347 5.75493e-06 0.997056 
0.00016497 -0.000283098 1.00013 
0.00016497 -0.000283098 1.00013 
0.00016497 -0.000283098 1.00013 
0.00016497 -0.000283098 1.00013 
-4.44988e-05 0.000147264 1.00014 
-4.44988e-05 0.000147264 1.00014 
-4.44988e-05 0.000147264 1.00014 
-4.44988e-05 0.000147264 1.00014 
-0.000190668 -0.000316462 0.998729 
-0.000190668 -0.000316462 0.998729 
-0.000190668 -0.000316462 0.998729 
-0.000190668 -0.000316462 0.998729 
0.000452104 -0.00279685 0.997503 
0.000452104 -0.00279685 0.997503 
0.000452104 -0.00279685 0.997503 
0.000452104 -0.00279685 0.997503 
-0.000100489 0.000196097 1.00013 
-0.000100489 0.000196097 1.00013 
-0.000100489 0.000196097 1.00013 
-0.000100489 0.000196097 1.00013 
0.000572149 0.00217949 0.99742 
0.000572149 0.00217949 0.99742 
0.000572149 0.00217949 0.99742 
0.000572149 0.00217949 0.99742 
-0.000238545 0.000611195 1 
-0.000238545 0.000611195 1 
-0.000238545 0.000611195 1 
-0.000238545 0.000611195 1 
0.000369013 0.000411183 0.999702 
0.000369013 0.000411183 0.999702 
0.000369013 0.000411183 0.999702 
0.000369013 0.000411183 0.999702 
0.00036047 -0.000468559 0.999804 
0.00036047 -0.000468559 0.999804 
0.00036047 -0.000468559 0.999804 
0.00036047 -0.000468559 0.999804 
0.00041332 -5.25373e-05 1.00013 
0.00041332 -5.25373e-05 1.00013 
0.00041332 -5.25373e-05 1.00013 
0.00041332 -5.25373e-05 1.00013 
3.6876e-05 -1.8545e-05 1.00005 
3.6876e-05 -1.8545e-05 1.00005 
3.6876e-05 -1.8545e-05 1.00005 
3.6876e-05 -1.8545e-05 1.00005 
0.000832976 -1.36039e-05 0.999814 
0.000832976 -1.36039e-05 0.999814 
0.000832976 -1.36039e-05 0.999814 
0.000832976 -1.36039e-05 0.999814 
0.000419232 0.00111406 0.998417 
0.000419232 0.00111406 0.998417 
0.000419232 0.00111406 0.998417 
0.000419232 0.00111406 0.998417 
-0.000758139 -4.97354e-05 0.99754 
-0.000758139 -4.97354e-05 0.99754 
-0.000758139 -4.97354e-05 0.99754 
-0.000758139 -4.97354e-05 0.99754 
-6.75531e-06 1.15886e-05 1.00008 
-6.75531e-06 1.15886e-05 1.00008 
-6.75531e-06 1.15886e-05 1.00008 
-6.75531e-06 1.15886e-05 1.00008 
0.000317752 0.000737016 0.997428 
0.000317752 0.000737016 0.997428 
0.000317752 0.000737016 0.997428 
0.000317752 0.000737016 0.997428 
-0.000151121 0.000147617 1.00011 
-0.000151121 0.000147617 1.00011 
-0.000151121 0.000147617 1.00011 
-0.000151121 0.000147617 1.00011 
-0.000295631 -0.000672951 0.999834 
-0.000295631 -0.000672951 0.999834 
-0.000295631 -0.000672951 0.999834 
-0.000295631 -0.000672951 0.999834 
-4.78654e-06 0.000481399 1.00015 
-4.78654e-06 0.000481399 1.00015 
-4.78654e-06 0.000481399 1.00015 
-4.78654e-06 0.000481399 1.00015 
0.0012894 0.00166894 0.998366 
0.0012894 0.00166894 0.998366 
0.0012894 0.00166894 0.998366 
0.0012894 0.00166894 0.998366 
0.00012848 -0.000426277 1.00002 
0.00012848 -0.000426277 1.00002 
0.00012848 -0.000426277 1.00002 
0.00012848 -0.000426277 1.00002 
0.00011518 -0.000388009 0.999937 
0.00011518 -0.000388009 0.999937 
0.00011518 -0.000388009 0.999937 
0.00011518 -0.000388009 0.999937 
-0.000403215 0.000381497 0.999895 
-0.000403215 0.000381497 0.999895 
-0.000403215 0.000381497 0.999895 
-0.000403215 0.000381497 0.999895 
-0.000744371 -0.000992823 0.998478 
-0.000744371 -0.000992823 0.998478 
-0.000744371 -0.000992823 0.998478 
-0.000744371 -0.000992823 0.998478 
-0.00101613 -0.000773423 0.998509 
-0.00101613 -0.000773423 0.998509 
-0.00101613 -0.000773423 0.998509 
-0.00101613 -0.000773423 0.998509 
0.00140815 -0.00152787 0.998214 
0.00140815 -0.00152787 0.998214 
0.00140815 -0.00152787 0.998214 
0.00140815 -0.00152787 0.998214 
-1.12501e-05 8.39596e-05 1.00015 
-1.12501e-05 8.39596e-05 1.00015 
-1.12501e-05 8.39596e-05 1.00015 
-1.12501e-05 8.39596e-05 1.00015 
-2.68356e-06 -1.37199e-05 1.00009 
-2.68356e-06 -1.37199e-05 1.00009 
-2.68356e-06 -1.37199e-05 1.00009 
-2.68356e-06 -1.37199e-05 1.00009 
0.000205876 0.000137215 1.00012 
0.000205876 0.000137215 1.00012 
0.000205876 0.000137215 1.00012 
0.000205876 0.000137215 1.00012 
-4.28684e-05 6.35103e-05 1.00013 
-4.28684e-05 6.35103e-05 1.00013 
-4.28684e-05 6.35103e-05 1.00013 
-4.28684e-05 6.35103e-05 1.00013 
-4.25755e-05 0.000180745 1.00012 
-4.25755e-05 0.000180745 1.00012 
-4.25755e-05 0.000180745 1.00012 
-4.25755e-05 0.000180745 1.00012 
0.000296389 -0.0014632 0.997158 
0.000296389 -0.0014632 0.997158 
0.000296389 -0.0014632 0.997158 
0.000296389 -0.0014632 0.997158 
-0.000407088 0.000688029 0.998273 
-0.000407088 0.000688029 0.998273 
-0.000407088 0.000688029 0.998273 
-0.000407088 0.000688029 0.998273 
-0.00108608 0.000192487 0.997784 
-0.00108608 0.000192487 0.997784 
-0.00108608 0.000192487 0.997784 
-0.00108608 0.000192487 0.997784 
-0.000304998 -0.000169728 0.999629 
-0.000304998 -0.000169728 0.999629 
-0.000304998 -0.000169728 0.999629 
-0.000304998 -0.000169728 0.999629 
-0.000139406 -8.80079e-05 1.00012 
-0.000139406 -8.80079e-05 1.00012 
-0.000139406 -8.80079e-05 1.00012 
-0.000139406 -8.80079e-05 1.00012 
0.00084722 -7.04668e-05 0.997932 
0.00084722 -7.04668e-05 0.997932 
0.00084722 -7.04668e-05 0.997932 
0.00084722 -7.04668e-05 0.997932 
0.000559189 -0.000689416 0.998612 
0.000559189 -0.000689416 0.998612 
0.000559189 -0.000689416 0.998612 
0.000559189 -0.000689416 0.998612 
0.000435125 -0.000469987 0.999823 
0.000435125 -0.000469987 0.999823 
0.000435125 -0.000469987 0.999823 
0.000435125 -0.000469987 0.999823 
9.89777e-05 -0.000195647 1.00017 
9.89777e-05 -0.000195647 1.00017 
9.89777e-05 -0.000195647 1.00017 
9.89777e-05 -0.000195647 1.00017 
-0.00074253 0.00141941 0.998799 
-0.00074253 0.00141941 0.998799 
-0.00074253 0.00141941 0.998799 
-0.00074253 0.00141941 0.998799 
0.000552249 -0.000771219 0.998545 
0.000552249 -0.000771219 0.998545 
0.000552249 -0.000771219 0.998545 
0.000552249 -0.000771219 0.998545 
-8.1584e-05 -0.00019778 1.0001 
-8.1584e-05 -0.00019778 1.0001 
-8.1584e-05 -0.00019778 1.0001 
-8.1584e-05 -0.00019778 1.0001 
0.000431494 -0.000551889 0.999888 
0.000431494 -0.000551889 0.999888 
0.000431494 -0.000551889 0.999888 
0.000431494 -0.000551889 0.999888 
-3.24149e-05 4.0918e-05 1.00008 
-3.24149e-05 4.0918e-05 1.00008 
-3.24149e-05 4.0918e-05 1.00008 
-3.24149e-05 4.0918e-05 1.00008 
-0.000774761 5.71998e-05 0.99961 
-0.000774761 5.71998e-05 0.99961 
-0.000774761 5.71998e-05 0.99961 
-0.000774761 5.71998e-05 0.99961 
-0.000153779 -0.000210511 1.00016 
-0.000153779 -0.000210511 1.00016 
-0.000153779 -0.000210511 1.00016 
-0.000153779 -0.000210511 1.00016 
-0.000212761 -0.00164069 0.99874 
-0.000212761 -0.00164069 0.99874 
-0.000212761 -0.00164069 0.99874 
-0.000212761 -0.00164069 0.99874 
0.000770863 -0.00102039 0.997876 
0.000770863 -0.00102039 0.997876 
0.000770863 -0.00102039 0.997876 
0.000770863 -0.00102039 0.997876 
1.06126e-05 4.86642e-05 1.0001 
1.06126e-05 4.86642e-05 1.0001 
1.06126e-05 4.86642e-05 1.0001 
1.06126e-05 4.86642e-05 1.0001 
-8.70824e-05 -0.000131543 1.00014 
-8.70824e-05 -0.000131543 1.00014 
-8.70824e-05 -0.000131543 1.00014 
-8.70824e-05 -0.000131543 1.00014 
0.000425541 -0.00156989 0.9987 
0.000425541 -0.00156989 0.9987 
0.000425541 -0.00156989 0.9987 
0.000425541 -0.00156989 0.9987 
4.20921e-05 4.8281e-05 1.00011 
4.20921e-05 4.8281e-05 1.00011 
4.20921e-05 4.8281e-05 1.00011 
4.20921e-05 4.8281e-05 1.00011 
0.000461084 -0.000523609 0.999885 
0.000461084 -0.000523609 0.999885 
0.000461084 -0.000523609 0.999885 
0.000461084 -0.000523609 0.999885 
0.000133816 -0.000960334 0.999585 
0.000133816 -0.000960334 0.999585 
0.000133816 -0.000960334 0.999585 
0.000133816 -0.000960334 0.999585 
0.000380293 -0.000272059 0.999901 
0.000380293 -0.000272059 0.999901 
0.000380293 -0.000272059 0.999901 
0.000380293 -0.000272059 0.999901 
0.000340733 6.7333e-05 0.999852 
0.000340733 6.7333e-05 0.999852 
0.000340733 6.7333e-05 0.999852 
0.000340733 6.7333e-05 0.999852 
0.000602988 -0.00100706 0.999574 
0.000602988 -0.00100706 0.999574 
0.000602988 -0.00100706 0.999574 
0.000602988 -0.00100706 0.999574 
3.50862e-05 -0.000116972 1.00008 
3.50862e-05 -0.000116972 1.00008 
3.50862e-05 -0.000116972 1.00008 
3.50862e-05 -0.000116972 1.00008 
-0.00166019 0.00186381 0.997935 
-0.00166019 0.00186381 0.997935 
-0.00166019 0.00186381 0.997935 
-0.00166019 0.00186381 0.997935 
0.000225401 6.69697e-05 1.00014 
0.000225401 6.69697e-05 1.00014 
0.000225401 6.69697e-05 1.00014 
0.000225401 6.69697e-05 1.00014 
0.000651727 -6.36843e-05 0.999972 
0.000651727 -6.36843e-05 0.999972 
0.000651727 -6.36843e-05 0.999972 
0.000651727 -6.36843e-05 0.999972 
0.00201619 0.000287701 0.997622 
0.00201619 0.000287701 0.997622 
0.00201619 0.000287701 0.997622 
0.00201619 0.000287701 0.997622 
-7.23444e-05 0.000364827 1.00017 
-7.23444e-05 0.000364827 1.00017 
-7.23444e-05 0.000364827 1.00017 
-7.23444e-05 0.000364827 1.00017 
-0.00112308 -0.00129555 0.999351 
-0.00112308 -0.00129555 0.999351 
-0.00112308 -0.00129555 0.999351 
-0.00112308 -0.00129555 0.999351 
0.00100353 0.000478541 0.999669 
0.00100353 0.000478541 0.999669 
0.00100353 0.000478541 0.999669 
0.00100353 0.000478541 0.999669 
0.000100802 -0.000449441 0.999761 
0.000100802 -0.000449441 0.999761 
0.000100802 -0.000449441 0.999761 
0.000100802 -0.000449441 0.999761 
5.73521e-06 -0.000159171 0.999824 
5.73521e-06 -0.000159171 0.999824 
5.73521e-06 -0.000159171 0.999824 
5.73521e-06 -0.000159171 0.999824 
-0.00189595 -0.000576961 0.998645 
-0.00189595 -0.000576961 0.998645 
-0.00189595 -0.000576961 0.998645 
-0.00189595 -0.000576961 0.998645 
-0.000184768 -2.38499e-05 1.00016 
-0.000184768 -2.38499e-05 1.00016 
-0.000184768 -2.38499e-05 1.00016 
-0.000184768 -2.38499e-05 1.00016 
0.000101658 0.000153534 1.00007 
0.000101658 0.000153534 1.00007 
0.000101658 0.000153534 1.00007 
0.000101658 0.000153534 1.00007 
0.000385111 -0.000480884 0.998207 
0.000385111 -0.000480884 0.998207 
0.000385111 -0.000480884 0.998207 
0.000385111 -0.000480884 0.998207 
0.00109843 0.000794054 0.998239 
0.00109843 0.000794054 0.998239 
0.00109843 0.000794054 0.998239 
0.00109843 0.000794054 0.998239 
8.94993e-05 -8.89846e-05 1.00012 
8.94993e-05 -8.89846e-05 1.00012 
8.94993e-05 -8.89846e-05 1.00012 
8.94993e-05 -8.89846e-05 1.00012 
-7.9467e-05 0.000226646 1.00017 
-7.9467e-05 0.000226646 1.00017 
-7.9467e-05 0.000226646 1.00017 
-7.9467e-05 0.000226646 1.00017 
-0.000623845 -0.000228778 0.999941 
-0.000623845 -0.000228778 0.999941 
-0.000623845 -0.000228778 0.999941 
-0.000623845 -0.000228778 0.999941 
0.000594997 0.000359997 0.997954 
0.000594997 0.000359997 0.997954 
0.000594997 0.000359997 0.997954 
0.000594997 0.000359997 0.997954 
-2.08444e-05 0.000204594 0.999603 
-2.08444e-05 0.000204594 0.999603 
-2.08444e-05 0.000204594 0.999603 
-2.08444e-05 0.000204594 0.999603 
-0.000153733 -0.00290057 0.997526 
-0.000153733 -0.00290057 0.997526 
-0.000153733 -0.00290057 0.997526 
-0.000153733 -0.00290057 0.997526 
1.38723e-05 0.000212672 1.00017 
1.38723e-05 0.000212672 1.00017 
1.38723e-05 0.000212672 1.00017 
1.38723e-05 0.000212672 1.00017 
-2.23115e-06 -7.84193e-06 1.00011 
-2.23115e-06 -7.84193e-06 1.00011 
-2.23115e-06 -7.84193e-06 1.00011 
-2.23115e-06 -7.84193e-06 1.00011 
-0.000513464 0.00145603 0.998002 
-0.000513464 0.00145603 0.998002 
-0.000513464 0.00145603 0.998002 
-0.000513464 0.00145603 0.998002 
-0.00011832 0.000544931 0.999764 
-0.00011832 0.000544931 0.999764 
-0.00011832 0.000544931 0.999764 
-0.00011832 0.000544931 0.999764 
0.000662011 0.000516308 0.999626 
0.000662011 0.000516308 0.999626 
0.000662011 0.000516308 0.999626 
0.000662011 0.000516308 0.999626 
-0.000125741 9.49381e-05 1.00013 
-0.000125741 9.49381e-05 1.00013 
-0.000125741 9.49381e-05 1.00013 
-0.000125741 9.49381e-05 1.00013 
-0.000514615 0.00114137 0.998637 
-0.000514615 0.00114137 0.998637 
-0.000514615 0.00114137 0.998637 
-0.000514615 0.00114137 0.998637 
0.0005431 -0.000750429 0.999268 
0.0005431 -0.000750429 0.999268 
0.0005431 -0.000750429 0.999268 
0.0005431 -0.000750429 0.999268 
-0.00196522 9.18847e-05 0.998614 
-0.00196522 9.18847e-05 0.998614 
-0.00196522 9.18847e-05 0.998614 
-0.00196522 9.18847e-05 0.998614 
-1.09804e-05 0.000384894 1.00017 
-1.09804e-05 0.000384894 1.00017 
-1.09804e-05 0.000384894 1.00017 
-1.09804e-05 0.000384894 1.00017 
-0.000483093 8.64468e-05 1.00009 
-0.000483093 8.64468e-05 1.00009 
-0.000483093 8.64468e-05 1.00009 
-0.000483093 8.64468e-05 1.00009 
0.000460873 -0.000712055 0.998596 
0.000460873 -0.000712055 0.998596 
0.000460873 -0.000712055 0.998596 
0.000460873 -0.000712055 0.998596 
-0.000571689 0.000362298 0.999843 
-0.000571689 0.000362298 0.999843 
-0.000571689 0.000362298 0.999843 
-0.000571689 0.000362298 0.999843 
7.91237e-06 2.06912e-05 1.00009 
7.91237e-06 2.06912e-05 1.00009 
7.91237e-06 2.06912e-05 1.00009 
7.91237e-06 2.06912e-05 1.00009 
0.000388657 0.000427771 0.999935 
0.000388657 0.000427771 0.999935 
0.000388657 0.000427771 0.999935 
0.000388657 0.000427771 0.999935 
0.00218157 -0.000724475 0.997291 
0.00218157 -0.000724475 0.997291 
0.00218157 -0.000724475 0.997291 
0.00218157 -0.000724475 0.997291 
0.000221762 0.000337634 1.00015 
0.000221762 0.000337634 1.00015 
0.000221762 0.000337634 1.00015 
0.000221762 0.000337634 1.00015 
-3.20663e-05 0.000395722 1.00017 
-3.20663e-05 0.000395722 1.00017 
-3.20663e-05 0.000395722 1.00017 
-3.20663e-05 0.000395722 1.00017 
-0.000577221 0.0010258 0.999024 
-0.000577221 0.0010258 0.999024 
-0.000577221 0.0010258 0.999024 
-0.000577221 0.0010258 0.999024 
1.0995e-05 -6.51927e-05 1.00012 
1.0995e-05 -6.51927e-05 1.00012 
1.0995e-05 -6.51927e-05 1.00012 
1.0995e-05 -6.51927e-05 1.00012 
-4.25522e-06 0.000239081 1.00017 
-4.25522e-06 0.000239081 1.00017 
-4.25522e-06 0.000239081 1.00017 
-4.25522e-06 0.000239081 1.00017 
0.000365775 -0.000248581 1.0001 
0.000365775 -0.000248581 1.0001 
0.000365775 -0.000248581 1.0001 
0.000365775 -0.000248581 1.0001 
0.00158922 5.71975e-05 0.998156 
0.00158922 5.71975e-05 0.998156 
0.00158922 5.71975e-05 0.998156 
0.00158922 5.71975e-05 0.998156 
0.00042643 0.00215601 0.998248 
0.00042643 0.00215601 0.998248 
0.00042643 0.00215601 0.998248 
0.00042643 0.00215601 0.998248 
4.14382e-05 0.00102696 0.999679 
4.14382e-05 0.00102696 0.999679 
4.14382e-05 0.00102696 0.999679 
4.14382e-05 0.00102696 0.999679 
0.000470763 -0.00124783 0.998643 
0.000470763 -0.00124783 0.998643 
0.000470763 -0.00124783 0.998643 
0.000470763 -0.00124783 0.998643 
0.000231985 0.000486291 0.999883 
0.000231985 0.000486291 0.999883 
0.000231985 0.000486291 0.999883 
0.000231985 0.000486291 0.999883 
0.000154384 0.00134155 0.998609 
0.000154384 0.00134155 0.998609 
0.000154384 0.00134155 0.998609 
0.000154384 0.00134155 0.998609 
-0.00172681 0.000507279 0.998428 
-0.00172681 0.000507279 0.998428 
-0.00172681 0.000507279 0.998428 
-0.00172681 0.000507279 0.998428 
-7.95754e-05 -0.000188082 1.00002 
-7.95754e-05 -0.000188082 1.00002 
-7.95754e-05 -0.000188082 1.00002 
-7.95754e-05 -0.000188082 1.00002 
0.00010162 -5.79908e-05 1.00016 
0.00010162 -5.79908e-05 1.00016 
0.00010162 -5.79908e-05 1.00016 
0.00010162 -5.79908e-05 1.00016 
2.11155e-06 -0.000287397 1.00013 
2.11155e-06 -0.000287397 1.00013 
2.11155e-06 -0.000287397 1.00013 
2.11155e-06 -0.000287397 1.00013 
0.000386003 0.000175597 0.997943 
0.000386003 0.000175597 0.997943 
0.000386003 0.000175597 0.997943 
0.000386003 0.000175597 0.997943 
-1.85748e-06 0.00110948 0.999655 
-1.85748e-06 0.00110948 0.999655 
-1.85748e-06 0.00110948 0.999655 
-1.85748e-06 0.00110948 0.999655 
-0.000224967 -6.79166e-05 1.00008 
-0.000224967 -6.79166e-05 1.00008 
-0.000224967 -6.79166e-05 1.00008 
-0.000224967 -6.79166e-05 1.00008 
-0.000120965 0.000288678 1.00016 
-0.000120965 0.000288678 1.00016 
-0.000120965 0.000288678 1.00016 
-0.000120965 0.000288678 1.00016 
-0.0011183 -0.000387304 0.998083 
-0.0011183 -0.000387304 0.998083 
-0.0011183 -0.000387304 0.998083 
-0.0011183 -0.000387304 0.998083 
0.000241947 -0.00110043 0.999397 
0.000241947 -0.00110043 0.999397 
0.000241947 -0.00110043 0.999397 
0.000241947 -0.00110043 0.999397 
-0.00170853 0.00054406 0.996669 
-0.00170853 0.00054406 0.996669 
-0.00170853 0.00054406 0.996669 
-0.00170853 0.00054406 0.996669 
9.79546e-06 4.95478e-06 1.00007 
9.79546e-06 4.95478e-06 1.00007 
9.79546e-06 4.95478e-06 1.00007 
9.79546e-06 4.95478e-06 1.00007 
0.00146908 -0.000273731 0.998792 
0.00146908 -0.000273731 0.998792 
0.00146908 -0.000273731 0.998792 
0.00146908 -0.000273731 0.998792 
0.000984431 0.000508759 0.999563 
0.000984431 0.000508759 0.999563 
0.000984431 0.000508759 0.999563 
0.000984431 0.000508759 0.999563 
-5.03401e-05 -0.000189256 1.00016 
-5.03401e-05 -0.000189256 1.00016 
-5.03401e-05 -0.000189256 1.00016 
-5.03401e-05 -0.000189256 1.00016 
0.000181568 0.000635408 0.999745 
0.000181568 0.000635408 0.999745 
0.000181568 0.000635408 0.999745 
0.000181568 0.000635408 0.999745 
-0.000265037 -0.0013046 0.998962 
-0.000265037 -0.0013046 0.998962 
-0.000265037 -0.0013046 0.998962 
-0.000265037 -0.0013046 0.998962 
3.73603e-05 -1.7383e-05 1.00009 
3.73603e-05 -1.7383e-05 1.00009 
3.73603e-05 -1.7383e-05 1.00009 
3.73603e-05 -1.7383e-05 1.00009 
-0.000241734 0.000825871 0.999855 
-0.000241734 0.000825871 0.999855 
-0.000241734 0.000825871 0.999855 
-0.000241734 0.000825871 0.999855 
-0.000259157 -0.000357843 0.999998 
-0.000259157 -0.000357843 0.999998 
-0.000259157 -0.000357843 0.999998 
-0.000259157 -0.000357843 0.999998 
0.000641484 0.000439508 0.99801 
0.000641484 0.000439508 0.99801 
0.000641484 0.000439508 0.99801 
0.000641484 0.000439508 0.99801 
-0.000117169 -0.000380697 0.998007 
-0.000117169 -0.000380697 0.998007 
-0.000117169 -0.000380697 0.998007 
-0.000117169 -0.000380697 0.998007 
-5.89878e-05 -0.000247553 0.999327 
-5.89878e-05 -0.000247553 0.999327 
-5.89878e-05 -0.000247553 0.999327 
-5.89878e-05 -0.000247553 0.999327 
0.000123042 -0.000104321 1.00017 
0.000123042 -0.000104321 1.00017 
0.000123042 -0.000104321 1.00017 
0.000123042 -0.000104321 1.00017 
-0.000873323 0.00111086 0.997621 
-0.000873323 0.00111086 0.997621 
-0.000873323 0.00111086 0.997621 
-0.000873323 0.00111086 0.997621 
-0.000597649 0.000333488 0.999839 
-0.000597649 0.000333488 0.999839 
-0.000597649 0.000333488 0.999839 
-0.000597649 0.000333488 0.999839 
0.000372666 -0.00102893 0.999014 
0.000372666 -0.00102893 0.999014 
0.000372666 -0.00102893 0.999014 
0.000372666 -0.00102893 0.999014 
-0.000514491 8.20575e-05 1.00031 
-0.000514491 8.20575e-05 1.00031 
-0.000514491 8.20575e-05 1.00031 
-0.000514491 8.20575e-05 1.00031 
0.000148317 -1.7737e-05 1.00015 
0.000148317 -1.7737e-05 1.00015 
0.000148317 -1.7737e-05 1.00015 
0.000148317 -1.7737e-05 1.00015 
-1.47692e-05 3.28114e-05 1.0001 
-1.47692e-05 3.28114e-05 1.0001 
-1.47692e-05 3.28114e-05 1.0001 
-1.47692e-05 3.28114e-05 1.0001 
8.68246e-07 -4.24101e-05 1.00007 
8.68246e-07 -4.24101e-05 1.00007 
8.68246e-07 -4.24101e-05 1.00007 
8.68246e-07 -4.24101e-05 1.00007 
-0.00130782 -0.00120676 0.998252 
-0.00130782 -0.00120676 0.998252 
-0.00130782 -0.00120676 0.998252 
-0.00130782 -0.00120676 0.998252 
4.92279e-05 1.85735e-05 1.00009 
4.92279e-05 1.85735e-05 1.00009 
4.92279e-05 1.85735e-05 1.00009 
4.92279e-05 1.85735e-05 1.00009 
-0.000277949 7.20582e-05 0.999963 
-0.000277949 7.20582e-05 0.999963 
-0.000277949 7.20582e-05 0.999963 
-0.000277949 7.20582e-05 0.999963 
0.000435067 6.87859e-05 1.0001 
0.000435067 6.87859e-05 1.0001 
0.000435067 6.87859e-05 1.0001 
0.000435067 6.87859e-05 1.0001 
-0.000425524 0.00155335 0.996052 
-0.000425524 0.00155335 0.996052 
-0.000425524 0.00155335 0.996052 
-0.000425524 0.00155335 0.996052 
-0.000102641 0.000107176 1.00002 
-0.000102641 0.000107176 1.00002 
-0.000102641 0.000107176 1.00002 
-0.000102641 0.000107176 1.00002 
0.000286741 0.00141331 0.998738 
0.000286741 0.00141331 0.998738 
0.000286741 0.00141331 0.998738 
0.000286741 0.00141331 0.998738 
3.89489e-06 -6.71131e-06 1.00007 
3.89489e-06 -6.71131e-06 1.00007 
3.89489e-06 -6.71131e-06 1.00007 
3.89489e-06 -6.71131e-06 1.00007 
-0.000381537 0.000514754 0.999799 
-0.000381537 0.000514754 0.999799 
-0.000381537 0.000514754 0.999799 
-0.000381537 0.000514754 0.999799 
0.000652019 0.000208798 0.999692 
0.000652019 0.000208798 0.999692 
0.000652019 0.000208798 0.999692 
0.000652019 0.000208798 0.999692 
0.000372379 -9.15709e-06 1.00012 
0.000372379 -9.15709e-06 1.00012 
0.000372379 -9.15709e-06 1.00012 
0.000372379 -9.15709e-06 1.00012 
8.50938e-05 -0.000533461 0.997933 
8.50938e-05 -0.000533461 0.997933 
8.50938e-05 -0.000533461 0.997933 
8.50938e-05 -0.000533461 0.997933 
-1.95928e-05 -1.43476e-05 1.00007 
-1.95928e-05 -1.43476e-05 1.00007 
-1.95928e-05 -1.43476e-05 1.00007 
-1.95928e-05 -1.43476e-05 1.00007 
0.000522636 0.000514463 0.999147 
0.000522636 0.000514463 0.999147 
0.000522636 0.000514463 0.999147 
0.000522636 0.000514463 0.999147 
0.000438014 0.00118952 0.99866 
0.000438014 0.00118952 0.99866 
0.000438014 0.00118952 0.99866 
0.000438014 0.00118952 0.99866 
-0.000722795 -0.000862546 0.998849 
-0.000722795 -0.000862546 0.998849 
-0.000722795 -0.000862546 0.998849 
-0.000722795 -0.000862546 0.998849 
-0.000925253 0.000948503 0.997295 
-0.000925253 0.000948503 0.997295 
-0.000925253 0.000948503 0.997295 
-0.000925253 0.000948503 0.997295 
-0.0014443 -0.000234214 0.998329 
-0.0014443 -0.000234214 0.998329 
-0.0014443 -0.000234214 0.998329 
-0.0014443 -0.000234214 0.998329 
0.000170417 0.00109996 0.997685 
0.000170417 0.00109996 0.997685 
0.000170417 0.00109996 0.997685 
0.000170417 0.00109996 0.997685 
-0.000147604 -0.000308412 0.999834 
-0.000147604 -0.000308412 0.999834 
-0.000147604 -0.000308412 0.999834 
-0.000147604 -0.000308412 0.999834 
0.00159342 0.00194002 0.998458 
0.00159342 0.00194002 0.998458 
0.00159342 0.00194002 0.998458 
0.00159342 0.00194002 0.998458 
0.00169715 0.000310107 0.9985 
0.00169715 0.000310107 0.9985 
0.00169715 0.000310107 0.9985 
0.00169715 0.000310107 0.9985 
-0.000373165 -0.000808409 0.999814 
-0.000373165 -0.000808409 0.999814 
-0.000373165 -0.000808409 0.999814 
-0.000373165 -0.000808409 0.999814 
-0.0014019 0.000360793 0.999099 
-0.0014019 0.000360793 0.999099 
-0.0014019 0.000360793 0.999099 
-0.0014019 0.000360793 0.999099 
-4.24498e-05 -3.63528e-05 1.00012 
-4.24498e-05 -3.63528e-05 1.00012 
-4.24498e-05 -3.63528e-05 1.00012 
-4.24498e-05 -3.63528e-05 1.00012 
2.1434e-05 -2.4124e-06 1.00007 
2.1434e-05 -2.4124e-06 1.00007 
2.1434e-05 -2.4124e-06 1.00007 
2.1434e-05 -2.4124e-06 1.00007 
-0.000145493 -0.00022913 0.999346 
-0.000145493 -0.00022913 0.999346 
-0.000145493 -0.00022913 0.999346 
-0.000145493 -0.00022913 0.999346 
7.59438e-07 1.12414e-05 1.00011 
7.59438e-07 1.12414e-05 1.00011 
7.59438e-07 1.12414e-05 1.00011 
7.59438e-07 1.12414e-05 1.00011 
0.00107728 0.00162842 0.997403 
0.00107728 0.00162842 0.997403 
0.00107728 0.00162842 0.997403 
0.00107728 0.00162842 0.997403 
0.000546255 -0.000740822 0.99802 
0.000546255 -0.000740822 0.99802 
0.000546255 -0.000740822 0.99802 
0.000546255 -0.000740822 0.99802 
-0.000235826 0.000243729 0.999995 
-0.000235826 0.000243729 0.999995 
-0.000235826 0.000243729 0.999995 
-0.000235826 0.000243729 0.999995 
-0.000186795 -0.000999891 0.997288 
-0.000186795 -0.000999891 0.997288 
-0.000186795 -0.000999891 0.997288 
-0.000186795 -0.000999891 0.997288 
3.13814e-07 1.13997e-06 1.00008 
3.13814e-07 1.13997e-06 1.00008 
3.13814e-07 1.13997e-06 1.00008 
3.13814e-07 1.13997e-06 1.00008 
1.20496e-05 -0.000607657 0.999997 
1.20496e-05 -0.000607657 0.999997 
1.20496e-05 -0.000607657 0.999997 
1.20496e-05 -0.000607657 0.999997 
-0.000101396 -0.000173666 1.00017 
-0.000101396 -0.000173666 1.00017 
-0.000101396 -0.000173666 1.00017 
-0.000101396 -0.000173666 1.00017 
0.00127165 -0.000245615 0.999664 
0.00127165 -0.000245615 0.999664 
0.00127165 -0.000245615 0.999664 
0.00127165 -0.000245615 0.999664 
-0.000296906 -0.00011064 0.999852 
-0.000296906 -0.00011064 0.999852 
-0.000296906 -0.00011064 0.999852 
-0.000296906 -0.00011064 0.999852 
0.000297207 0.000258873 1.00011 
0.000297207 0.000258873 1.00011 
0.000297207 0.000258873 1.00011 
0.000297207 0.000258873 1.00011 
-3.00152e-05 7.61791e-06 1.00009 
-3.00152e-05 7.61791e-06 1.00009 
-3.00152e-05 7.61791e-06 1.00009 
-3.00152e-05 7.61791e-06 1.00009 
7.90949e-06 5.25977e-05 1.00025 
7.90949e-06 5.25977e-05 1.00025 
7.90949e-06 5.25977e-05 1.00025 
7.90949e-06 5.25977e-05 1.00025 
-0.000249108 0.000219549 0.999893 
-0.000249108 0.000219549 0.999893 
-0.000249108 0.000219549 0.999893 
-0.000249108 0.000219549 0.999893 
-0.000511404 0.000597713 0.999709 
-0.000511404 0.000597713 0.999709 
-0.000511404 0.000597713 0.999709 
-0.000511404 0.000597713 0.999709 
-0.000200413 0.000151926 0.999693 
-0.000200413 0.000151926 0.999693 
-0.000200413 0.000151926 0.999693 
-0.000200413 0.000151926 0.999693 
-0.0015242 -0.000521892 0.999386 
-0.0015242 -0.000521892 0.999386 
-0.0015242 -0.000521892 0.999386 
-0.0015242 -0.000521892 0.999386 
-0.000403588 -4.49671e-05 1.00002 
-0.000403588 -4.49671e-05 1.00002 
-0.000403588 -4.49671e-05 1.00002 
-0.000403588 -4.49671e-05 1.00002 
0.000331656 0.000317102 1.00012 
0.000331656 0.000317102 1.00012 
0.000331656 0.000317102 1.00012 
0.000331656 0.000317102 1.00012 
-0.00177364 0.000959294 0.997241 
-0.00177364 0.000959294 0.997241 
-0.00177364 0.000959294 0.997241 
-0.00177364 0.000959294 0.997241 
-0.00048724 0.000103529 1.00009 
-0.00048724 0.000103529 1.00009 
-0.00048724 0.000103529 1.00009 
-0.00048724 0.000103529 1.00009 
3.08755e-05 0.000669603 1.00012 
3.08755e-05 0.000669603 1.00012 
3.08755e-05 0.000669603 1.00012 
3.08755e-05 0.000669603 1.00012 
1.30871e-05 5.98991e-05 1.00013 
1.30871e-05 5.98991e-05 1.00013 
1.30871e-05 5.98991e-05 1.00013 
1.30871e-05 5.98991e-05 1.00013 
7.99883e-06 6.01503e-05 1.0001 
7.99883e-06 6.01503e-05 1.0001 
7.99883e-06 6.01503e-05 1.0001 
7.99883e-06 6.01503e-05 1.0001 
-0.00032082 -0.000426876 1.0001 
-0.00032082 -0.000426876 1.0001 
-0.00032082 -0.000426876 1.0001 
-0.00032082 -0.000426876 1.0001 
0.000394631 -0.000241376 0.998028 
0.000394631 -0.000241376 0.998028 
0.000394631 -0.000241376 0.998028 
0.000394631 -0.000241376 0.998028 
0.000513742 -0.000220398 0.999963 
0.000513742 -0.000220398 0.999963 
0.000513742 -0.000220398 0.999963 
0.000513742 -0.000220398 0.999963 
-0.000481407 -0.000247855 0.999861 
-0.000481407 -0.000247855 0.999861 
-0.000481407 -0.000247855 0.999861 
-0.000481407 -0.000247855 0.999861 
-0.00024897 8.58587e-05 1.00014 
-0.00024897 8.58587e-05 1.00014 
-0.00024897 8.58587e-05 1.00014 
-0.00024897 8.58587e-05 1.00014 
0.000263257 0.000794807 0.999811 
0.000263257 0.000794807 0.999811 
0.000263257 0.000794807 0.999811 
0.000263257 0.000794807 0.999811 
-0.00121038 0.000213584 0.999594 
-0.00121038 0.000213584 0.999594 
-0.00121038 0.000213584 0.999594 
-0.00121038 0.000213584 0.999594 
8.34766e-05 0.000627723 1.00011 
8.34766e-05 0.000627723 1.00011 
8.34766e-05 0.000627723 1.00011 
8.34766e-05 0.000627723 1.00011 
0.000127903 -0.000910079 0.99958 
0.000127903 -0.000910079 0.99958 
0.000127903 -0.000910079 0.99958 
0.000127903 -0.000910079 0.99958 
0.000454505 -0.000305504 1.00006 
0.000454505 -0.000305504 1.00006 
0.000454505 -0.000305504 1.00006 
0.000454505 -0.000305504 1.00006 
-6.58954e-06 0.00018379 0.998023 
-6.58954e-06 0.00018379 0.998023 
-6.58954e-06 0.00018379 0.998023 
-6.58954e-06 0.00018379 0.998023 
0.000239008 0.000182097 0.999526 
0.000239008 0.000182097 0.999526 
0.000239008 0.000182097 0.999526 
0.000239008 0.000182097 0.999526 
1.59459e-05 0.000145619 0.999522 
1.59459e-05 0.000145619 0.999522 
1.59459e-05 0.000145619 0.999522 
1.59459e-05 0.000145619 0.999522 
4.18793e-05 0.000149723 0.999524 
4.18793e-05 0.000149723 0.999524 
4.18793e-05 0.000149723 0.999524 
4.18793e-05 0.000149723 0.999524 
-0.000497797 -0.000266176 0.999939 
-0.000497797 -0.000266176 0.999939 
-0.000497797 -0.000266176 0.999939 
-0.000497797 -0.000266176 0.999939 
0.000614671 0.0015398 0.998889 
0.000614671 0.0015398 0.998889 
0.000614671 0.0015398 0.998889 
0.000614671 0.0015398 0.998889 
0.000937695 0.000238411 0.999471 
0.000937695 0.000238411 0.999471 
0.000937695 0.000238411 0.999471 
0.000937695 0.000238411 0.999471 
-0.000275959 6.42704e-05 0.999994 
-0.000275959 6.42704e-05 0.999994 
-0.000275959 6.42704e-05 0.999994 
-0.000275959 6.42704e-05 0.999994 
-0.00126751 -0.00109807 0.998422 
-0.00126751 -0.00109807 0.998422 
-0.00126751 -0.00109807 0.998422 
-0.00126751 -0.00109807 0.998422 
8.87902e-05 0.000289577 1.00016 
8.87902e-05 0.000289577 1.00016 
8.87902e-05 0.000289577 1.00016 
8.87902e-05 0.000289577 1.00016 
-0.00163824 0.00121517 0.997215 
-0.00163824 0.00121517 0.997215 
-0.00163824 0.00121517 0.997215 
-0.00163824 0.00121517 0.997215 
0.00119796 0.00176007 0.997645 
0.00119796 0.00176007 0.997645 
0.00119796 0.00176007 0.997645 
0.00119796 0.00176007 0.997645 
0.00130776 -0.00054168 0.997666 
0.00130776 -0.00054168 0.997666 
0.00130776 -0.00054168 0.997666 
0.00130776 -0.00054168 0.997666 
0.000378047 0.000714557 0.998477 
0.000378047 0.000714557 0.998477 
0.000378047 0.000714557 0.998477 
0.000378047 0.000714557 0.998477 
0.000548971 0.00188023 0.9982 
0.000548971 0.00188023 0.9982 
0.000548971 0.00188023 0.9982 
0.000548971 0.00188023 0.9982 
5.88487e-05 0.000439847 0.999985 
5.88487e-05 0.000439847 0.999985 
5.88487e-05 0.000439847 0.999985 
5.88487e-05 0.000439847 0.999985 
-0.000756421 -0.000310193 0.999293 
-0.000756421 -0.000310193 0.999293 
-0.000756421 -0.000310193 0.999293 
-0.000756421 -0.000310193 0.999293 
-0.000453993 0.00116904 0.999037 
-0.000453993 0.00116904 0.999037 
-0.000453993 0.00116904 0.999037 
-0.000453993 0.00116904 0.999037 
0.000318186 -0.000129716 1.00013 
0.000318186 -0.000129716 1.00013 
0.000318186 -0.000129716 1.00013 
0.000318186 -0.000129716 1.00013 
0.00122934 -0.00162306 0.998709 
0.00122934 -0.00162306 0.998709 
0.00122934 -0.00162306 0.998709 
0.00122934 -0.00162306 0.998709 
0.000171727 0.000369505 1.00014 
0.000171727 0.000369505 1.00014 
0.000171727 0.000369505 1.00014 
0.000171727 0.000369505 1.00014 
4.8757e-05 0.000188134 0.999928 
4.8757e-05 0.000188134 0.999928 
4.8757e-05 0.000188134 0.999928 
4.8757e-05 0.000188134 0.999928 
0.000170347 0.000371021 1.00014 
0.000170347 0.000371021 1.00014 
0.000170347 0.000371021 1.00014 
0.000170347 0.000371021 1.00014 
-0.00191731 -0.000558833 0.998462 
-0.00191731 -0.000558833 0.998462 
-0.00191731 -0.000558833 0.998462 
-0.00191731 -0.000558833 0.998462 
0.000101423 -0.000751848 1.00028 
0.000101423 -0.000751848 1.00028 
0.000101423 -0.000751848 1.00028 
0.000101423 -0.000751848 1.00028 
-2.29752e-06 5.40474e-05 1.00011 
-2.29752e-06 5.40474e-05 1.00011 
-2.29752e-06 5.40474e-05 1.00011 
-2.29752e-06 5.40474e-05 1.00011 
0.000313481 -0.000195561 1.00003 
0.000313481 -0.000195561 1.00003 
0.000313481 -0.000195561 1.00003 
0.000313481 -0.000195561 1.00003 
-9.15629e-05 -5.8952e-05 1.00013 
-9.15629e-05 -5.8952e-05 1.00013 
-9.15629e-05 -5.8952e-05 1.00013 
-9.15629e-05 -5.8952e-05 1.00013 
0.000209751 0.000361423 0.999897 
0.000209751 0.000361423 0.999897 
0.000209751 0.000361423 0.999897 
0.000209751 0.000361423 0.999897 
0.00092496 0.00209404 0.997359 
0.00092496 0.00209404 0.997359 
0.00092496 0.00209404 0.997359 
0.00092496 0.00209404 0.997359 
-0.000488682 0.00010604 0.999937 
-0.000488682 0.00010604 0.999937 
-0.000488682 0.00010604 0.999937 
-0.000488682 0.00010604 0.999937 
0.000202613 0.000143188 0.992916 
0.000202613 0.000143188 0.992916 
0.000202613 0.000143188 0.992916 
0.000202613 0.000143188 0.992916 
0.000506469 0.000933546 0.999031 
0.000506469 0.000933546 0.999031 
0.000506469 0.000933546 0.999031 
0.000506469 0.000933546 0.999031 
6.17919e-05 -0.000249023 1.00016 
6.17919e-05 -0.000249023 1.00016 
6.17919e-05 -0.000249023 1.00016 
6.17919e-05 -0.000249023 1.00016 
0.000858357 0.00145957 0.998509 
0.000858357 0.00145957 0.998509 
0.000858357 0.00145957 0.998509 
0.000858357 0.00145957 0.998509 
-0.000219365 -0.000356242 1.00015 
-0.000219365 -0.000356242 1.00015 
-0.000219365 -0.000356242 1.00015 
-0.000219365 -0.000356242 1.00015 
-0.00054657 0.00108791 0.999288 
-0.00054657 0.00108791 0.999288 
-0.00054657 0.00108791 0.999288 
-0.00054657 0.00108791 0.999288 
0.000165693 0.000142714 1.00017 
0.000165693 0.000142714 1.00017 
0.000165693 0.000142714 1.00017 
0.000165693 0.000142714 1.00017 
0.000244178 2.62971e-06 1.00011 
0.000244178 2.62971e-06 1.00011 
0.000244178 2.62971e-06 1.00011 
0.000244178 2.62971e-06 1.00011 
-0.000882206 4.82609e-05 0.999348 
-0.000882206 4.82609e-05 0.999348 
-0.000882206 4.82609e-05 0.999348 
-0.000882206 4.82609e-05 0.999348 
-0.0012159 4.94341e-05 0.999113 
-0.0012159 4.94341e-05 0.999113 
-0.0012159 4.94341e-05 0.999113 
-0.0012159 4.94341e-05 0.999113 
0.000122341 -0.000255637 1.00014 
0.000122341 -0.000255637 1.00014 
0.000122341 -0.000255637 1.00014 
0.000122341 -0.000255637 1.00014 
-4.6363e-05 9.96302e-05 1.0001 
-4.6363e-05 9.96302e-05 1.0001 
-4.6363e-05 9.96302e-05 1.0001 
-4.6363e-05 9.96302e-05 1.0001 
4.38033e-05 -0.00104144 0.999483 
4.38033e-05 -0.00104144 0.999483 
4.38033e-05 -0.00104144 0.999483 
4.38033e-05 -0.00104144 0.999483 
-0.00121691 -0.00055535 0.999173 
-0.00121691 -0.00055535 0.999173 
-0.00121691 -0.00055535 0.999173 
-0.00121691 -0.00055535 0.999173 
-0.000586638 0.000377792 0.991283 
-0.000586638 0.000377792 0.991283 
-0.000586638 0.000377792 0.991283 
-0.000586638 0.000377792 0.991283 
-0.000572099 0.00121346 0.998802 
-0.000572099 0.00121346 0.998802 
-0.000572099 0.00121346 0.998802 
-0.000572099 0.00121346 0.998802 
-0.000542117 -0.00038061 0.999561 
-0.000542117 -0.00038061 0.999561 
-0.000542117 -0.00038061 0.999561 
-0.000542117 -0.00038061 0.999561 
0.000497188 -0.000746934 0.997524 
0.000497188 -0.000746934 0.997524 
0.000497188 -0.000746934 0.997524 
0.000497188 -0.000746934 0.997524 
-0.00160674 -0.000376788 0.998683 
-0.00160674 -0.000376788 0.998683 
-0.00160674 -0.000376788 0.998683 
-0.00160674 -0.000376788 0.998683 
0.000397876 0.000852933 0.99982 
0.000397876 0.000852933 0.99982 
0.000397876 0.000852933 0.99982 
0.000397876 0.000852933 0.99982 
0.000407993 0.000828957 0.998401 
0.000407993 0.000828957 0.998401 
0.000407993 0.000828957 0.998401 
0.000407993 0.000828957 0.998401 
-1.27815e-05 6.07337e-05 1.00007 
-1.27815e-05 6.07337e-05 1.00007 
-1.27815e-05 6.07337e-05 1.00007 
-1.27815e-05 6.07337e-05 1.00007 
-0.000325794 0.000349655 0.999782 
-0.000325794 0.000349655 0.999782 
-0.000325794 0.000349655 0.999782 
-0.000325794 0.000349655 0.999782 
0.000202428 -2.19839e-05 1.00016 
0.000202428 -2.19839e-05 1.00016 
0.000202428 -2.19839e-05 1.00016 
0.000202428 -2.19839e-05 1.00016 
-0.00121557 0.000263332 0.9996 
-0.00121557 0.000263332 0.9996 
-0.00121557 0.000263332 0.9996 
-0.00121557 0.000263332 0.9996 
-0.000144483 -7.24962e-05 1.00014 
-0.000144483 -7.24962e-05 1.00014 
-0.000144483 -7.24962e-05 1.00014 
-0.000144483 -7.24962e-05 1.00014 
5.44379e-05 4.41825e-05 1.00008 
5.44379e-05 4.41825e-05 1.00008 
5.44379e-05 4.41825e-05 1.00008 
5.44379e-05 4.41825e-05 1.00008 
-6.79636e-06 1.24344e-05 1.00007 
-6.79636e-06 1.24344e-05 1.00007 
-6.79636e-06 1.24344e-05 1.00007 
-6.79636e-06 1.24344e-05 1.00007 
0.000188554 -0.000177521 1.00016 
0.000188554 -0.000177521 1.00016 
0.000188554 -0.000177521 1.00016 
0.000188554 -0.000177521 1.00016 
0.00049574 0.000161087 0.999905 
0.00049574 0.000161087 0.999905 
0.00049574 0.000161087 0.999905 
0.00049574 0.000161087 0.999905 
0.0011104 -0.00123315 0.998574 
0.0011104 -0.00123315 0.998574 
0.0011104 -0.00123315 0.998574 
0.0011104 -0.00123315 0.998574 
-0.000620079 -0.000639008 0.999788 
-0.000620079 -0.000639008 0.999788 
-0.000620079 -0.000639008 0.999788 
-0.000620079 -0.000639008 0.999788 
-0.000505827 -0.000332579 1.00001 
-0.000505827 -0.000332579 1.00001 
-0.000505827 -0.000332579 1.00001 
-0.000505827 -0.000332579 1.00001 
-0.00013616 0.000788027 0.997981 
-0.00013616 0.000788027 0.997981 
-0.00013616 0.000788027 0.997981 
-0.00013616 0.000788027 0.997981 
-0.000554401 0.00116288 0.999334 
-0.000554401 0.00116288 0.999334 
-0.000554401 0.00116288 0.999334 
-0.000554401 0.00116288 0.999334 
-5.15875e-06 0.00105706 0.999661 
-5.15875e-06 0.00105706 0.999661 
-5.15875e-06 0.00105706 0.999661 
-5.15875e-06 0.00105706 0.999661 
-2.81793e-05 0.000359015 1.00014 
-2.81793e-05 0.000359015 1.00014 
-2.81793e-05 0.000359015 1.00014 
-2.81793e-05 0.000359015 1.00014 
5.90059e-05 3.64445e-06 1.00013 
5.90059e-05 3.64445e-06 1.00013 
5.90059e-05 3.64445e-06 1.00013 
5.90059e-05 3.64445e-06 1.00013 
-0.000147151 -0.00126632 0.99897 
-0.000147151 -0.00126632 0.99897 
-0.000147151 -0.00126632 0.99897 
-0.000147151 -0.00126632 0.99897 
0.000935603 -0.00150517 0.998055 
0.000935603 -0.00150517 0.998055 
0.000935603 -0.00150517 0.998055 
0.000935603 -0.00150517 0.998055 
0.000556207 -0.00107533 0.999569 
0.000556207 -0.00107533 0.999569 
0.000556207 -0.00107533 0.999569 
0.000556207 -0.00107533 0.999569 
-0.00156344 0.000801697 0.996819 
-0.00156344 0.000801697 0.996819 
-0.00156344 0.000801697 0.996819 
-0.00156344 0.000801697 0.996819 
-1.93665e-05 3.40173e-05 1.00006 
-1.93665e-05 3.40173e-05 1.00006 
-1.93665e-05 3.40173e-05 1.00006 
-1.93665e-05 3.40173e-05 1.00006 
0.000492491 0.000682382 0.998111 
0.000492491 0.000682382 0.998111 
0.000492491 0.000682382 0.998111 
0.000492491 0.000682382 0.998111 
0.000260969 0.000809555 0.999811 
0.000260969 0.000809555 0.999811 
0.000260969 0.000809555 0.999811 
0.000260969 0.000809555 0.999811 
-0.00019167 0.000156432 1.00001 
-0.00019167 0.000156432 1.00001 
-0.00019167 0.000156432 1.00001 
-0.00019167 0.000156432 1.00001 
-0.000195867 0.000222777 0.991029 
-0.000195867 0.000222777 0.991029 
-0.000195867 0.000222777 0.991029 
-0.000195867 0.000222777 0.991029 
-0.000172761 0.000120813 1.00012 
-0.000172761 0.000120813 1.00012 
-0.000172761 0.000120813 1.00012 
-0.000172761 0.000120813 1.00012 
-1.90615e-05 2.26124e-05 1.00008 
-1.90615e-05 2.26124e-05 1.00008 
-1.90615e-05 2.26124e-05 1.00008 
-1.90615e-05 2.26124e-05 1.00008 
0.00025518 -0.000191605 0.999881 
0.00025518 -0.000191605 0.999881 
0.00025518 -0.000191605 0.999881 
0.00025518 -0.000191605 0.999881 
0.000212648 -0.000124753 1.00013 
0.000212648 -0.000124753 1.00013 
0.000212648 -0.000124753 1.00013 
0.000212648 -0.000124753 1.00013 
0.00057998 -0.00103324 0.999571 
0.00057998 -0.00103324 0.999571 
0.00057998 -0.00103324 0.999571 
0.00057998 -0.00103324 0.999571 
4.62868e-05 5.33541e-05 1.00019 
4.62868e-05 5.33541e-05 1.00019 
4.62868e-05 5.33541e-05 1.00019 
4.62868e-05 5.33541e-05 1.00019 
8.96943e-05 -3.57641e-05 1.00017 
8.96943e-05 -3.57641e-05 1.00017 
8.96943e-05 -3.57641e-05 1.00017 
8.96943e-05 -3.57641e-05 1.00017 
-3.30766e-05 -0.000177741 0.999922 
-3.30766e-05 -0.000177741 0.999922 
-3.30766e-05 -0.000177741 0.999922 
-3.30766e-05 -0.000177741 0.999922 
3.40303e-06 2.55901e-05 1.00008 
3.40303e-06 2.55901e-05 1.00008 
3.40303e-06 2.55901e-05 1.00008 
3.40303e-06 2.55901e-05 1.00008 
-0.000719012 0.00116421 0.991149 
-0.000719012 0.00116421 0.991149 
-0.000719012 0.00116421 0.991149 
-0.000719012 0.00116421 0.991149 
0.000679381 3.77726e-05 0.999502 
0.000679381 3.77726e-05 0.999502 
0.000679381 3.77726e-05 0.999502 
0.000679381 3.77726e-05 0.999502 
-0.000904813 -0.00138851 0.99856 
-0.000904813 -0.00138851 0.99856 
-0.000904813 -0.00138851 0.99856 
-0.000904813 -0.00138851 0.99856 
0.00183707 0.000457926 0.999089 
0.00183707 0.000457926 0.999089 
0.00183707 0.000457926 0.999089 
0.00183707 0.000457926 0.999089 
0.000956196 -0.00025185 0.998152 
0.000956196 -0.00025185 0.998152 
0.000956196 -0.00025185 0.998152 
0.000956196 -0.00025185 0.998152 
-0.000442036 -0.000790127 0.998456 
-0.000442036 -0.000790127 0.998456 
-0.000442036 -0.000790127 0.998456 
-0.000442036 -0.000790127 0.998456 
-0.000149029 0.000414504 0.991165 
-0.000149029 0.000414504 0.991165 
-0.000149029 0.000414504 0.991165 
-0.000149029 0.000414504 0.991165 
0.000385132 -0.000112256 0.999565 
0.000385132 -0.000112256 0.999565 
0.000385132 -0.000112256 0.999565 
0.000385132 -0.000112256 0.999565 
0.000736609 -0.000151029 0.997756 
0.000736609 -0.000151029 0.997756 
0.000736609 -0.000151029 0.997756 
0.000736609 -0.000151029 0.997756 
-0.000135624 0.000244148 1.00011 
-0.000135624 0.000244148 1.00011 
-0.000135624 0.000244148 1.00011 
-0.000135624 0.000244148 1.00011 
-5.96245e-05 0.000196115 0.994079 
-5.96245e-05 0.000196115 0.994079 
-5.96245e-05 0.000196115 0.994079 
-5.96245e-05 0.000196115 0.994079 
-0.00015527 -8.17895e-05 0.992237 
-0.00015527 -8.17895e-05 0.992237 
-0.00015527 -8.17895e-05 0.992237 
-0.00015527 -8.17895e-05 0.992237 
-0.000355021 -0.00136088 0.999021 
-0.000355021 -0.00136088 0.999021 
-0.000355021 -0.00136088 0.999021 
-0.000355021 -0.00136088 0.999021 
-4.40461e-05 7.88668e-05 1.00014 
-4.40461e-05 7.88668e-05 1.00014 
-4.40461e-05 7.88668e-05 1.00014 
-4.40461e-05 7.88668e-05 1.00014 
-0.00107117 0.000562605 0.999022 
-0.00107117 0.000562605 0.999022 
-0.00107117 0.000562605 0.999022 
-0.00107117 0.000562605 0.999022 
-0.00117018 0.000786 0.99918 
-0.00117018 0.000786 0.99918 
-0.00117018 0.000786 0.99918 
-0.00117018 0.000786 0.99918 
-0.000155275 0.000415014 0.99879 
-0.000155275 0.000415014 0.99879 
-0.000155275 0.000415014 0.99879 
-0.000155275 0.000415014 0.99879 
-0.000977141 -0.00132348 0.998557 
-0.000977141 -0.00132348 0.998557 
-0.000977141 -0.00132348 0.998557 
-0.000977141 -0.00132348 0.998557 
0.00076599 0.000974952 0.999783 
0.00076599 0.000974952 0.999783 
0.00076599 0.000974952 0.999783 
0.00076599 0.000974952 0.999783 
0.000147499 -0.00033333 0.999941 
0.000147499 -0.00033333 0.999941 
0.000147499 -0.00033333 0.999941 
0.000147499 -0.00033333 0.999941 
3.26253e-05 -6.68923e-05 1.00003 
3.26253e-05 -6.68923e-05 1.00003 
3.26253e-05 -6.68923e-05 1.00003 
3.26253e-05 -6.68923e-05 1.00003 
-0.000269965 -0.00022776 0.990243 
-0.000269965 -0.00022776 0.990243 
-0.000269965 -0.00022776 0.990243 
-0.000269965 -0.00022776 0.990243 
-0.000256941 0.000258223 1.0001 
-0.000256941 0.000258223 1.0001 
-0.000256941 0.000258223 1.0001 
-0.000256941 0.000258223 1.0001 
6.32255e-05 -0.000524878 0.99823 
6.32255e-05 -0.000524878 0.99823 
6.32255e-05 -0.000524878 0.99823 
6.32255e-05 -0.000524878 0.99823 
-5.5254e-05 7.3658e-05 1.00013 
-5.5254e-05 7.3658e-05 1.00013 
-5.5254e-05 7.3658e-05 1.00013 
-5.5254e-05 7.3658e-05 1.00013 
5.90674e-05 0.00017407 0.991468 
5.90674e-05 0.00017407 0.991468 
5.90674e-05 0.00017407 0.991468 
5.90674e-05 0.00017407 0.991468 
-0.000716926 -0.000975122 0.999756 
-0.000716926 -0.000975122 0.999756 
-0.000716926 -0.000975122 0.999756 
-0.000716926 -0.000975122 0.999756 
-0.000693932 -0.00102134 0.999756 
-0.000693932 -0.00102134 0.999756 
-0.000693932 -0.00102134 0.999756 
-0.000693932 -0.00102134 0.999756 
1.6361e-05 -3.80144e-05 0.991704 
1.6361e-05 -3.80144e-05 0.991704 
1.6361e-05 -3.80144e-05 0.991704 
1.6361e-05 -3.80144e-05 0.991704 
0.000628539 -0.000792143 0.991804 
0.000628539 -0.000792143 0.991804 
0.000628539 -0.000792143 0.991804 
0.000628539 -0.000792143 0.991804 
0.00050343 -9.62539e-05 0.999742 
0.00050343 -9.62539e-05 0.999742 
0.00050343 -9.62539e-05 0.999742 
0.00050343 -9.62539e-05 0.999742 
0.00145354 0.00103322 0.998359 
0.00145354 0.00103322 0.998359 
0.00145354 0.00103322 0.998359 
0.00145354 0.00103322 0.998359 
-0.000309811 9.32521e-05 1.0001 
-0.000309811 9.32521e-05 1.0001 
-0.000309811 9.32521e-05 1.0001 
-0.000309811 9.32521e-05 1.0001 
-0.000325949 -0.00071957 0.999833 
-0.000325949 -0.00071957 0.999833 
-0.000325949 -0.00071957 0.999833 
-0.000325949 -0.00071957 0.999833 
-9.0207e-05 -0.00100772 0.999584 
-9.0207e-05 -0.00100772 0.999584 
-9.0207e-05 -0.00100772 0.999584 
-9.0207e-05 -0.00100772 0.999584 
0.000190479 2.02396e-06 0.994005 
0.000190479 2.02396e-06 0.994005 
0.000190479 2.02396e-06 0.994005 
0.000190479 2.02396e-06 0.994005 
-1.72868e-05 -0.000339354 0.999883 
-1.72868e-05 -0.000339354 0.999883 
-1.72868e-05 -0.000339354 0.999883 
-1.72868e-05 -0.000339354 0.999883 
0.000681314 0.000954446 0.99977 
0.000681314 0.000954446 0.99977 
0.000681314 0.000954446 0.99977 
0.000681314 0.000954446 0.99977 
-9.77074e-05 1.19285e-05 1.00004 
-9.77074e-05 1.19285e-05 1.00004 
-9.77074e-05 1.19285e-05 1.00004 
-9.77074e-05 1.19285e-05 1.00004 
0.000126345 0.000750409 0.999292 
0.000126345 0.000750409 0.999292 
0.000126345 0.000750409 0.999292 
0.000126345 0.000750409 0.999292 
-0.000682678 0.00111288 0.991628 
-0.000682678 0.00111288 0.991628 
-0.000682678 0.00111288 0.991628 
-0.000682678 0.00111288 0.991628 
0.0011729 -4.14978e-05 0.998283 
0.0011729 -4.14978e-05 0.998283 
0.0011729 -4.14978e-05 0.998283 
0.0011729 -4.14978e-05 0.998283 
9.11775e-06 5.89636e-05 1.00011 
9.11775e-06 5.89636e-05 1.00011 
9.11775e-06 5.89636e-05 1.00011 
9.11775e-06 5.89636e-05 1.00011 
-0.000451926 -3.9324e-06 0.998216 
-0.000451926 -3.9324e-06 0.998216 
-0.000451926 -3.9324e-06 0.998216 
-0.000451926 -3.9324e-06 0.998216 
-0.000497986 -8.06059e-06 0.999979 
-0.000497986 -8.06059e-06 0.999979 
-0.000497986 -8.06059e-06 0.999979 
-0.000497986 -8.06059e-06 0.999979 
-2.78385e-05 1.82051e-05 1.00009 
-2.78385e-05 1.82051e-05 1.00009 
-2.78385e-05 1.82051e-05 1.00009 
-2.78385e-05 1.82051e-05 1.00009 
-0.0011 -0.000170117 0.999096 
-0.0011 -0.000170117 0.999096 
-0.0011 -0.000170117 0.999096 
-0.0011 -0.000170117 0.999096 
2.70135e-05 0.000687122 0.999569 
2.70135e-05 0.000687122 0.999569 
2.70135e-05 0.000687122 0.999569 
2.70135e-05 0.000687122 0.999569 
0.000410572 -0.000254245 1.00009 
0.000410572 -0.000254245 1.00009 
0.000410572 -0.000254245 1.00009 
0.000410572 -0.000254245 1.00009 
-0.000508106 -1.40326e-05 0.999979 
-0.000508106 -1.40326e-05 0.999979 
-0.000508106 -1.40326e-05 0.999979 
-0.000508106 -1.40326e-05 0.999979 
-0.000359952 0.000312841 0.992787 
-0.000359952 0.000312841 0.992787 
-0.000359952 0.000312841 0.992787 
-0.000359952 0.000312841 0.992787 
-0.00123758 -0.000514816 0.999172 
-0.00123758 -0.000514816 0.999172 
-0.00123758 -0.000514816 0.999172 
-0.00123758 -0.000514816 0.999172 
-2.82391e-05 -3.3358e-06 1.00007 
-2.82391e-05 -3.3358e-06 1.00007 
-2.82391e-05 -3.3358e-06 1.00007 
-2.82391e-05 -3.3358e-06 1.00007 
0.000807838 0.00104328 0.990191 
0.000807838 0.00104328 0.990191 
0.000807838 0.00104328 0.990191 
0.000807838 0.00104328 0.990191 
0.000299233 -0.00016062 0.998262 
0.000299233 -0.00016062 0.998262 
0.000299233 -0.00016062 0.998262 
0.000299233 -0.00016062 0.998262 
0.00106688 -0.00117988 0.99105 
0.00106688 -0.00117988 0.99105 
0.00106688 -0.00117988 0.99105 
0.00106688 -0.00117988 0.99105 
9.4196e-05 0.00182129 0.998611 
9.4196e-05 0.00182129 0.998611 
9.4196e-05 0.00182129 0.998611 
9.4196e-05 0.00182129 0.998611 
0.000480079 0.000196765 0.992211 
0.000480079 0.000196765 0.992211 
0.000480079 0.000196765 0.992211 
0.000480079 0.000196765 0.992211 
-0.00103449 -0.00108085 0.990872 
-0.00103449 -0.00108085 0.990872 
-0.00103449 -0.00108085 0.990872 
-0.00103449 -0.00108085 0.990872 
-0.000424293 -0.000123564 0.999986 
-0.000424293 -0.000123564 0.999986 
-0.000424293 -0.000123564 0.999986 
-0.000424293 -0.000123564 0.999986 
7.72326e-05 -0.00028469 1.00005 
7.72326e-05 -0.00028469 1.00005 
7.72326e-05 -0.00028469 1.00005 
7.72326e-05 -0.00028469 1.00005 
-0.000291739 0.000614694 0.999996 
-0.000291739 0.000614694 0.999996 
-0.000291739 0.000614694 0.999996 
-0.000291739 0.000614694 0.999996 
4.0974e-05 2.94876e-05 1.0001 
4.0974e-05 2.94876e-05 1.0001 
4.0974e-05 2.94876e-05 1.0001 
4.0974e-05 2.94876e-05 1.0001 
-3.3991e-05 -5.2478e-05 0.999981 
-3.3991e-05 -5.2478e-05 0.999981 
-3.3991e-05 -5.2478e-05 0.999981 
-3.3991e-05 -5.2478e-05 0.999981 
0.000927333 -0.00118999 0.988468 
0.000927333 -0.00118999 0.988468 
0.000927333 -0.00118999 0.988468 
0.000927333 -0.00118999 0.988468 
0.000143748 -0.000633558 0.991822 
0.000143748 -0.000633558 0.991822 
0.000143748 -0.000633558 0.991822 
0.000143748 -0.000633558 0.991822 
-0.000489873 9.39539e-05 0.998131 
-0.000489873 9.39539e-05 0.998131 
-0.000489873 9.39539e-05 0.998131 
-0.000489873 9.39539e-05 0.998131 
-0.000497128 -0.000562026 0.99798 
-0.000497128 -0.000562026 0.99798 
-0.000497128 -0.000562026 0.99798 
-0.000497128 -0.000562026 0.99798 
-0.000265649 -0.000233941 0.990849 
-0.000265649 -0.000233941 0.990849 
-0.000265649 -0.000233941 0.990849 
-0.000265649 -0.000233941 0.990849 
0.000180313 0.00068244 0.997995 
0.000180313 0.00068244 0.997995 
0.000180313 0.00068244 0.997995 
0.000180313 0.00068244 0.997995 
-0.000331427 -0.000359628 0.999949 
-0.000331427 -0.000359628 0.999949 
-0.000331427 -0.000359628 0.999949 
-0.000331427 -0.000359628 0.999949 
4.62783e-05 0.000794709 0.998715 
4.62783e-05 0.000794709 0.998715 
4.62783e-05 0.000794709 0.998715 
4.62783e-05 0.000794709 0.998715 
-0.000144785 1.24543e-05 0.992136 
-0.000144785 1.24543e-05 0.992136 
-0.000144785 1.24543e-05 0.992136 
-0.000144785 1.24543e-05 0.992136 
-0.00144683 -0.000262339 0.990453 
-0.00144683 -0.000262339 0.990453 
-0.00144683 -0.000262339 0.990453 
-0.00144683 -0.000262339 0.990453 
-1.10575e-05 4.7891e-05 1.00008 
-1.10575e-05 4.7891e-05 1.00008 
-1.10575e-05 4.7891e-05 1.00008 
-1.10575e-05 4.7891e-05 1.00008 
-0.000842935 -0.00123011 0.989203 
-0.000842935 -0.00123011 0.989203 
-0.000842935 -0.00123011 0.989203 
-0.000842935 -0.00123011 0.989203 
-0.000183818 -0.00140661 0.988612 
-0.000183818 -0.00140661 0.988612 
-0.000183818 -0.00140661 0.988612 
-0.000183818 -0.00140661 0.988612 
-0.000187762 0.000394563 0.999736 
-0.000187762 0.000394563 0.999736 
-0.000187762 0.000394563 0.999736 
-0.000187762 0.000394563 0.999736 
-2.2882e-06 2.42539e-05 1.00008 
-2.2882e-06 2.42539e-05 1.00008 
-2.2882e-06 2.42539e-05 1.00008 
-2.2882e-06 2.42539e-05 1.00008 
0.00128709 0.000965353 0.99873 
0.00128709 0.000965353 0.99873 
0.00128709 0.000965353 0.99873 
0.00128709 0.000965353 0.99873 
0.00123141 -0.000519753 0.999191 
0.00123141 -0.000519753 0.999191 
0.00123141 -0.000519753 0.999191 
0.00123141 -0.000519753 0.999191 
8.63062e-05 -0.000303589 0.988945 
8.63062e-05 -0.000303589 0.988945 
8.63062e-05 -0.000303589 0.988945 
8.63062e-05 -0.000303589 0.988945 
-0.000178175 -0.00129638 0.990013 
-0.000178175 -0.00129638 0.990013 
-0.000178175 -0.00129638 0.990013 
-0.000178175 -0.00129638 0.990013 
-8.54506e-05 0.000202205 0.9914 
-8.54506e-05 0.000202205 0.9914 
-8.54506e-05 0.000202205 0.9914 
-8.54506e-05 0.000202205 0.9914 
0.000311155 -0.000472761 0.999718 
0.000311155 -0.000472761 0.999718 
0.000311155 -0.000472761 0.999718 
0.000311155 -0.000472761 0.999718 
7.0319e-05 0.000386968 0.999924 
7.0319e-05 0.000386968 0.999924 
7.0319e-05 0.000386968 0.999924 
7.0319e-05 0.000386968 0.999924 
-0.000972615 -0.0012253 0.998533 
-0.000972615 -0.0012253 0.998533 
-0.000972615 -0.0012253 0.998533 
-0.000972615 -0.0012253 0.998533 
-0.000277537 -0.00136461 0.999003 
-0.000277537 -0.00136461 0.999003 
-0.000277537 -0.00136461 0.999003 
-0.000277537 -0.00136461 0.999003 
0.000219686 0.000423302 0.999992 
0.000219686 0.000423302 0.999992 
0.000219686 0.000423302 0.999992 
0.000219686 0.000423302 0.999992 
-0.000129553 -0.000349548 0.999804 
-0.000129553 -0.000349548 0.999804 
-0.000129553 -0.000349548 0.999804 
-0.000129553 -0.000349548 0.999804 
1.96024e-05 1.75756e-05 1.00008 
1.96024e-05 1.75756e-05 1.00008 
1.96024e-05 1.75756e-05 1.00008 
1.96024e-05 1.75756e-05 1.00008 
-0.000667867 -0.000728966 0.998856 
-0.000667867 -0.000728966 0.998856 
-0.000667867 -0.000728966 0.998856 
-0.000667867 -0.000728966 0.998856 
0.000161778 -0.000179021 0.991787 
0.000161778 -0.000179021 0.991787 
0.000161778 -0.000179021 0.991787 
0.000161778 -0.000179021 0.991787 
-4.34062e-05 2.35358e-05 1.00008 
-4.34062e-05 2.35358e-05 1.00008 
-4.34062e-05 2.35358e-05 1.00008 
-4.34062e-05 2.35358e-05 1.00008 
0.000463167 -0.000201403 0.998907 
0.000463167 -0.000201403 0.998907 
0.000463167 -0.000201403 0.998907 
0.000463167 -0.000201403 0.998907 
-0.00117223 0.00022406 0.991435 
-0.00117223 0.00022406 0.991435 
-0.00117223 0.00022406 0.991435 
-0.00117223 0.00022406 0.991435 
-0.000655585 1.99727e-05 0.99951 
-0.000655585 1.99727e-05 0.99951 
-0.000655585 1.99727e-05 0.99951 
-0.000655585 1.99727e-05 0.99951 
0.000126274 7.63598e-05 1.00005 
0.000126274 7.63598e-05 1.00005 
0.000126274 7.63598e-05 1.00005 
0.000126274 7.63598e-05 1.00005 
0.000148305 -0.000308724 0.989957 
0.000148305 -0.000308724 0.989957 
0.000148305 -0.000308724 0.989957 
0.000148305 -0.000308724 0.989957 
0.000373027 -0.000561361 0.997926 
0.000373027 -0.000561361 0.997926 
0.000373027 -0.000561361 0.997926 
0.000373027 -0.000561361 0.997926 
-0.00119013 -0.00102551 0.991346 
-0.00119013 -0.00102551 0.991346 
-0.00119013 -0.00102551 0.991346 
-0.00119013 -0.00102551 0.991346 
-5.29307e-05 0.000154212 1.00014 
-5.29307e-05 0.000154212 1.00014 
-5.29307e-05 0.000154212 1.00014 
-5.29307e-05 0.000154212 1.00014 
-0.000107421 -0.000519495 1.00003 
-0.000107421 -0.000519495 1.00003 
-0.000107421 -0.000519495 1.00003 
-0.000107421 -0.000519495 1.00003 
-0.000808097 0.00028596 0.999403 
-0.000808097 0.00028596 0.999403 
-0.000808097 0.00028596 0.999403 
-0.000808097 0.00028596 0.999403 
-0.000273009 0.000386043 0.999659 
-0.000273009 0.000386043 0.999659 
-0.000273009 0.000386043 0.999659 
-0.000273009 0.000386043 0.999659 
-0.00107198 0.000822098 0.991532 
-0.00107198 0.000822098 0.991532 
-0.00107198 0.000822098 0.991532 
-0.00107198 0.000822098 0.991532 
-0.00137137 -0.000124859 0.999047 
-0.00137137 -0.000124859 0.999047 
-0.00137137 -0.000124859 0.999047 
-0.00137137 -0.000124859 0.999047 
0.00125624 -0.000266333 0.991405 
0.00125624 -0.000266333 0.991405 
0.00125624 -0.000266333 0.991405 
0.00125624 -0.000266333 0.991405 
0.000195967 0.00026809 1.00016 
0.000195967 0.00026809 1.00016 
0.000195967 0.00026809 1.00016 
0.000195967 0.00026809 1.00016 
-0.000559082 -0.000258145 0.99852 
-0.000559082 -0.000258145 0.99852 
-0.000559082 -0.000258145 0.99852 
-0.000559082 -0.000258145 0.99852 
0.00122527 -0.00106559 0.990099 
0.00122527 -0.00106559 0.990099 
0.00122527 -0.00106559 0.990099 
0.00122527 -0.00106559 0.990099 
-0.000152684 -0.00027281 0.990389 
-0.000152684 -0.00027281 0.990389 
-0.000152684 -0.00027281 0.990389 
-0.000152684 -0.00027281 0.990389 
0.000412115 0.00119841 0.991292 
0.000412115 0.00119841 0.991292 
0.000412115 0.00119841 0.991292 
0.000412115 0.00119841 0.991292 
-4.75619e-05 0.00040273 0.999963 
-4.75619e-05 0.00040273 0.999963 
-4.75619e-05 0.00040273 0.999963 
-4.75619e-05 0.00040273 0.999963 
-0.00023259 -4.28493e-05 0.98899 
-0.00023259 -4.28493e-05 0.98899 
-0.00023259 -4.28493e-05 0.98899 
-0.00023259 -4.28493e-05 0.98899 
-0.000608609 0.0005184 0.999302 
-0.000608609 0.0005184 0.999302 
-0.000608609 0.0005184 0.999302 
-0.000608609 0.0005184 0.999302 
5.66783e-05 2.74943e-05 0.989052 
5.66783e-05 2.74943e-05 0.989052 
5.66783e-05 2.74943e-05 0.989052 
5.66783e-05 2.74943e-05 0.989052 
-3.35366e-05 -1.20391e-05 1.0001 
-3.35366e-05 -1.20391e-05 1.0001 
-3.35366e-05 -1.20391e-05 1.0001 
-3.35366e-05 -1.20391e-05 1.0001 
-0.0013999 -0.000113709 0.999047 
-0.0013999 -0.000113709 0.999047 
-0.0013999 -0.000113709 0.999047 
-0.0013999 -0.000113709 0.999047 
0.00152495 0.000498622 0.991265 
0.00152495 0.000498622 0.991265 
0.00152495 0.000498622 0.991265 
0.00152495 0.000498622 0.991265 
0.000682605 0.000955636 0.999769 
0.000682605 0.000955636 0.999769 
0.000682605 0.000955636 0.999769 
0.000682605 0.000955636 0.999769 
0.000949051 -1.67322e-05 0.999795 
0.000949051 -1.67322e-05 0.999795 
0.000949051 -1.67322e-05 0.999795 
0.000949051 -1.67322e-05 0.999795 
-0.000496904 0.000139611 0.999856 
-0.000496904 0.000139611 0.999856 
-0.000496904 0.000139611 0.999856 
-0.000496904 0.000139611 0.999856 
-0.000475364 -0.000338137 1.00003 
-0.000475364 -0.000338137 1.00003 
-0.000475364 -0.000338137 1.00003 
-0.000475364 -0.000338137 1.00003 
4.57585e-07 -0.000118851 0.989013 
4.57585e-07 -0.000118851 0.989013 
4.57585e-07 -0.000118851 0.989013 
4.57585e-07 -0.000118851 0.989013 
-7.65307e-05 -7.37649e-06 0.990823 
-7.65307e-05 -7.37649e-06 0.990823 
-7.65307e-05 -7.37649e-06 0.990823 
-7.65307e-05 -7.37649e-06 0.990823 
-0.000700514 -0.000217889 0.999933 
-0.000700514 -0.000217889 0.999933 
-0.000700514 -0.000217889 0.999933 
-0.000700514 -0.000217889 0.999933 
-0.000181268 0.000920142 0.999578 
-0.000181268 0.000920142 0.999578 
-0.000181268 0.000920142 0.999578 
-0.000181268 0.000920142 0.999578 
-0.000186931 -0.000266558 1.00014 
-0.000186931 -0.000266558 1.00014 
-0.000186931 -0.000266558 1.00014 
-0.000186931 -0.000266558 1.00014 
-0.000168701 0.00089923 0.999573 
-0.000168701 0.00089923 0.999573 
-0.000168701 0.00089923 0.999573 
-0.000168701 0.00089923 0.999573 
0.000863448 -0.00119343 0.990729 
0.000863448 -0.00119343 0.990729 
0.000863448 -0.00119343 0.990729 
0.000863448 -0.00119343 0.990729 
-0.000709685 0.00101598 0.991005 
-0.000709685 0.00101598 0.991005 
-0.000709685 0.00101598 0.991005 
-0.000709685 0.00101598 0.991005 
0.000142509 -0.000106887 0.99227 
0.000142509 -0.000106887 0.99227 
0.000142509 -0.000106887 0.99227 
0.000142509 -0.000106887 0.99227 
-0.000250115 -0.000155425 1.00011 
-0.000250115 -0.000155425 1.00011 
-0.000250115 -0.000155425 1.00011 
-0.000250115 -0.000155425 1.00011 
0.000506114 -0.000284147 0.999887 
0.000506114 -0.000284147 0.999887 
0.000506114 -0.000284147 0.999887 
0.000506114 -0.000284147 0.999887 
-0.000927123 6.39327e-05 0.999582 
-0.000927123 6.39327e-05 0.999582 
-0.000927123 6.39327e-05 0.999582 
-0.000927123 6.39327e-05 0.999582 
0.000861146 -0.000241309 0.999833 
0.000861146 -0.000241309 0.999833 
0.000861146 -0.000241309 0.999833 
0.000861146 -0.000241309 0.999833 
-0.000122548 -0.000403409 0.991222 
-0.000122548 -0.000403409 0.991222 
-0.000122548 -0.000403409 0.991222 
-0.000122548 -0.000403409 0.991222 
-0.000417715 -0.00034434 1.00004 
-0.000417715 -0.00034434 1.00004 
-0.000417715 -0.00034434 1.00004 
-0.000417715 -0.00034434 1.00004 
-2.40974e-05 -9.56775e-05 0.989624 
-2.40974e-05 -9.56775e-05 0.989624 
-2.40974e-05 -9.56775e-05 0.989624 
-2.40974e-05 -9.56775e-05 0.989624 
0.000257693 -0.000173127 0.991718 
0.000257693 -0.000173127 0.991718 
0.000257693 -0.000173127 0.991718 
0.000257693 -0.000173127 0.991718 
-0.000741291 -0.000978964 0.990805 
-0.000741291 -0.000978964 0.990805 
-0.000741291 -0.000978964 0.990805 
-0.000741291 -0.000978964 0.990805 
0.000633198 -0.00183162 0.990276 
0.000633198 -0.00183162 0.990276 
0.000633198 -0.00183162 0.990276 
0.000633198 -0.00183162 0.990276 
6.13055e-06 6.57951e-05 1.00009 
6.13055e-06 6.57951e-05 1.00009 
6.13055e-06 6.57951e-05 1.00009 
6.13055e-06 6.57951e-05 1.00009 
-0.0003403 -0.000168104 0.999628 
-0.0003403 -0.000168104 0.999628 
-0.0003403 -0.000168104 0.999628 
-0.0003403 -0.000168104 0.999628 
-1.88299e-05 7.64371e-05 1.00014 
-1.88299e-05 7.64371e-05 1.00014 
-1.88299e-05 7.64371e-05 1.00014 
-1.88299e-05 7.64371e-05 1.00014 
-0.000577747 0.000606694 0.999695 
-0.000577747 0.000606694 0.999695 
-0.000577747 0.000606694 0.999695 
-0.000577747 0.000606694 0.999695 
-2.27294e-05 5.66377e-05 1.00011 
-2.27294e-05 5.66377e-05 1.00011 
-2.27294e-05 5.66377e-05 1.00011 
-2.27294e-05 5.66377e-05 1.00011 
-2.89627e-05 0.00012562 1.00008 
-2.89627e-05 0.00012562 1.00008 
-2.89627e-05 0.00012562 1.00008 
-2.89627e-05 0.00012562 1.00008 
-0.000570583 0.000574002 0.999688 
-0.000570583 0.000574002 0.999688 
-0.000570583 0.000574002 0.999688 
-0.000570583 0.000574002 0.999688 
-0.000393898 0.000237247 0.99195 
-0.000393898 0.000237247 0.99195 
-0.000393898 0.000237247 0.99195 
-0.000393898 0.000237247 0.99195 
0.00021789 0.000465337 0.999875 
0.00021789 0.000465337 0.999875 
0.00021789 0.000465337 0.999875 
0.00021789 0.000465337 0.999875 
0.00172608 -0.000719872 0.990795 
0.00172608 -0.000719872 0.990795 
0.00172608 -0.000719872 0.990795 
0.00172608 -0.000719872 0.990795 
0.000120159 0.00020643 0.999474 
0.000120159 0.00020643 0.999474 
0.000120159 0.00020643 0.999474 
0.000120159 0.00020643 0.999474 
0.00144178 0.000350838 0.99053 
0.00144178 0.000350838 0.99053 
0.00144178 0.000350838 0.99053 
0.00144178 0.000350838 0.99053 
-0.00107871 0.00118632 0.990612 
-0.00107871 0.00118632 0.990612 
-0.00107871 0.00118632 0.990612 
-0.00107871 0.00118632 0.990612 
0.000706345 -0.000267722 0.989964 
0.000706345 -0.000267722 0.989964 
0.000706345 -0.000267722 0.989964 
0.000706345 -0.000267722 0.989964 
-0.000224583 -0.00034134 0.999997 
-0.000224583 -0.00034134 0.999997 
-0.000224583 -0.00034134 0.999997 
-0.000224583 -0.00034134 0.999997 
-0.000390766 0.000240139 0.999842 
-0.000390766 0.000240139 0.999842 
-0.000390766 0.000240139 0.999842 
-0.000390766 0.000240139 0.999842 
2.14992e-05 7.49888e-05 1.00011 
2.14992e-05 7.49888e-05 1.00011 
2.14992e-05 7.49888e-05 1.00011 
2.14992e-05 7.49888e-05 1.00011 
-0.000299149 -9.01176e-05 0.999628 
-0.000299149 -9.01176e-05 0.999628 
-0.000299149 -9.01176e-05 0.999628 
-0.000299149 -9.01176e-05 0.999628 
0.00010212 0.00179852 0.990155 
0.00010212 0.00179852 0.990155 
0.00010212 0.00179852 0.990155 
0.00010212 0.00179852 0.990155 
0.00174325 -0.00127531 0.989505 
0.00174325 -0.00127531 0.989505 
0.00174325 -0.00127531 0.989505 
0.00174325 -0.00127531 0.989505 
-0.000397932 0.000242028 0.991134 
-0.000397932 0.000242028 0.991134 
-0.000397932 0.000242028 0.991134 
-0.000397932 0.000242028 0.991134 
-0.00130848 -0.000717559 0.988945 
-0.00130848 -0.000717559 0.988945 
-0.00130848 -0.000717559 0.988945 
-0.00130848 -0.000717559 0.988945 
-0.000569386 0.00114426 0.999335 
-0.000569386 0.00114426 0.999335 
-0.000569386 0.00114426 0.999335 
-0.000569386 0.00114426 0.999335 
0.00014995 0.000142553 0.991335 
0.00014995 0.000142553 0.991335 
0.00014995 0.000142553 0.991335 
0.00014995 0.000142553 0.991335 
-0.00096303 0.000831707 0.992186 
-0.00096303 0.000831707 0.992186 
-0.00096303 0.000831707 0.992186 
-0.00096303 0.000831707 0.992186 
-0.000143295 0.000197554 0.987125 
-0.000143295 0.000197554 0.987125 
-0.000143295 0.000197554 0.987125 
-0.000143295 0.000197554 0.987125 
0.000556877 -9.45715e-05 0.999911 
0.000556877 -9.45715e-05 0.999911 
0.000556877 -9.45715e-05 0.999911 
0.000556877 -9.45715e-05 0.999911 
9.7447e-05 -0.000155873 0.992281 
9.7447e-05 -0.000155873 0.992281 
9.7447e-05 -0.000155873 0.992281 
9.7447e-05 -0.000155873 0.992281 
0.000130469 -0.000235705 0.991863 
0.000130469 -0.000235705 0.991863 
0.000130469 -0.000235705 0.991863 
0.000130469 -0.000235705 0.991863 
0.000179771 -7.5333e-05 0.992071 
0.000179771 -7.5333e-05 0.992071 
0.000179771 -7.5333e-05 0.992071 
0.000179771 -7.5333e-05 0.992071 
0.000468937 -9.60267e-06 0.990344 
0.000468937 -9.60267e-06 0.990344 
0.000468937 -9.60267e-06 0.990344 
0.000468937 -9.60267e-06 0.990344 
0.00116531 -0.000376924 0.999678 
0.00116531 -0.000376924 0.999678 
0.00116531 -0.000376924 0.999678 
0.00116531 -0.000376924 0.999678 
-0.00061499 -0.00326998 0.982947 
-0.00061499 -0.00326998 0.982947 
-0.00061499 -0.00326998 0.982947 
-0.00061499 -0.00326998 0.982947 
-0.00147265 -0.00042022 0.991591 
-0.00147265 -0.00042022 0.991591 
-0.00147265 -0.00042022 0.991591 
-0.00147265 -0.00042022 0.991591 
-0.00072715 0.000939664 0.990899 
-0.00072715 0.000939664 0.990899 
-0.00072715 0.000939664 0.990899 
-0.00072715 0.000939664 0.990899 
3.51988e-05 -4.61084e-05 1.0001 
3.51988e-05 -4.61084e-05 1.0001 
3.51988e-05 -4.61084e-05 1.0001 
3.51988e-05 -4.61084e-05 1.0001 
0.00142842 -0.001613 0.989785 
0.00142842 -0.001613 0.989785 
0.00142842 -0.001613 0.989785 
0.00142842 -0.001613 0.989785 
-5.8797e-05 3.86651e-06 1.00009 
-5.8797e-05 3.86651e-06 1.00009 
-5.8797e-05 3.86651e-06 1.00009 
-5.8797e-05 3.86651e-06 1.00009 
0.00131457 0.00100213 0.990797 
0.00131457 0.00100213 0.990797 
0.00131457 0.00100213 0.990797 
0.00131457 0.00100213 0.990797 
0.00485191 -5.00614e-05 0.984073 
0.00485191 -5.00614e-05 0.984073 
0.00485191 -5.00614e-05 0.984073 
0.00485191 -5.00614e-05 0.984073 
0.000383167 -4.82954e-05 0.999578 
0.000383167 -4.82954e-05 0.999578 
0.000383167 -4.82954e-05 0.999578 
0.000383167 -4.82954e-05 0.999578 
0.000138444 -6.07782e-05 0.990664 
0.000138444 -6.07782e-05 0.990664 
0.000138444 -6.07782e-05 0.990664 
0.000138444 -6.07782e-05 0.990664 
-0.00190419 -0.00160464 0.998393 
-0.00190419 -0.00160464 0.998393 
-0.00190419 -0.00160464 0.998393 
-0.00190419 -0.00160464 0.998393 
1.48213e-05 7.0701e-06 1.00011 
1.48213e-05 7.0701e-06 1.00011 
1.48213e-05 7.0701e-06 1.00011 
1.48213e-05 7.0701e-06 1.00011 
-0.000320892 -0.000849318 0.99018 
-0.000320892 -0.000849318 0.99018 
-0.000320892 -0.000849318 0.99018 
-0.000320892 -0.000849318 0.99018 
0.00139822 0.000161409 0.988413 
0.00139822 0.000161409 0.988413 
0.00139822 0.000161409 0.988413 
0.00139822 0.000161409 0.988413 
-1.86653e-05 -1.18803e-05 1.00006 
-1.86653e-05 -1.18803e-05 1.00006 
-1.86653e-05 -1.18803e-05 1.00006 
-1.86653e-05 -1.18803e-05 1.00006 
-0.000462549 -0.000256487 0.992127 
-0.000462549 -0.000256487 0.992127 
-0.000462549 -0.000256487 0.992127 
-0.000462549 -0.000256487 0.992127 
-0.000233037 0.000339435 0.999667 
-0.000233037 0.000339435 0.999667 
-0.000233037 0.000339435 0.999667 
-0.000233037 0.000339435 0.999667 
-0.000223228 0.000145335 0.999907 
-0.000223228 0.000145335 0.999907 
-0.000223228 0.000145335 0.999907 
-0.000223228 0.000145335 0.999907 
-0.000408859 0.000889077 0.989275 
-0.000408859 0.000889077 0.989275 
-0.000408859 0.000889077 0.989275 
-0.000408859 0.000889077 0.989275 
-0.00166369 -0.00121673 0.989112 
-0.00166369 -0.00121673 0.989112 
-0.00166369 -0.00121673 0.989112 
-0.00166369 -0.00121673 0.989112 
-0.000879259 0.000869513 0.991334 
-0.000879259 0.000869513 0.991334 
-0.000879259 0.000869513 0.991334 
-0.000879259 0.000869513 0.991334 
-2.27897e-05 -5.01051e-05 1.0001 
-2.27897e-05 -5.01051e-05 1.0001 
-2.27897e-05 -5.01051e-05 1.0001 
-2.27897e-05 -5.01051e-05 1.0001 
-0.0001129 -0.000107457 0.99308 
-0.0001129 -0.000107457 0.99308 
-0.0001129 -0.000107457 0.99308 
-0.0001129 -0.000107457 0.99308 
0.000254718 0.000341392 0.999981 
0.000254718 0.000341392 0.999981 
0.000254718 0.000341392 0.999981 
0.000254718 0.000341392 0.999981 
9.12683e-05 7.04762e-05 0.991896 
9.12683e-05 7.04762e-05 0.991896 
9.12683e-05 7.04762e-05 0.991896 
9.12683e-05 7.04762e-05 0.991896 
0.000628637 -0.00153871 0.990165 
0.000628637 -0.00153871 0.990165 
0.000628637 -0.00153871 0.990165 
0.000628637 -0.00153871 0.990165 
6.48734e-05 5.76721e-05 1.00018 
6.48734e-05 5.76721e-05 1.00018 
6.48734e-05 5.76721e-05 1.00018 
6.48734e-05 5.76721e-05 1.00018 
-0.000232304 -0.00149183 0.991432 
-0.000232304 -0.00149183 0.991432 
-0.000232304 -0.00149183 0.991432 
-0.000232304 -0.00149183 0.991432 
3.66682e-05 -1.38017e-05 1.0001 
3.66682e-05 -1.38017e-05 1.0001 
3.66682e-05 -1.38017e-05 1.0001 
3.66682e-05 -1.38017e-05 1.0001 
-1.46681e-05 -1.64805e-05 1.0001 
-1.46681e-05 -1.64805e-05 1.0001 
-1.46681e-05 -1.64805e-05 1.0001 
-1.46681e-05 -1.64805e-05 1.0001 
3.94458e-05 -8.52748e-05 1.00006 
3.94458e-05 -8.52748e-05 1.00006 
3.94458e-05 -8.52748e-05 1.00006 
3.94458e-05 -8.52748e-05 1.00006 
9.20381e-05 -0.000189411 0.991861 
9.20381e-05 -0.000189411 0.991861 
9.20381e-05 -0.000189411 0.991861 
9.20381e-05 -0.000189411 0.991861 
-0.00116848 -0.000477802 0.991327 
-0.00116848 -0.000477802 0.991327 
-0.00116848 -0.000477802 0.991327 
-0.00116848 -0.000477802 0.991327 
6.09631e-06 2.61786e-05 1.00012 
6.09631e-06 2.61786e-05 1.00012 
6.09631e-06 2.61786e-05 1.00012 
6.09631e-06 2.61786e-05 1.00012 
-7.90844e-05 0.000212466 0.993295 
-7.90844e-05 0.000212466 0.993295 
-7.90844e-05 0.000212466 0.993295 
-7.90844e-05 0.000212466 0.993295 
0.00121726 0.00063914 0.988675 
0.00121726 0.00063914 0.988675 
0.00121726 0.00063914 0.988675 
0.00121726 0.00063914 0.988675 
-0.000746511 0.00037263 0.990767 
-0.000746511 0.00037263 0.990767 
-0.000746511 0.00037263 0.990767 
-0.000746511 0.00037263 0.990767 
-0.000309741 -0.00236447 0.987206 
-0.000309741 -0.00236447 0.987206 
-0.000309741 -0.00236447 0.987206 
-0.000309741 -0.00236447 0.987206 
-1.89174e-05 -0.000102902 1.00005 
-1.89174e-05 -0.000102902 1.00005 
-1.89174e-05 -0.000102902 1.00005 
-1.89174e-05 -0.000102902 1.00005 
-0.000154463 0.000191657 0.986002 
-0.000154463 0.000191657 0.986002 
-0.000154463 0.000191657 0.986002 
-0.000154463 0.000191657 0.986002 
0.00121014 0.000977761 0.991276 
0.00121014 0.000977761 0.991276 
0.00121014 0.000977761 0.991276 
0.00121014 0.000977761 0.991276 
-0.0014158 3.92594e-05 0.987548 
-0.0014158 3.92594e-05 0.987548 
-0.0014158 3.92594e-05 0.987548 
-0.0014158 3.92594e-05 0.987548 
0.00427532 -0.00136482 0.984073 
0.00427532 -0.00136482 0.984073 
0.00427532 -0.00136482 0.984073 
0.00427532 -0.00136482 0.984073 
1.50323e-05 1.68571e-05 1.00004 
1.50323e-05 1.68571e-05 1.00004 
1.50323e-05 1.68571e-05 1.00004 
1.50323e-05 1.68571e-05 1.00004 
-0.00151708 0.00145568 0.988231 
-0.00151708 0.00145568 0.988231 
-0.00151708 0.00145568 0.988231 
-0.00151708 0.00145568 0.988231 
0.000538283 0.00156701 0.990584 
0.000538283 0.00156701 0.990584 
0.000538283 0.00156701 0.990584 
0.000538283 0.00156701 0.990584 
4.2468e-05 7.45362e-05 1.00008 
4.2468e-05 7.45362e-05 1.00008 
4.2468e-05 7.45362e-05 1.00008 
4.2468e-05 7.45362e-05 1.00008 
-0.000316674 -8.96518e-05 0.986609 
-0.000316674 -8.96518e-05 0.986609 
-0.000316674 -8.96518e-05 0.986609 
-0.000316674 -8.96518e-05 0.986609 
0.00070313 -0.00235048 0.988362 
0.00070313 -0.00235048 0.988362 
0.00070313 -0.00235048 0.988362 
0.00070313 -0.00235048 0.988362 
2.10809e-05 4.00029e-05 1.0001 
2.10809e-05 4.00029e-05 1.0001 
2.10809e-05 4.00029e-05 1.0001 
2.10809e-05 4.00029e-05 1.0001 
3.31131e-05 3.24307e-05 1.00011 
3.31131e-05 3.24307e-05 1.00011 
3.31131e-05 3.24307e-05 1.00011 
3.31131e-05 3.24307e-05 1.00011 
-1.41424e-05 -0.000304219 0.992681 
-1.41424e-05 -0.000304219 0.992681 
-1.41424e-05 -0.000304219 0.992681 
-1.41424e-05 -0.000304219 0.992681 
1.48587e-05 -9.03022e-08 1.00007 
1.48587e-05 -9.03022e-08 1.00007 
1.48587e-05 -9.03022e-08 1.00007 
1.48587e-05 -9.03022e-08 1.00007 
-7.71083e-06 4.01602e-06 1 
-7.71083e-06 4.01602e-06 1 
-7.71083e-06 4.01602e-06 1 
-7.71083e-06 4.01602e-06 1 
-0.000838933 -0.000184339 0.987125 
-0.000838933 -0.000184339 0.987125 
-0.000838933 -0.000184339 0.987125 
-0.000838933 -0.000184339 0.987125 
0.00104902 -0.000468014 0.99137 
0.00104902 -0.000468014 0.99137 
0.00104902 -0.000468014 0.99137 
0.00104902 -0.000468014 0.99137 
-0.000615913 -8.94481e-05 0.990593 
-0.000615913 -8.94481e-05 0.990593 
-0.000615913 -8.94481e-05 0.990593 
-0.000615913 -8.94481e-05 0.990593 
-4.03614e-05 6.9576e-05 1.00014 
-4.03614e-05 6.9576e-05 1.00014 
-4.03614e-05 6.9576e-05 1.00014 
-4.03614e-05 6.9576e-05 1.00014 
-9.42179e-06 8.62521e-05 1.00016 
-9.42179e-06 8.62521e-05 1.00016 
-9.42179e-06 8.62521e-05 1.00016 
-9.42179e-06 8.62521e-05 1.00016 
4.09926e-06 -2.41386e-05 1.00009 
4.09926e-06 -2.41386e-05 1.00009 
4.09926e-06 -2.41386e-05 1.00009 
4.09926e-06 -2.41386e-05 1.00009 
0.000750396 0.00033575 0.99009 
0.000750396 0.00033575 0.99009 
0.000750396 0.00033575 0.99009 
0.000750396 0.00033575 0.99009 
-0.00082982 0.0051697 0.982204 
-0.00082982 0.0051697 0.982204 
-0.00082982 0.0051697 0.982204 
-0.00082982 0.0051697 0.982204 
-0.00610162 -0.00165997 0.981878 
-0.00610162 -0.00165997 0.981878 
-0.00610162 -0.00165997 0.981878 
-0.00610162 -0.00165997 0.981878 
0.000773446 0.000916758 0.991705 
0.000773446 0.000916758 0.991705 
0.000773446 0.000916758 0.991705 
0.000773446 0.000916758 0.991705 
0.00118566 -0.00075452 0.989031 
0.00118566 -0.00075452 0.989031 
0.00118566 -0.00075452 0.989031 
0.00118566 -0.00075452 0.989031 
1.08404e-05 3.64595e-05 1.00011 
1.08404e-05 3.64595e-05 1.00011 
1.08404e-05 3.64595e-05 1.00011 
1.08404e-05 3.64595e-05 1.00011 
-0.000152606 0.000179614 0.986609 
-0.000152606 0.000179614 0.986609 
-0.000152606 0.000179614 0.986609 
-0.000152606 0.000179614 0.986609 
-9.78447e-05 -0.000704918 0.991848 
-9.78447e-05 -0.000704918 0.991848 
-9.78447e-05 -0.000704918 0.991848 
-9.78447e-05 -0.000704918 0.991848 
-5.79978e-05 3.28519e-05 1.00004 
-5.79978e-05 3.28519e-05 1.00004 
-5.79978e-05 3.28519e-05 1.00004 
-5.79978e-05 3.28519e-05 1.00004 
-0.00096601 0.00101838 0.990221 
-0.00096601 0.00101838 0.990221 
-0.00096601 0.00101838 0.990221 
-0.00096601 0.00101838 0.990221 
-0.000202338 5.98276e-05 0.999662 
-0.000202338 5.98276e-05 0.999662 
-0.000202338 5.98276e-05 0.999662 
-0.000202338 5.98276e-05 0.999662 
-0.000511814 0.00192962 0.987986 
-0.000511814 0.00192962 0.987986 
-0.000511814 0.00192962 0.987986 
-0.000511814 0.00192962 0.987986 
-0.000139531 -6.76161e-05 0.991875 
-0.000139531 -6.76161e-05 0.991875 
-0.000139531 -6.76161e-05 0.991875 
-0.000139531 -6.76161e-05 0.991875 
-0.00160346 0.000717651 0.987471 
-0.00160346 0.000717651 0.987471 
-0.00160346 0.000717651 0.987471 
-0.00160346 0.000717651 0.987471 
0.000768142 -0.00258557 0.982947 
0.000768142 -0.00258557 0.982947 
0.000768142 -0.00258557 0.982947 
0.000768142 -0.00258557 0.982947 
-0.000607065 0.00162197 0.987879 
-0.000607065 0.00162197 0.987879 
-0.000607065 0.00162197 0.987879 
-0.000607065 0.00162197 0.987879 
4.76776e-05 5.84786e-05 1.00019 
4.76776e-05 5.84786e-05 1.00019 
4.76776e-05 5.84786e-05 1.00019 
4.76776e-05 5.84786e-05 1.00019 
0.000165924 -0.000259355 0.986793 
0.000165924 -0.000259355 0.986793 
0.000165924 -0.000259355 0.986793 
0.000165924 -0.000259355 0.986793 
0.00129489 0.000677304 0.986002 
0.00129489 0.000677304 0.986002 
0.00129489 0.000677304 0.986002 
0.00129489 0.000677304 0.986002 
-3.28186e-05 3.16078e-05 1.00007 
-3.28186e-05 3.16078e-05 1.00007 
-3.28186e-05 3.16078e-05 1.00007 
-3.28186e-05 3.16078e-05 1.00007 
0.00112409 0.000893617 0.990496 
0.00112409 0.000893617 0.990496 
0.00112409 0.000893617 0.990496 
0.00112409 0.000893617 0.990496 
0.000283724 -0.000111946 0.991625 
0.000283724 -0.000111946 0.991625 
0.000283724 -0.000111946 0.991625 
0.000283724 -0.000111946 0.991625 
-6.02811e-06 9.09647e-05 1.00011 
-6.02811e-06 9.09647e-05 1.00011 
-6.02811e-06 9.09647e-05 1.00011 
-6.02811e-06 9.09647e-05 1.00011 
-0.000304294 -0.0011446 0.991508 
-0.000304294 -0.0011446 0.991508 
-0.000304294 -0.0011446 0.991508 
-0.000304294 -0.0011446 0.991508 
1.76407e-06 3.16138e-06 1.00008 
1.76407e-06 3.16138e-06 1.00008 
1.76407e-06 3.16138e-06 1.00008 
1.76407e-06 3.16138e-06 1.00008 
-1.87744e-05 0.000164959 0.988975 
-1.87744e-05 0.000164959 0.988975 
-1.87744e-05 0.000164959 0.988975 
-1.87744e-05 0.000164959 0.988975 
7.61726e-05 4.18637e-05 1.00019 
7.61726e-05 4.18637e-05 1.00019 
7.61726e-05 4.18637e-05 1.00019 
7.61726e-05 4.18637e-05 1.00019 
2.68439e-05 2.42064e-05 1.00004 
2.68439e-05 2.42064e-05 1.00004 
2.68439e-05 2.42064e-05 1.00004 
2.68439e-05 2.42064e-05 1.00004 
-0.000988164 -0.000663169 0.991466 
-0.000988164 -0.000663169 0.991466 
-0.000988164 -0.000663169 0.991466 
-0.000988164 -0.000663169 0.991466 
-3.10638e-05 8.71044e-05 1.00014 
-3.10638e-05 8.71044e-05 1.00014 
-3.10638e-05 8.71044e-05 1.00014 
-3.10638e-05 8.71044e-05 1.00014 
-9.27902e-05 0.000356015 0.992727 
-9.27902e-05 0.000356015 0.992727 
-9.27902e-05 0.000356015 0.992727 
-9.27902e-05 0.000356015 0.992727 
2.12853e-06 4.65869e-05 1.0001 
2.12853e-06 4.65869e-05 1.0001 
2.12853e-06 4.65869e-05 1.0001 
2.12853e-06 4.65869e-05 1.0001 
-4.30736e-05 -1.16557e-06 1.00008 
-4.30736e-05 -1.16557e-06 1.00008 
-4.30736e-05 -1.16557e-06 1.00008 
-4.30736e-05 -1.16557e-06 1.00008 
-0.000598667 0.00150928 0.986793 
-0.000598667 0.00150928 0.986793 
-0.000598667 0.00150928 0.986793 
-0.000598667 0.00150928 0.986793 
2.33987e-05 4.89333e-05 1.00008 
2.33987e-05 4.89333e-05 1.00008 
2.33987e-05 4.89333e-05 1.00008 
2.33987e-05 4.89333e-05 1.00008 
9.23854e-05 -0.00366301 0.982947 
9.23854e-05 -0.00366301 0.982947 
9.23854e-05 -0.00366301 0.982947 
9.23854e-05 -0.00366301 0.982947 
2.8706e-05 -3.08244e-05 1.0001 
2.8706e-05 -3.08244e-05 1.0001 
2.8706e-05 -3.08244e-05 1.0001 
2.8706e-05 -3.08244e-05 1.0001 
0.000132899 -0.00128711 0.986609 
0.000132899 -0.00128711 0.986609 
0.000132899 -0.00128711 0.986609 
0.000132899 -0.00128711 0.986609 
7.35987e-06 6.33017e-05 1.00011 
7.35987e-06 6.33017e-05 1.00011 
7.35987e-06 6.33017e-05 1.00011 
7.35987e-06 6.33017e-05 1.00011 
5.64656e-05 2.00365e-05 1.00019 
5.64656e-05 2.00365e-05 1.00019 
5.64656e-05 2.00365e-05 1.00019 
5.64656e-05 2.00365e-05 1.00019 
-3.37859e-05 1.61328e-05 1.00003 
-3.37859e-05 1.61328e-05 1.00003 
-3.37859e-05 1.61328e-05 1.00003 
-3.37859e-05 1.61328e-05 1.00003 
0.000372864 0.00462012 0.982204 
0.000372864 0.00462012 0.982204 
0.000372864 0.00462012 0.982204 
0.000372864 0.00462012 0.982204 
-4.49198e-05 -2.92322e-05 1.00003 
-4.49198e-05 -2.92322e-05 1.00003 
-4.49198e-05 -2.92322e-05 1.00003 
-4.49198e-05 -2.92322e-05 1.00003 
-0.0057868 -0.00105327 0.981878 
-0.0057868 -0.00105327 0.981878 
-0.0057868 -0.00105327 0.981878 
-0.0057868 -0.00105327 0.981878 
-1.37225e-05 1.65483e-05 1.00007 
-1.37225e-05 1.65483e-05 1.00007 
-1.37225e-05 1.65483e-05 1.00007 
-1.37225e-05 1.65483e-05 1.00007 
1.57239e-05 4.08693e-06 0.999982 
1.57239e-05 4.08693e-06 0.999982 
1.57239e-05 4.08693e-06 0.999982 
1.57239e-05 4.08693e-06 0.999982 
2.56317e-07 3.55741e-05 1.00007 
2.56317e-07 3.55741e-05 1.00007 
2.56317e-07 3.55741e-05 1.00007 
2.56317e-07 3.55741e-05 1.00007 
2.28602e-05 3.43766e-05 1.00011 
2.28602e-05 3.43766e-05 1.00011 
2.28602e-05 3.43766e-05 1.00011 
2.28602e-05 3.43766e-05 1.00011 
3.7195e-05 5.25852e-05 1.00011 
3.7195e-05 5.25852e-05 1.00011 
3.7195e-05 5.25852e-05 1.00011 
3.7195e-05 5.25852e-05 1.00011 
3.29985e-05 -2.03395e-05 1.00007 
3.29985e-05 -2.03395e-05 1.00007 
3.29985e-05 -2.03395e-05 1.00007 
3.29985e-05 -2.03395e-05 1.00007 
4.82559e-06 -1.35243e-05 1.00005 
4.82559e-06 -1.35243e-05 1.00005 
4.82559e-06 -1.35243e-05 1.00005 
4.82559e-06 -1.35243e-05 1.00005 
3.40218e-06 -3.94357e-05 1.00008 
3.40218e-06 -3.94357e-05 1.00008 
3.40218e-06 -3.94357e-05 1.00008 
3.40218e-06 -3.94357e-05 1.00008 
-1.8646e-05 3.24929e-06 0.999972 
-1.8646e-05 3.24929e-06 0.999972 
-1.8646e-05 3.24929e-06 0.999972 
-1.8646e-05 3.24929e-06 0.999972 
-8.66506e-05 6.00729e-05 1.00001 
-8.66506e-05 6.00729e-05 1.00001 
-8.66506e-05 6.00729e-05 1.00001 
-8.66506e-05 6.00729e-05 1.00001 
4.83871e-05 6.42514e-05 1.0001 
4.83871e-05 6.42514e-05 1.0001 
4.83871e-05 6.42514e-05 1.0001 
4.83871e-05 6.42514e-05 1.0001 
-7.73446e-06 5.86624e-05 1.00006 
-7.73446e-06 5.86624e-05 1.00006 
-7.73446e-06 5.86624e-05 1.00006 
-7.73446e-06 5.86624e-05 1.00006 
-1.21861e-05 2.47714e-05 1.00003 
-1.21861e-05 2.47714e-05 1.00003 
-1.21861e-05 2.47714e-05 1.00003 
-1.21861e-05 2.47714e-05 1.00003 
8.58173e-05 3.17952e-05 1.00006 
8.58173e-05 3.17952e-05 1.00006 
8.58173e-05 3.17952e-05 1.00006 
8.58173e-05 3.17952e-05 1.00006 
4.97726e-05 -5.12061e-05 1.00012 
4.97726e-05 -5.12061e-05 1.00012 
4.97726e-05 -5.12061e-05 1.00012 
4.97726e-05 -5.12061e-05 1.00012 
-0.000529195 0.000458229 0.986002 
-0.000529195 0.000458229 0.986002 
-0.000529195 0.000458229 0.986002 
-0.000529195 0.000458229 0.986002 
9.04168e-05 -4.42575e-05 1.00007 
9.04168e-05 -4.42575e-05 1.00007 
9.04168e-05 -4.42575e-05 1.00007 
9.04168e-05 -4.42575e-05 1.00007 
0.000771388 -0.00027118 0.987125 
0.000771388 -0.00027118 0.987125 
0.000771388 -0.00027118 0.987125 
0.000771388 -0.00027118 0.987125 
0.000113294 2.28245e-05 1.00008 
0.000113294 2.28245e-05 1.00008 
0.000113294 2.28245e-05 1.00008 
0.000113294 2.28245e-05 1.00008 
-7.99712e-06 -7.87479e-05 1.0001 
-7.99712e-06 -7.87479e-05 1.0001 
-7.99712e-06 -7.87479e-05 1.0001 
-7.99712e-06 -7.87479e-05 1.0001 
4.87453e-05 2.75467e-05 1.00009 
4.87453e-05 2.75467e-05 1.00009 
4.87453e-05 2.75467e-05 1.00009 
4.87453e-05 2.75467e-05 1.00009 
2.22007e-06 -4.22485e-05 1.0001 
2.22007e-06 -4.22485e-05 1.0001 
2.22007e-06 -4.22485e-05 1.0001 
2.22007e-06 -4.22485e-05 1.0001 
5.76845e-06 0.000101483 1.00009 
5.76845e-06 0.000101483 1.00009 
5.76845e-06 0.000101483 1.00009 
5.76845e-06 0.000101483 1.00009 
1.31265e-05 6.64394e-05 1.00004 
1.31265e-05 6.64394e-05 1.00004 
1.31265e-05 6.64394e-05 1.00004 
1.31265e-05 6.64394e-05 1.00004 
2.29018e-05 -2.17826e-05 1.00003 
2.29018e-05 -2.17826e-05 1.00003 
2.29018e-05 -2.17826e-05 1.00003 
2.29018e-05 -2.17826e-05 1.00003 
-6.08021e-05 -4.42753e-05 1.00008 
-6.08021e-05 -4.42753e-05 1.00008 
-6.08021e-05 -4.42753e-05 1.00008 
-6.08021e-05 -4.42753e-05 1.00008 
-0.000164559 -0.000150295 0.992215 
-0.000164559 -0.000150295 0.992215 
-0.000164559 -0.000150295 0.992215 
-0.000164559 -0.000150295 0.992215 
-4.80632e-05 8.24089e-05 1.00014 
-4.80632e-05 8.24089e-05 1.00014 
-4.80632e-05 8.24089e-05 1.00014 
-4.80632e-05 8.24089e-05 1.00014 
-5.48827e-05 3.30399e-05 1.00006 
-5.48827e-05 3.30399e-05 1.00006 
-5.48827e-05 3.30399e-05 1.00006 
-5.48827e-05 3.30399e-05 1.00006 
8.32748e-05 1.00945e-05 1.00016 
8.32748e-05 1.00945e-05 1.00016 
8.32748e-05 1.00945e-05 1.00016 
8.32748e-05 1.00945e-05 1.00016 
-7.86696e-05 -1.20289e-06 1.00009 
-7.86696e-05 -1.20289e-06 1.00009 
-7.86696e-05 -1.20289e-06 1.00009 
-7.86696e-05 -1.20289e-06 1.00009 
-3.00318e-05 0.00565767 0.982204 
-3.00318e-05 0.00565767 0.982204 
-3.00318e-05 0.00565767 0.982204 
-3.00318e-05 0.00565767 0.982204 
4.69513e-05 3.81319e-05 1.00008 
4.69513e-05 3.81319e-05 1.00008 
4.69513e-05 3.81319e-05 1.00008 
4.69513e-05 3.81319e-05 1.00008 
-3.86254e-05 0.000134728 1.00007 
-3.86254e-05 0.000134728 1.00007 
-3.86254e-05 0.000134728 1.00007 
-3.86254e-05 0.000134728 1.00007 
-5.6811e-05 3.34307e-05 1.00004 
-5.6811e-05 3.34307e-05 1.00004 
-5.6811e-05 3.34307e-05 1.00004 
-5.6811e-05 3.34307e-05 1.00004 
-1.31822e-05 -5.24632e-06 1.00003 
-1.31822e-05 -5.24632e-06 1.00003 
-1.31822e-05 -5.24632e-06 1.00003 
-1.31822e-05 -5.24632e-06 1.00003 
0.00466565 0.000272541 0.984073 
0.00466565 0.000272541 0.984073 
0.00466565 0.000272541 0.984073 
0.00466565 0.000272541 0.984073 
2.61964e-05 -1.40755e-05 1.00008 
2.61964e-05 -1.40755e-05 1.00008 
2.61964e-05 -1.40755e-05 1.00008 
2.61964e-05 -1.40755e-05 1.00008 
-0.000343245 -0.00115333 0.986793 
-0.000343245 -0.00115333 0.986793 
-0.000343245 -0.00115333 0.986793 
-0.000343245 -0.00115333 0.986793 
3.60898e-05 -9.59677e-06 1.00005 
3.60898e-05 -9.59677e-06 1.00005 
3.60898e-05 -9.59677e-06 1.00005 
3.60898e-05 -9.59677e-06 1.00005 
2.38159e-05 -7.63609e-06 1.00004 
2.38159e-05 -7.63609e-06 1.00004 
2.38159e-05 -7.63609e-06 1.00004 
2.38159e-05 -7.63609e-06 1.00004 
0.00306889 -0.00179773 0.985943 
0.00306889 -0.00179773 0.985943 
0.00306889 -0.00179773 0.985943 
0.00306889 -0.00179773 0.985943 
-4.49759e-05 4.45155e-07 1.00008 
-4.49759e-05 4.45155e-07 1.00008 
-4.49759e-05 4.45155e-07 1.00008 
-4.49759e-05 4.45155e-07 1.00008 
-0.00632796 -0.00125286 0.981878 
-0.00632796 -0.00125286 0.981878 
-0.00632796 -0.00125286 0.981878 
-0.00632796 -0.00125286 0.981878 
0.00187617 -0.00280119 0.985017 
0.00187617 -0.00280119 0.985017 
0.00187617 -0.00280119 0.985017 
0.00187617 -0.00280119 0.985017 
-1.65996e-05 0.000107511 0.988951 
-1.65996e-05 0.000107511 0.988951 
-1.65996e-05 0.000107511 0.988951 
-1.65996e-05 0.000107511 0.988951 
3.34011e-05 6.84065e-06 0.999985 
3.34011e-05 6.84065e-06 0.999985 
3.34011e-05 6.84065e-06 0.999985 
3.34011e-05 6.84065e-06 0.999985 
3.32766e-05 1.57646e-05 0.999994 
3.32766e-05 1.57646e-05 0.999994 
3.32766e-05 1.57646e-05 0.999994 
3.32766e-05 1.57646e-05 0.999994 
0.000136552 4.77767e-05 1.00009 
0.000136552 4.77767e-05 1.00009 
0.000136552 4.77767e-05 1.00009 
0.000136552 4.77767e-05 1.00009 
4.7216e-05 -9.59743e-05 0.989002 
4.7216e-05 -9.59743e-05 0.989002 
4.7216e-05 -9.59743e-05 0.989002 
4.7216e-05 -9.59743e-05 0.989002 
2.65771e-05 2.51743e-05 1.0001 
2.65771e-05 2.51743e-05 1.0001 
2.65771e-05 2.51743e-05 1.0001 
2.65771e-05 2.51743e-05 1.0001 
-1.67425e-05 -4.5479e-05 1.00008 
-1.67425e-05 -4.5479e-05 1.00008 
-1.67425e-05 -4.5479e-05 1.00008 
-1.67425e-05 -4.5479e-05 1.00008 
1.90464e-05 2.17545e-05 1.00001 
1.90464e-05 2.17545e-05 1.00001 
1.90464e-05 2.17545e-05 1.00001 
1.90464e-05 2.17545e-05 1.00001 
-0.000102964 -0.000155005 0.990697 
-0.000102964 -0.000155005 0.990697 
-0.000102964 -0.000155005 0.990697 
-0.000102964 -0.000155005 0.990697 
4.40807e-06 0.000116885 0.989374 
4.40807e-06 0.000116885 0.989374 
4.40807e-06 0.000116885 0.989374 
4.40807e-06 0.000116885 0.989374 
-0.00151089 -0.000924253 0.990515 
-0.00151089 -0.000924253 0.990515 
-0.00151089 -0.000924253 0.990515 
-0.00151089 -0.000924253 0.990515 
1.36478e-05 9.50168e-05 1.00002 
1.36478e-05 9.50168e-05 1.00002 
1.36478e-05 9.50168e-05 1.00002 
1.36478e-05 9.50168e-05 1.00002 
0.000213397 -0.00038542 0.987352 
0.000213397 -0.00038542 0.987352 
0.000213397 -0.00038542 0.987352 
0.000213397 -0.00038542 0.987352 
0.0015585 0.00367518 0.98482 
0.0015585 0.00367518 0.98482 
0.0015585 0.00367518 0.98482 
0.0015585 0.00367518 0.98482 
0.00039374 1.66166e-05 0.990457 
0.00039374 1.66166e-05 0.990457 
0.00039374 1.66166e-05 0.990457 
0.00039374 1.66166e-05 0.990457 
-0.000389053 -0.000122024 0.990049 
-0.000389053 -0.000122024 0.990049 
-0.000389053 -0.000122024 0.990049 
-0.000389053 -0.000122024 0.990049 
-0.000574132 -0.000836881 0.992559 
-0.000574132 -0.000836881 0.992559 
-0.000574132 -0.000836881 0.992559 
-0.000574132 -0.000836881 0.992559 
0.000393723 0.000434724 0.989628 
0.000393723 0.000434724 0.989628 
0.000393723 0.000434724 0.989628 
0.000393723 0.000434724 0.989628 
7.12819e-05 6.78272e-05 1.00003 
7.12819e-05 6.78272e-05 1.00003 
7.12819e-05 6.78272e-05 1.00003 
7.12819e-05 6.78272e-05 1.00003 
-0.00436186 0.00108346 0.985228 
-0.00436186 0.00108346 0.985228 
-0.00436186 0.00108346 0.985228 
-0.00436186 0.00108346 0.985228 
-0.000217341 3.75561e-05 0.992127 
-0.000217341 3.75561e-05 0.992127 
-0.000217341 3.75561e-05 0.992127 
-0.000217341 3.75561e-05 0.992127 
-0.00139755 0.00065991 0.991328 
-0.00139755 0.00065991 0.991328 
-0.00139755 0.00065991 0.991328 
-0.00139755 0.00065991 0.991328 
0.00015103 0.000216745 0.992902 
0.00015103 0.000216745 0.992902 
0.00015103 0.000216745 0.992902 
0.00015103 0.000216745 0.992902 
1.71545e-05 1.33264e-05 1.00011 
1.71545e-05 1.33264e-05 1.00011 
1.71545e-05 1.33264e-05 1.00011 
1.71545e-05 1.33264e-05 1.00011 
-1.28136e-05 -3.89151e-05 1.00009 
-1.28136e-05 -3.89151e-05 1.00009 
-1.28136e-05 -3.89151e-05 1.00009 
-1.28136e-05 -3.89151e-05 1.00009 
-0.00118771 -0.00346103 0.985627 
-0.00118771 -0.00346103 0.985627 
-0.00118771 -0.00346103 0.985627 
-0.00118771 -0.00346103 0.985627 
-0.000104072 -0.000202647 0.992173 
-0.000104072 -0.000202647 0.992173 
-0.000104072 -0.000202647 0.992173 
-0.000104072 -0.000202647 0.992173 
0.000953015 -0.00136395 0.990554 
0.000953015 -0.00136395 0.990554 
0.000953015 -0.00136395 0.990554 
0.000953015 -0.00136395 0.990554 
0.00163377 0.000861188 0.990463 
0.00163377 0.000861188 0.990463 
0.00163377 0.000861188 0.990463 
0.00163377 0.000861188 0.990463 
-3.89888e-05 0.00196764 0.989212 
-3.89888e-05 0.00196764 0.989212 
-3.89888e-05 0.00196764 0.989212 
-3.89888e-05 0.00196764 0.989212 
8.15449e-05 4.61243e-05 1.00017 
8.15449e-05 4.61243e-05 1.00017 
8.15449e-05 4.61243e-05 1.00017 
8.15449e-05 4.61243e-05 1.00017 
0.000185084 0.000149436 0.99401 
0.000185084 0.000149436 0.99401 
0.000185084 0.000149436 0.99401 
0.000185084 0.000149436 0.99401 
5.63313e-05 -0.000288725 0.991775 
5.63313e-05 -0.000288725 0.991775 
5.63313e-05 -0.000288725 0.991775 
5.63313e-05 -0.000288725 0.991775 
-3.53049e-06 4.19367e-05 0.999991 
-3.53049e-06 4.19367e-05 0.999991 
-3.53049e-06 4.19367e-05 0.999991 
-3.53049e-06 4.19367e-05 0.999991 
0.000322841 -0.000179951 0.992207 
0.000322841 -0.000179951 0.992207 
0.000322841 -0.000179951 0.992207 
0.000322841 -0.000179951 0.992207 
0.000267085 -0.000226552 0.991848 
0.000267085 -0.000226552 0.991848 
0.000267085 -0.000226552 0.991848 
0.000267085 -0.000226552 0.991848 
0.000325081 -0.000102735 0.991466 
0.000325081 -0.000102735 0.991466 
0.000325081 -0.000102735 0.991466 
0.000325081 -0.000102735 0.991466 
2.62974e-05 -0.0019831 0.988101 
2.62974e-05 -0.0019831 0.988101 
2.62974e-05 -0.0019831 0.988101 
2.62974e-05 -0.0019831 0.988101 
0.00163695 -2.85182e-05 0.989757 
0.00163695 -2.85182e-05 0.989757 
0.00163695 -2.85182e-05 0.989757 
0.00163695 -2.85182e-05 0.989757 
-9.86699e-05 -8.94493e-05 0.988765 
-9.86699e-05 -8.94493e-05 0.988765 
-9.86699e-05 -8.94493e-05 0.988765 
-9.86699e-05 -8.94493e-05 0.988765 
0.000733636 0.0011698 0.991285 
0.000733636 0.0011698 0.991285 
0.000733636 0.0011698 0.991285 
0.000733636 0.0011698 0.991285 
-0.000802312 0.00111028 0.990528 
-0.000802312 0.00111028 0.990528 
-0.000802312 0.00111028 0.990528 
-0.000802312 0.00111028 0.990528 
-2.79496e-05 0.00011133 0.991844 
-2.79496e-05 0.00011133 0.991844 
-2.79496e-05 0.00011133 0.991844 
-2.79496e-05 0.00011133 0.991844 
-0.00113531 0.00103362 0.989599 
-0.00113531 0.00103362 0.989599 
-0.00113531 0.00103362 0.989599 
-0.00113531 0.00103362 0.989599 
-0.000386053 6.12775e-05 0.991706 
-0.000386053 6.12775e-05 0.991706 
-0.000386053 6.12775e-05 0.991706 
-0.000386053 6.12775e-05 0.991706 
-0.00210307 -0.000243282 0.988169 
-0.00210307 -0.000243282 0.988169 
-0.00210307 -0.000243282 0.988169 
-0.00210307 -0.000243282 0.988169 
-1.42569e-05 0.000130302 1.00004 
-1.42569e-05 0.000130302 1.00004 
-1.42569e-05 0.000130302 1.00004 
-1.42569e-05 0.000130302 1.00004 
-0.00018671 -0.000110818 0.991372 
-0.00018671 -0.000110818 0.991372 
-0.00018671 -0.000110818 0.991372 
-0.00018671 -0.000110818 0.991372 
-0.0013809 0.00468917 0.984022 
-0.0013809 0.00468917 0.984022 
-0.0013809 0.00468917 0.984022 
-0.0013809 0.00468917 0.984022 
-0.000197507 -0.000342514 0.990779 
-0.000197507 -0.000342514 0.990779 
-0.000197507 -0.000342514 0.990779 
-0.000197507 -0.000342514 0.990779 
-0.00520854 -0.00188109 0.983457 
-0.00520854 -0.00188109 0.983457 
-0.00520854 -0.00188109 0.983457 
-0.00520854 -0.00188109 0.983457 
6.79075e-06 0.000344495 0.98671 
6.79075e-06 0.000344495 0.98671 
6.79075e-06 0.000344495 0.98671 
6.79075e-06 0.000344495 0.98671 
-4.97579e-05 6.46567e-05 0.988782 
-4.97579e-05 6.46567e-05 0.988782 
-4.97579e-05 6.46567e-05 0.988782 
-4.97579e-05 6.46567e-05 0.988782 
-6.29759e-05 0.000168268 0.991385 
-6.29759e-05 0.000168268 0.991385 
-6.29759e-05 0.000168268 0.991385 
-6.29759e-05 0.000168268 0.991385 
1.9445e-05 4.31377e-05 1.0001 
1.9445e-05 4.31377e-05 1.0001 
1.9445e-05 4.31377e-05 1.0001 
1.9445e-05 4.31377e-05 1.0001 
-6.65097e-05 -0.000323009 0.992648 
-6.65097e-05 -0.000323009 0.992648 
-6.65097e-05 -0.000323009 0.992648 
-6.65097e-05 -0.000323009 0.992648 
-0.000106765 0.000301079 0.990963 
-0.000106765 0.000301079 0.990963 
-0.000106765 0.000301079 0.990963 
-0.000106765 0.000301079 0.990963 
-0.000139298 -0.000114336 0.993004 
-0.000139298 -0.000114336 0.993004 
-0.000139298 -0.000114336 0.993004 
-0.000139298 -0.000114336 0.993004 
0.00178628 -0.00162429 0.98911 
0.00178628 -0.00162429 0.98911 
0.00178628 -0.00162429 0.98911 
0.00178628 -0.00162429 0.98911 
0.00196185 0.000257786 0.987294 
0.00196185 0.000257786 0.987294 
0.00196185 0.000257786 0.987294 
0.00196185 0.000257786 0.987294 
0.00381446 0.00107056 0.984156 
0.00381446 0.00107056 0.984156 
0.00381446 0.00107056 0.984156 
0.00381446 0.00107056 0.984156 
-0.00113351 0.00121458 0.990144 
-0.00113351 0.00121458 0.990144 
-0.00113351 0.00121458 0.990144 
-0.00113351 0.00121458 0.990144 
-0.000285844 -0.0029358 0.986396 
-0.000285844 -0.0029358 0.986396 
-0.000285844 -0.0029358 0.986396 
-0.000285844 -0.0029358 0.986396 
-0.0020909 8.67005e-05 0.986831 
-0.0020909 8.67005e-05 0.986831 
-0.0020909 8.67005e-05 0.986831 
-0.0020909 8.67005e-05 0.986831 
-1.35651e-05 -1.19693e-06 0.999996 
-1.35651e-05 -1.19693e-06 0.999996 
-1.35651e-05 -1.19693e-06 0.999996 
-1.35651e-05 -1.19693e-06 0.999996 
0.000206471 0.00234971 0.988228 
0.000206471 0.00234971 0.988228 
0.000206471 0.00234971 0.988228 
0.000206471 0.00234971 0.988228 
-0.00013532 0.000156696 0.993225 
-0.00013532 0.000156696 0.993225 
-0.00013532 0.000156696 0.993225 
-0.00013532 0.000156696 0.993225 
8.35422e-05 -0.000585369 0.988809 
8.35422e-05 -0.000585369 0.988809 
8.35422e-05 -0.000585369 0.988809 
8.35422e-05 -0.000585369 0.988809 
0.00144483 -0.00118253 0.989309 
0.00144483 -0.00118253 0.989309 
0.00144483 -0.00118253 0.989309 
0.00144483 -0.00118253 0.989309 
0.00149302 0.000956444 0.988895 
0.00149302 0.000956444 0.988895 
0.00149302 0.000956444 0.988895 
0.00149302 0.000956444 0.988895 
-0.000519839 -0.000138867 0.990454 
-0.000519839 -0.000138867 0.990454 
-0.000519839 -0.000138867 0.990454 
-0.000519839 -0.000138867 0.990454 
0.00180352 -0.00196308 0.988029 
0.00180352 -0.00196308 0.988029 
0.00180352 -0.00196308 0.988029 
0.00180352 -0.00196308 0.988029 
0.000720027 -0.000171553 0.990066 
0.000720027 -0.000171553 0.990066 
0.000720027 -0.000171553 0.990066 
0.000720027 -0.000171553 0.990066 
-0.00168074 -0.00119697 0.988364 
-0.00168074 -0.00119697 0.988364 
-0.00168074 -0.00119697 0.988364 
-0.00168074 -0.00119697 0.988364 
-0.000622304 -0.00170451 0.988627 
-0.000622304 -0.00170451 0.988627 
-0.000622304 -0.00170451 0.988627 
-0.000622304 -0.00170451 0.988627 
0.000145509 -0.000214445 0.991806 
0.000145509 -0.000214445 0.991806 
0.000145509 -0.000214445 0.991806 
0.000145509 -0.000214445 0.991806 
0.00103929 0.00232217 0.9881 
0.00103929 0.00232217 0.9881 
0.00103929 0.00232217 0.9881 
0.00103929 0.00232217 0.9881 
-0.000122694 4.77728e-05 1.00016 
-0.000122694 4.77728e-05 1.00016 
-0.000122694 4.77728e-05 1.00016 
-0.000122694 4.77728e-05 1.00016 
-0.000133192 4.60448e-05 1.00011 
-0.000133192 4.60448e-05 1.00011 
-0.000133192 4.60448e-05 1.00011 
-0.000133192 4.60448e-05 1.00011 
0.000250972 0.000108593 1.00012 
0.000250972 0.000108593 1.00012 
0.000250972 0.000108593 1.00012 
0.000250972 0.000108593 1.00012 
0.000451027 7.42863e-05 1.00004 
0.000451027 7.42863e-05 1.00004 
0.000451027 7.42863e-05 1.00004 
0.000451027 7.42863e-05 1.00004 
3.60983e-05 0.000327441 1.00013 
3.60983e-05 0.000327441 1.00013 
3.60983e-05 0.000327441 1.00013 
3.60983e-05 0.000327441 1.00013 
0.000100577 0.000260907 1.00016 
0.000100577 0.000260907 1.00016 
0.000100577 0.000260907 1.00016 
0.000100577 0.000260907 1.00016 
-2.43812e-05 0.000363861 1.00017 
-2.43812e-05 0.000363861 1.00017 
-2.43812e-05 0.000363861 1.00017 
-2.43812e-05 0.000363861 1.00017 
-5.86658e-06 0.00013413 1.00014 
-5.86658e-06 0.00013413 1.00014 
-5.86658e-06 0.00013413 1.00014 
-5.86658e-06 0.00013413 1.00014 
6.05667e-05 2.66965e-05 1.00018 
6.05667e-05 2.66965e-05 1.00018 
6.05667e-05 2.66965e-05 1.00018 
6.05667e-05 2.66965e-05 1.00018 
7.35153e-05 3.41302e-05 1.00013 
7.35153e-05 3.41302e-05 1.00013 
7.35153e-05 3.41302e-05 1.00013 
7.35153e-05 3.41302e-05 1.00013 
0.000154161 3.32904e-05 1.00013 
0.000154161 3.32904e-05 1.00013 
0.000154161 3.32904e-05 1.00013 
0.000154161 3.32904e-05 1.00013 
7.28089e-05 1.49234e-05 1.00021 
7.28089e-05 1.49234e-05 1.00021 
7.28089e-05 1.49234e-05 1.00021 
7.28089e-05 1.49234e-05 1.00021 
-0.000664803 0.000773778 0.999252 
-0.000664803 0.000773778 0.999252 
-0.000664803 0.000773778 0.999252 
-0.000664803 0.000773778 0.999252 
-0.000311469 0.000159158 0.999732 
-0.000311469 0.000159158 0.999732 
-0.000311469 0.000159158 0.999732 
-0.000311469 0.000159158 0.999732 
-0.000299237 -0.000136385 1.00012 
-0.000299237 -0.000136385 1.00012 
-0.000299237 -0.000136385 1.00012 
-0.000299237 -0.000136385 1.00012 
-0.000159621 -5.37146e-05 1.00013 
-0.000159621 -5.37146e-05 1.00013 
-0.000159621 -5.37146e-05 1.00013 
-0.000159621 -5.37146e-05 1.00013 
-8.34789e-05 0.000382585 1.00017 
-8.34789e-05 0.000382585 1.00017 
-8.34789e-05 0.000382585 1.00017 
-8.34789e-05 0.000382585 1.00017 
-6.96286e-05 0.000239811 1.00016 
-6.96286e-05 0.000239811 1.00016 
-6.96286e-05 0.000239811 1.00016 
-6.96286e-05 0.000239811 1.00016 
1.10285e-05 -2.28839e-05 1.00009 
1.10285e-05 -2.28839e-05 1.00009 
1.10285e-05 -2.28839e-05 1.00009 
1.10285e-05 -2.28839e-05 1.00009 
-2.03095e-06 -8.16707e-06 1.00011 
-2.03095e-06 -8.16707e-06 1.00011 
-2.03095e-06 -8.16707e-06 1.00011 
-2.03095e-06 -8.16707e-06 1.00011 
-3.23395e-06 3.68536e-05 1.00011 
-3.23395e-06 3.68536e-05 1.00011 
-3.23395e-06 3.68536e-05 1.00011 
-3.23395e-06 3.68536e-05 1.00011 
3.49534e-05 3.99705e-05 1.00009 
3.49534e-05 3.99705e-05 1.00009 
3.49534e-05 3.99705e-05 1.00009 
3.49534e-05 3.99705e-05 1.00009 
-0.000282872 0.00138206 0.998083 
-0.000282872 0.00138206 0.998083 
-0.000282872 0.00138206 0.998083 
-0.000282872 0.00138206 0.998083 
0.000163778 0.00169188 0.998474 
0.000163778 0.00169188 0.998474 
0.000163778 0.00169188 0.998474 
0.000163778 0.00169188 0.998474 
-0.000164852 -0.000317201 1.00007 
-0.000164852 -0.000317201 1.00007 
-0.000164852 -0.000317201 1.00007 
-0.000164852 -0.000317201 1.00007 
-0.000131202 -0.000275081 1.00017 
-0.000131202 -0.000275081 1.00017 
-0.000131202 -0.000275081 1.00017 
-0.000131202 -0.000275081 1.00017 
-1.67858e-05 3.31239e-05 1.0001 
-1.67858e-05 3.31239e-05 1.0001 
-1.67858e-05 3.31239e-05 1.0001 
-1.67858e-05 3.31239e-05 1.0001 
-2.94351e-07 8.50703e-06 1.00011 
-2.94351e-07 8.50703e-06 1.00011 
-2.94351e-07 8.50703e-06 1.00011 
-2.94351e-07 8.50703e-06 1.00011 
4.53846e-05 1.89359e-05 1.00009 
4.53846e-05 1.89359e-05 1.00009 
4.53846e-05 1.89359e-05 1.00009 
4.53846e-05 1.89359e-05 1.00009 
-2.03671e-05 4.91374e-05 1.00011 
-2.03671e-05 4.91374e-05 1.00011 
-2.03671e-05 4.91374e-05 1.00011 
-2.03671e-05 4.91374e-05 1.00011 
1.18061e-05 4.84883e-05 1.0001 
1.18061e-05 4.84883e-05 1.0001 
1.18061e-05 4.84883e-05 1.0001 
1.18061e-05 4.84883e-05 1.0001 
0.000512477 -0.00118631 0.99846 
0.000512477 -0.00118631 0.99846 
0.000512477 -0.00118631 0.99846 
0.000512477 -0.00118631 0.99846 
-0.000238478 -0.00154844 0.997514 
-0.000238478 -0.00154844 0.997514 
-0.000238478 -0.00154844 0.997514 
-0.000238478 -0.00154844 0.997514 
-0.000623361 0.00156292 0.998182 
-0.000623361 0.00156292 0.998182 
-0.000623361 0.00156292 0.998182 
-0.000623361 0.00156292 0.998182 
-9.46333e-05 0.00153661 0.998715 
-9.46333e-05 0.00153661 0.998715 
-9.46333e-05 0.00153661 0.998715 
-9.46333e-05 0.00153661 0.998715 
0.000542741 -0.000763548 0.999231 
0.000542741 -0.000763548 0.999231 
0.000542741 -0.000763548 0.999231 
0.000542741 -0.000763548 0.999231 
0.0013694 0.000198697 0.998198 
0.0013694 0.000198697 0.998198 
0.0013694 0.000198697 0.998198 
0.0013694 0.000198697 0.998198 
0.000237889 9.19678e-05 1.00013 
0.000237889 9.19678e-05 1.00013 
0.000237889 9.19678e-05 1.00013 
0.000237889 9.19678e-05 1.00013 
0.000102708 2.83573e-05 1.00021 
0.000102708 2.83573e-05 1.00021 
0.000102708 2.83573e-05 1.00021 
0.000102708 2.83573e-05 1.00021 
0.000275792 3.95859e-05 0.99963 
0.000275792 3.95859e-05 0.99963 
0.000275792 3.95859e-05 0.99963 
0.000275792 3.95859e-05 0.99963 
-0.00116251 0.000551912 0.998175 
-0.00116251 0.000551912 0.998175 
-0.00116251 0.000551912 0.998175 
-0.00116251 0.000551912 0.998175 
0.00158523 0.00169959 0.988834 
0.00158523 0.00169959 0.988834 
0.00158523 0.00169959 0.988834 
0.00158523 0.00169959 0.988834 
0.000885784 0.00160596 0.98817 
0.000885784 0.00160596 0.98817 
0.000885784 0.00160596 0.98817 
0.000885784 0.00160596 0.98817 
0.000814107 0.000885319 0.998639 
0.000814107 0.000885319 0.998639 
0.000814107 0.000885319 0.998639 
0.000814107 0.000885319 0.998639 
0.000161836 0.000724213 0.999831 
0.000161836 0.000724213 0.999831 
0.000161836 0.000724213 0.999831 
0.000161836 0.000724213 0.999831 
2.65143e-05 8.87212e-05 0.999538 
2.65143e-05 8.87212e-05 0.999538 
2.65143e-05 8.87212e-05 0.999538 
2.65143e-05 8.87212e-05 0.999538 
-4.43732e-05 0.000425917 0.999966 
-4.43732e-05 0.000425917 0.999966 
-4.43732e-05 0.000425917 0.999966 
-4.43732e-05 0.000425917 0.999966 
0.000698552 0.00048664 0.999635 
0.000698552 0.00048664 0.999635 
0.000698552 0.00048664 0.999635 
0.000698552 0.00048664 0.999635 
0.00090511 0.000390199 0.999659 
0.00090511 0.000390199 0.999659 
0.00090511 0.000390199 0.999659 
0.00090511 0.000390199 0.999659 
-5.66729e-05 0.000119793 0.99862 
-5.66729e-05 0.000119793 0.99862 
-5.66729e-05 0.000119793 0.99862 
-5.66729e-05 0.000119793 0.99862 
0.000676965 -0.000542767 0.999552 
0.000676965 -0.000542767 0.999552 
0.000676965 -0.000542767 0.999552 
0.000676965 -0.000542767 0.999552 
0.00118106 -0.000581175 0.999195 
0.00118106 -0.000581175 0.999195 
0.00118106 -0.000581175 0.999195 
0.00118106 -0.000581175 0.999195 
0.000896934 -0.000773808 0.999189 
0.000896934 -0.000773808 0.999189 
0.000896934 -0.000773808 0.999189 
0.000896934 -0.000773808 0.999189 
0.00145853 -0.00067148 0.998742 
0.00145853 -0.00067148 0.998742 
0.00145853 -0.00067148 0.998742 
0.00145853 -0.00067148 0.998742 
0.00143198 -0.000772171 0.99906 
0.00143198 -0.000772171 0.99906 
0.00143198 -0.000772171 0.99906 
0.00143198 -0.000772171 0.99906 
1.29586e-05 2.4117e-05 1.00008 
1.29586e-05 2.4117e-05 1.00008 
1.29586e-05 2.4117e-05 1.00008 
1.29586e-05 2.4117e-05 1.00008 
-1.23775e-05 2.86238e-05 1.00008 
-1.23775e-05 2.86238e-05 1.00008 
-1.23775e-05 2.86238e-05 1.00008 
-1.23775e-05 2.86238e-05 1.00008 
0.00056798 -0.000461229 0.997506 
0.00056798 -0.000461229 0.997506 
0.00056798 -0.000461229 0.997506 
0.00056798 -0.000461229 0.997506 
0.000931829 0.0009431 0.99927 
0.000931829 0.0009431 0.99927 
0.000931829 0.0009431 0.99927 
0.000931829 0.0009431 0.99927 
-0.00099624 1.85392e-05 0.99957 
-0.00099624 1.85392e-05 0.99957 
-0.00099624 1.85392e-05 0.99957 
-0.00099624 1.85392e-05 0.99957 
-0.00118902 0.000247151 0.9996 
-0.00118902 0.000247151 0.9996 
-0.00118902 0.000247151 0.9996 
-0.00118902 0.000247151 0.9996 
1.97614e-05 6.38712e-05 1.0001 
1.97614e-05 6.38712e-05 1.0001 
1.97614e-05 6.38712e-05 1.0001 
1.97614e-05 6.38712e-05 1.0001 
5.99633e-05 4.69302e-05 1.00012 
5.99633e-05 4.69302e-05 1.00012 
5.99633e-05 4.69302e-05 1.00012 
5.99633e-05 4.69302e-05 1.00012 
2.57702e-05 7.17783e-05 1.00015 
2.57702e-05 7.17783e-05 1.00015 
2.57702e-05 7.17783e-05 1.00015 
2.57702e-05 7.17783e-05 1.00015 
-5.92598e-05 6.01053e-05 1.00015 
-5.92598e-05 6.01053e-05 1.00015 
-5.92598e-05 6.01053e-05 1.00015 
-5.92598e-05 6.01053e-05 1.00015 
-6.57759e-05 7.21766e-05 1.00015 
-6.57759e-05 7.21766e-05 1.00015 
-6.57759e-05 7.21766e-05 1.00015 
-6.57759e-05 7.21766e-05 1.00015 
4.57846e-05 7.55668e-05 1.0001 
4.57846e-05 7.55668e-05 1.0001 
4.57846e-05 7.55668e-05 1.0001 
4.57846e-05 7.55668e-05 1.0001 
2.99007e-06 -3.16262e-08 1.00013 
2.99007e-06 -3.16262e-08 1.00013 
2.99007e-06 -3.16262e-08 1.00013 
2.99007e-06 -3.16262e-08 1.00013 
-4.28507e-05 8.31782e-06 1.00011 
-4.28507e-05 8.31782e-06 1.00011 
-4.28507e-05 8.31782e-06 1.00011 
-4.28507e-05 8.31782e-06 1.00011 
1.00101e-05 3.82052e-05 1.00013 
1.00101e-05 3.82052e-05 1.00013 
1.00101e-05 3.82052e-05 1.00013 
1.00101e-05 3.82052e-05 1.00013 
3.43187e-05 -0.000107166 1.00017 
3.43187e-05 -0.000107166 1.00017 
3.43187e-05 -0.000107166 1.00017 
3.43187e-05 -0.000107166 1.00017 
2.17949e-05 5.73599e-05 1.0001 
2.17949e-05 5.73599e-05 1.0001 
2.17949e-05 5.73599e-05 1.0001 
2.17949e-05 5.73599e-05 1.0001 
4.9278e-06 -0.000130448 1.00017 
4.9278e-06 -0.000130448 1.00017 
4.9278e-06 -0.000130448 1.00017 
4.9278e-06 -0.000130448 1.00017 
-1.04117e-05 3.28881e-05 1.00008 
-1.04117e-05 3.28881e-05 1.00008 
-1.04117e-05 3.28881e-05 1.00008 
-1.04117e-05 3.28881e-05 1.00008 
0.000176291 -4.62112e-05 1.00016 
0.000176291 -4.62112e-05 1.00016 
0.000176291 -4.62112e-05 1.00016 
0.000176291 -4.62112e-05 1.00016 
-3.04339e-05 -0.000133948 1.00018 
-3.04339e-05 -0.000133948 1.00018 
-3.04339e-05 -0.000133948 1.00018 
-3.04339e-05 -0.000133948 1.00018 
8.55222e-05 3.97353e-06 1.00012 
8.55222e-05 3.97353e-06 1.00012 
8.55222e-05 3.97353e-06 1.00012 
8.55222e-05 3.97353e-06 1.00012 
-0.000111626 -0.000112181 1.00016 
-0.000111626 -0.000112181 1.00016 
-0.000111626 -0.000112181 1.00016 
-0.000111626 -0.000112181 1.00016 
-0.000160993 -1.83539e-06 1.00016 
-0.000160993 -1.83539e-06 1.00016 
-0.000160993 -1.83539e-06 1.00016 
-0.000160993 -1.83539e-06 1.00016 
-6.32152e-05 0.00020338 1.00018 
-6.32152e-05 0.00020338 1.00018 
-6.32152e-05 0.00020338 1.00018 
-6.32152e-05 0.00020338 1.00018 
-3.56562e-06 3.96609e-05 1.00015 
-3.56562e-06 3.96609e-05 1.00015 
-3.56562e-06 3.96609e-05 1.00015 
-3.56562e-06 3.96609e-05 1.00015 
-9.1166e-05 -8.01399e-05 1.00015 
-9.1166e-05 -8.01399e-05 1.00015 
-9.1166e-05 -8.01399e-05 1.00015 
-9.1166e-05 -8.01399e-05 1.00015 
-6.58116e-05 8.5672e-05 1.00015 
-6.58116e-05 8.5672e-05 1.00015 
-6.58116e-05 8.5672e-05 1.00015 
-6.58116e-05 8.5672e-05 1.00015 
3.36315e-05 3.32003e-05 1.0001 
3.36315e-05 3.32003e-05 1.0001 
3.36315e-05 3.32003e-05 1.0001 
3.36315e-05 3.32003e-05 1.0001 
-0.000729426 0.000148464 0.999997 
-0.000729426 0.000148464 0.999997 
-0.000729426 0.000148464 0.999997 
-0.000729426 0.000148464 0.999997 
-0.000167355 4.88053e-05 1.00017 
-0.000167355 4.88053e-05 1.00017 
-0.000167355 4.88053e-05 1.00017 
-0.000167355 4.88053e-05 1.00017 
5.30925e-05 0.000165203 1.0002 
5.30925e-05 0.000165203 1.0002 
5.30925e-05 0.000165203 1.0002 
5.30925e-05 0.000165203 1.0002 
-5.09667e-05 6.25652e-05 1.00015 
-5.09667e-05 6.25652e-05 1.00015 
-5.09667e-05 6.25652e-05 1.00015 
-5.09667e-05 6.25652e-05 1.00015 
3.00449e-05 1.96745e-05 1.00014 
3.00449e-05 1.96745e-05 1.00014 
3.00449e-05 1.96745e-05 1.00014 
3.00449e-05 1.96745e-05 1.00014 
0.000168211 -5.4953e-05 1.00016 
0.000168211 -5.4953e-05 1.00016 
0.000168211 -5.4953e-05 1.00016 
0.000168211 -5.4953e-05 1.00016 
6.85999e-05 0.000179039 1.00016 
6.85999e-05 0.000179039 1.00016 
6.85999e-05 0.000179039 1.00016 
6.85999e-05 0.000179039 1.00016 
0.000436826 -5.44549e-05 1.00009 
0.000436826 -5.44549e-05 1.00009 
0.000436826 -5.44549e-05 1.00009 
0.000436826 -5.44549e-05 1.00009 
-5.9939e-06 -4.17912e-05 1.00017 
-5.9939e-06 -4.17912e-05 1.00017 
-5.9939e-06 -4.17912e-05 1.00017 
-5.9939e-06 -4.17912e-05 1.00017 
-7.48062e-05 -0.000107535 1.00017 
-7.48062e-05 -0.000107535 1.00017 
-7.48062e-05 -0.000107535 1.00017 
-7.48062e-05 -0.000107535 1.00017 
0.000215258 1.83549e-05 1.00015 
0.000215258 1.83549e-05 1.00015 
0.000215258 1.83549e-05 1.00015 
0.000215258 1.83549e-05 1.00015 
-0.000115356 -7.20913e-05 1.00019 
-0.000115356 -7.20913e-05 1.00019 
-0.000115356 -7.20913e-05 1.00019 
-0.000115356 -7.20913e-05 1.00019 
-0.000494678 2.81915e-05 1.00016 
-0.000494678 2.81915e-05 1.00016 
-0.000494678 2.81915e-05 1.00016 
-0.000494678 2.81915e-05 1.00016 
0.000217569 -1.7283e-05 1.00016 
0.000217569 -1.7283e-05 1.00016 
0.000217569 -1.7283e-05 1.00016 
0.000217569 -1.7283e-05 1.00016 
-4.31197e-05 1.73426e-05 1.0001 
-4.31197e-05 1.73426e-05 1.0001 
-4.31197e-05 1.73426e-05 1.0001 
-4.31197e-05 1.73426e-05 1.0001 
1.7419e-06 4.76721e-05 1.00008 
1.7419e-06 4.76721e-05 1.00008 
1.7419e-06 4.76721e-05 1.00008 
1.7419e-06 4.76721e-05 1.00008 
-8.35092e-05 -1.75426e-05 1.00023 
-8.35092e-05 -1.75426e-05 1.00023 
-8.35092e-05 -1.75426e-05 1.00023 
-8.35092e-05 -1.75426e-05 1.00023 
-0.00015083 0.000980878 0.999554 
-0.00015083 0.000980878 0.999554 
-0.00015083 0.000980878 0.999554 
-0.00015083 0.000980878 0.999554 
0.000150193 0.000112526 1.00017 
0.000150193 0.000112526 1.00017 
0.000150193 0.000112526 1.00017 
0.000150193 0.000112526 1.00017 
-3.10203e-05 3.4558e-05 1.00011 
-3.10203e-05 3.4558e-05 1.00011 
-3.10203e-05 3.4558e-05 1.00011 
-3.10203e-05 3.4558e-05 1.00011 
5.06322e-05 -1.7203e-05 1.00012 
5.06322e-05 -1.7203e-05 1.00012 
5.06322e-05 -1.7203e-05 1.00012 
5.06322e-05 -1.7203e-05 1.00012 
-0.000113664 1.6525e-05 1.00025 
-0.000113664 1.6525e-05 1.00025 
-0.000113664 1.6525e-05 1.00025 
-0.000113664 1.6525e-05 1.00025 
-0.000124012 0.000206774 1.00018 
-0.000124012 0.000206774 1.00018 
-0.000124012 0.000206774 1.00018 
-0.000124012 0.000206774 1.00018 
-4.07413e-05 -1.2428e-06 1.00016 
-4.07413e-05 -1.2428e-06 1.00016 
-4.07413e-05 -1.2428e-06 1.00016 
-4.07413e-05 -1.2428e-06 1.00016 
-5.91295e-05 1.28249e-05 1.00012 
-5.91295e-05 1.28249e-05 1.00012 
-5.91295e-05 1.28249e-05 1.00012 
-5.91295e-05 1.28249e-05 1.00012 
5.00453e-05 0.000184754 1.0002 
5.00453e-05 0.000184754 1.0002 
5.00453e-05 0.000184754 1.0002 
5.00453e-05 0.000184754 1.0002 
-4.91557e-06 0.000119274 1.00012 
-4.91557e-06 0.000119274 1.00012 
-4.91557e-06 0.000119274 1.00012 
-4.91557e-06 0.000119274 1.00012 
4.39824e-05 0.000160382 1.0002 
4.39824e-05 0.000160382 1.0002 
4.39824e-05 0.000160382 1.0002 
4.39824e-05 0.000160382 1.0002 
-1.09e-05 0.000134303 1.00012 
-1.09e-05 0.000134303 1.00012 
-1.09e-05 0.000134303 1.00012 
-1.09e-05 0.000134303 1.00012 
3.41573e-05 0.000185926 1.0002 
3.41573e-05 0.000185926 1.0002 
3.41573e-05 0.000185926 1.0002 
3.41573e-05 0.000185926 1.0002 
9.07619e-05 -7.93677e-07 1.00012 
9.07619e-05 -7.93677e-07 1.00012 
9.07619e-05 -7.93677e-07 1.00012 
9.07619e-05 -7.93677e-07 1.00012 
9.18329e-05 -6.545e-06 1.0001 
9.18329e-05 -6.545e-06 1.0001 
9.18329e-05 -6.545e-06 1.0001 
9.18329e-05 -6.545e-06 1.0001 
3.04011e-05 7.02675e-06 1.00014 
3.04011e-05 7.02675e-06 1.00014 
3.04011e-05 7.02675e-06 1.00014 
3.04011e-05 7.02675e-06 1.00014 
-1.86863e-06 -0.000148446 1.00017 
-1.86863e-06 -0.000148446 1.00017 
-1.86863e-06 -0.000148446 1.00017 
-1.86863e-06 -0.000148446 1.00017 
-0.00014592 0.000189884 1.00018 
-0.00014592 0.000189884 1.00018 
-0.00014592 0.000189884 1.00018 
-0.00014592 0.000189884 1.00018 
-3.8754e-05 0.000197495 1.00017 
-3.8754e-05 0.000197495 1.00017 
-3.8754e-05 0.000197495 1.00017 
-3.8754e-05 0.000197495 1.00017 
-1.5884e-06 8.01137e-06 1.00013 
-1.5884e-06 8.01137e-06 1.00013 
-1.5884e-06 8.01137e-06 1.00013 
-1.5884e-06 8.01137e-06 1.00013 
2.78816e-05 0.000179705 1.0002 
2.78816e-05 0.000179705 1.0002 
2.78816e-05 0.000179705 1.0002 
2.78816e-05 0.000179705 1.0002 
0.000166098 -1.73701e-05 1.00014 
0.000166098 -1.73701e-05 1.00014 
0.000166098 -1.73701e-05 1.00014 
0.000166098 -1.73701e-05 1.00014 
-1.78419e-05 -8.71615e-06 1.00012 
-1.78419e-05 -8.71615e-06 1.00012 
-1.78419e-05 -8.71615e-06 1.00012 
-1.78419e-05 -8.71615e-06 1.00012 
-6.9888e-06 0.000100499 1.00011 
-6.9888e-06 0.000100499 1.00011 
-6.9888e-06 0.000100499 1.00011 
-6.9888e-06 0.000100499 1.00011 
-2.71685e-05 1.33166e-06 1.00012 
-2.71685e-05 1.33166e-06 1.00012 
-2.71685e-05 1.33166e-06 1.00012 
-2.71685e-05 1.33166e-06 1.00012 
-2.63362e-05 -0.000146422 1.00017 
-2.63362e-05 -0.000146422 1.00017 
-2.63362e-05 -0.000146422 1.00017 
-2.63362e-05 -0.000146422 1.00017 
0.000126264 0.00011081 1.00019 
0.000126264 0.00011081 1.00019 
0.000126264 0.00011081 1.00019 
0.000126264 0.00011081 1.00019 
-8.374e-06 -0.00013872 1.00015 
-8.374e-06 -0.00013872 1.00015 
-8.374e-06 -0.00013872 1.00015 
-8.374e-06 -0.00013872 1.00015 
0.00014711 -4.07519e-05 1.00017 
0.00014711 -4.07519e-05 1.00017 
0.00014711 -4.07519e-05 1.00017 
0.00014711 -4.07519e-05 1.00017 
-4.49446e-05 7.71116e-05 1.00016 
-4.49446e-05 7.71116e-05 1.00016 
-4.49446e-05 7.71116e-05 1.00016 
-4.49446e-05 7.71116e-05 1.00016 
-4.35627e-06 0.000171201 1.00012 
-4.35627e-06 0.000171201 1.00012 
-4.35627e-06 0.000171201 1.00012 
-4.35627e-06 0.000171201 1.00012 
5.27525e-05 -1.64178e-05 1.00018 
5.27525e-05 -1.64178e-05 1.00018 
5.27525e-05 -1.64178e-05 1.00018 
5.27525e-05 -1.64178e-05 1.00018 
1.08404e-05 3.52043e-05 1.00013 
1.08404e-05 3.52043e-05 1.00013 
1.08404e-05 3.52043e-05 1.00013 
1.08404e-05 3.52043e-05 1.00013 
-1.80153e-05 0.000463999 1.00015 
-1.80153e-05 0.000463999 1.00015 
-1.80153e-05 0.000463999 1.00015 
-1.80153e-05 0.000463999 1.00015 
2.39996e-05 0.000163611 1.0002 
2.39996e-05 0.000163611 1.0002 
2.39996e-05 0.000163611 1.0002 
2.39996e-05 0.000163611 1.0002 
0.000197878 0.000314344 1.00019 
0.000197878 0.000314344 1.00019 
0.000197878 0.000314344 1.00019 
0.000197878 0.000314344 1.00019 
-3.1372e-05 2.2206e-05 1.00008 
-3.1372e-05 2.2206e-05 1.00008 
-3.1372e-05 2.2206e-05 1.00008 
-3.1372e-05 2.2206e-05 1.00008 
-5.37129e-05 1.96682e-05 1.00016 
-5.37129e-05 1.96682e-05 1.00016 
-5.37129e-05 1.96682e-05 1.00016 
-5.37129e-05 1.96682e-05 1.00016 
-0.000178374 8.41074e-05 1.00017 
-0.000178374 8.41074e-05 1.00017 
-0.000178374 8.41074e-05 1.00017 
-0.000178374 8.41074e-05 1.00017 
-1.1624e-05 1.81528e-05 1.0001 
-1.1624e-05 1.81528e-05 1.0001 
-1.1624e-05 1.81528e-05 1.0001 
-1.1624e-05 1.81528e-05 1.0001 
-0.000475846 2.71112e-05 1.00016 
-0.000475846 2.71112e-05 1.00016 
-0.000475846 2.71112e-05 1.00016 
-0.000475846 2.71112e-05 1.00016 
-2.40072e-05 -1.24587e-05 1.00013 
-2.40072e-05 -1.24587e-05 1.00013 
-2.40072e-05 -1.24587e-05 1.00013 
-2.40072e-05 -1.24587e-05 1.00013 
-4.45314e-05 -4.29771e-05 1.00009 
-4.45314e-05 -4.29771e-05 1.00009 
-4.45314e-05 -4.29771e-05 1.00009 
-4.45314e-05 -4.29771e-05 1.00009 
-3.00009e-05 0.000208335 1.00018 
-3.00009e-05 0.000208335 1.00018 
-3.00009e-05 0.000208335 1.00018 
-3.00009e-05 0.000208335 1.00018 
-8.82136e-05 -0.000112385 1.00016 
-8.82136e-05 -0.000112385 1.00016 
-8.82136e-05 -0.000112385 1.00016 
-8.82136e-05 -0.000112385 1.00016 
2.43619e-06 -0.00010959 1.00017 
2.43619e-06 -0.00010959 1.00017 
2.43619e-06 -0.00010959 1.00017 
2.43619e-06 -0.00010959 1.00017 
-0.000727611 0.000152186 0.999997 
-0.000727611 0.000152186 0.999997 
-0.000727611 0.000152186 0.999997 
-0.000727611 0.000152186 0.999997 
3.04215e-05 3.37148e-05 1.0001 
3.04215e-05 3.37148e-05 1.0001 
3.04215e-05 3.37148e-05 1.0001 
3.04215e-05 3.37148e-05 1.0001 
0.000219036 -7.26884e-06 1.00016 
0.000219036 -7.26884e-06 1.00016 
0.000219036 -7.26884e-06 1.00016 
0.000219036 -7.26884e-06 1.00016 
-4.65544e-05 -0.000112894 1.00012 
-4.65544e-05 -0.000112894 1.00012 
-4.65544e-05 -0.000112894 1.00012 
-4.65544e-05 -0.000112894 1.00012 
6.95082e-05 -2.87804e-05 1.00011 
6.95082e-05 -2.87804e-05 1.00011 
6.95082e-05 -2.87804e-05 1.00011 
6.95082e-05 -2.87804e-05 1.00011 
-0.000159422 0.000439788 1.00013 
-0.000159422 0.000439788 1.00013 
-0.000159422 0.000439788 1.00013 
-0.000159422 0.000439788 1.00013 
-4.17129e-05 1.34297e-05 1.00011 
-4.17129e-05 1.34297e-05 1.00011 
-4.17129e-05 1.34297e-05 1.00011 
-4.17129e-05 1.34297e-05 1.00011 
-3.06838e-05 -0.000506901 1.00012 
-3.06838e-05 -0.000506901 1.00012 
-3.06838e-05 -0.000506901 1.00012 
-3.06838e-05 -0.000506901 1.00012 
6.08755e-05 4.53141e-05 1.00011 
6.08755e-05 4.53141e-05 1.00011 
6.08755e-05 4.53141e-05 1.00011 
6.08755e-05 4.53141e-05 1.00011 
-1.66409e-05 7.45899e-05 1.00012 
-1.66409e-05 7.45899e-05 1.00012 
-1.66409e-05 7.45899e-05 1.00012 
-1.66409e-05 7.45899e-05 1.00012 
-3.44997e-05 3.32966e-05 1.00011 
-3.44997e-05 3.32966e-05 1.00011 
-3.44997e-05 3.32966e-05 1.00011 
-3.44997e-05 3.32966e-05 1.00011 
-8.80344e-05 -0.00011645 1.00017 
-8.80344e-05 -0.00011645 1.00017 
-8.80344e-05 -0.00011645 1.00017 
-8.80344e-05 -0.00011645 1.00017 
4.27246e-05 -2.0791e-05 1.00011 
4.27246e-05 -2.0791e-05 1.00011 
4.27246e-05 -2.0791e-05 1.00011 
4.27246e-05 -2.0791e-05 1.00011 
-3.26989e-05 0.00039649 1.00015 
-3.26989e-05 0.00039649 1.00015 
-3.26989e-05 0.00039649 1.00015 
-3.26989e-05 0.00039649 1.00015 
-0.00238234 0.000718497 0.997925 
-0.00238234 0.000718497 0.997925 
-0.00238234 0.000718497 0.997925 
-0.00238234 0.000718497 0.997925 
-3.91865e-05 5.26625e-05 1.00016 
-3.91865e-05 5.26625e-05 1.00016 
-3.91865e-05 5.26625e-05 1.00016 
-3.91865e-05 5.26625e-05 1.00016 
-0.000648819 -0.000473727 0.999661 
-0.000648819 -0.000473727 0.999661 
-0.000648819 -0.000473727 0.999661 
-0.000648819 -0.000473727 0.999661 
0.000135383 0.000267361 1.00018 
0.000135383 0.000267361 1.00018 
0.000135383 0.000267361 1.00018 
0.000135383 0.000267361 1.00018 
0.000165926 8.87502e-05 1.00014 
0.000165926 8.87502e-05 1.00014 
0.000165926 8.87502e-05 1.00014 
0.000165926 8.87502e-05 1.00014 
-4.3534e-05 0.000194216 1.00017 
-4.3534e-05 0.000194216 1.00017 
-4.3534e-05 0.000194216 1.00017 
-4.3534e-05 0.000194216 1.00017 
-4.54307e-05 0.000154837 1.00013 
-4.54307e-05 0.000154837 1.00013 
-4.54307e-05 0.000154837 1.00013 
-4.54307e-05 0.000154837 1.00013 
-0.000327854 4.62032e-05 1.00009 
-0.000327854 4.62032e-05 1.00009 
-0.000327854 4.62032e-05 1.00009 
-0.000327854 4.62032e-05 1.00009 
-9.2313e-05 -0.000113849 1.00016 
-9.2313e-05 -0.000113849 1.00016 
-9.2313e-05 -0.000113849 1.00016 
-9.2313e-05 -0.000113849 1.00016 
0.000169529 -7.89868e-07 1.00015 
0.000169529 -7.89868e-07 1.00015 
0.000169529 -7.89868e-07 1.00015 
0.000169529 -7.89868e-07 1.00015 
-0.000731481 0.000150021 0.999997 
-0.000731481 0.000150021 0.999997 
-0.000731481 0.000150021 0.999997 
-0.000731481 0.000150021 0.999997 
-8.36684e-05 -0.000107864 1.00017 
-8.36684e-05 -0.000107864 1.00017 
-8.36684e-05 -0.000107864 1.00017 
-8.36684e-05 -0.000107864 1.00017 
8.13464e-06 0.000113613 1.00011 
8.13464e-06 0.000113613 1.00011 
8.13464e-06 0.000113613 1.00011 
8.13464e-06 0.000113613 1.00011 
-2.43403e-06 -5.49209e-05 1.00017 
-2.43403e-06 -5.49209e-05 1.00017 
-2.43403e-06 -5.49209e-05 1.00017 
-2.43403e-06 -5.49209e-05 1.00017 
-2.17675e-06 2.94099e-05 1.00008 
-2.17675e-06 2.94099e-05 1.00008 
-2.17675e-06 2.94099e-05 1.00008 
-2.17675e-06 2.94099e-05 1.00008 
2.47474e-05 -1.09418e-05 1.00011 
2.47474e-05 -1.09418e-05 1.00011 
2.47474e-05 -1.09418e-05 1.00011 
2.47474e-05 -1.09418e-05 1.00011 
-0.000134812 0.000157018 1.00016 
-0.000134812 0.000157018 1.00016 
-0.000134812 0.000157018 1.00016 
-0.000134812 0.000157018 1.00016 
-5.17109e-05 -6.03628e-06 1.00013 
-5.17109e-05 -6.03628e-06 1.00013 
-5.17109e-05 -6.03628e-06 1.00013 
-5.17109e-05 -6.03628e-06 1.00013 
7.71034e-05 -2.41131e-05 1.00012 
7.71034e-05 -2.41131e-05 1.00012 
7.71034e-05 -2.41131e-05 1.00012 
7.71034e-05 -2.41131e-05 1.00012 
-0.000176955 6.76375e-05 1.00015 
-0.000176955 6.76375e-05 1.00015 
-0.000176955 6.76375e-05 1.00015 
-0.000176955 6.76375e-05 1.00015 
5.53598e-05 3.9472e-05 1.00013 
5.53598e-05 3.9472e-05 1.00013 
5.53598e-05 3.9472e-05 1.00013 
5.53598e-05 3.9472e-05 1.00013 
4.46852e-05 3.09501e-05 1.00015 
4.46852e-05 3.09501e-05 1.00015 
4.46852e-05 3.09501e-05 1.00015 
4.46852e-05 3.09501e-05 1.00015 
-6.66904e-05 1.72853e-05 1.00011 
-6.66904e-05 1.72853e-05 1.00011 
-6.66904e-05 1.72853e-05 1.00011 
-6.66904e-05 1.72853e-05 1.00011 
-0.00061794 -0.000182548 1.00009 
-0.00061794 -0.000182548 1.00009 
-0.00061794 -0.000182548 1.00009 
-0.00061794 -0.000182548 1.00009 
-5.73364e-06 5.42003e-05 1.00015 
-5.73364e-06 5.42003e-05 1.00015 
-5.73364e-06 5.42003e-05 1.00015 
-5.73364e-06 5.42003e-05 1.00015 
0.000106543 -1.20281e-05 1.00012 
0.000106543 -1.20281e-05 1.00012 
0.000106543 -1.20281e-05 1.00012 
0.000106543 -1.20281e-05 1.00012 
8.14743e-05 -8.17198e-06 1.00012 
8.14743e-05 -8.17198e-06 1.00012 
8.14743e-05 -8.17198e-06 1.00012 
8.14743e-05 -8.17198e-06 1.00012 
-0.000274853 -8.07667e-05 1.00019 
-0.000274853 -8.07667e-05 1.00019 
-0.000274853 -8.07667e-05 1.00019 
-0.000274853 -8.07667e-05 1.00019 
0.000278448 -3.16456e-05 1.0001 
0.000278448 -3.16456e-05 1.0001 
0.000278448 -3.16456e-05 1.0001 
0.000278448 -3.16456e-05 1.0001 
0.000108235 0.000151791 1.00017 
0.000108235 0.000151791 1.00017 
0.000108235 0.000151791 1.00017 
0.000108235 0.000151791 1.00017 
-0.000117867 8.06603e-06 1.00012 
-0.000117867 8.06603e-06 1.00012 
-0.000117867 8.06603e-06 1.00012 
-0.000117867 8.06603e-06 1.00012 
-1.4071e-05 1.48813e-05 1.00008 
-1.4071e-05 1.48813e-05 1.00008 
-1.4071e-05 1.48813e-05 1.00008 
-1.4071e-05 1.48813e-05 1.00008 
-0.00260926 0.000394674 0.997223 
-0.00260926 0.000394674 0.997223 
-0.00260926 0.000394674 0.997223 
-0.00260926 0.000394674 0.997223 
-0.000783092 -0.000135982 0.999748 
-0.000783092 -0.000135982 0.999748 
-0.000783092 -0.000135982 0.999748 
-0.000783092 -0.000135982 0.999748 
8.22796e-05 -0.000191368 1.00018 
8.22796e-05 -0.000191368 1.00018 
8.22796e-05 -0.000191368 1.00018 
8.22796e-05 -0.000191368 1.00018 
-1.30238e-05 -1.44209e-05 1.00014 
-1.30238e-05 -1.44209e-05 1.00014 
-1.30238e-05 -1.44209e-05 1.00014 
-1.30238e-05 -1.44209e-05 1.00014 
0.000169676 -5.34477e-05 1.00016 
0.000169676 -5.34477e-05 1.00016 
0.000169676 -5.34477e-05 1.00016 
0.000169676 -5.34477e-05 1.00016 
0.000173427 2.94803e-05 1.00013 
0.000173427 2.94803e-05 1.00013 
0.000173427 2.94803e-05 1.00013 
0.000173427 2.94803e-05 1.00013 
-0.000703117 0.000147916 0.999998 
-0.000703117 0.000147916 0.999998 
-0.000703117 0.000147916 0.999998 
-0.000703117 0.000147916 0.999998 
5.50686e-06 1.42935e-05 1.00015 
5.50686e-06 1.42935e-05 1.00015 
5.50686e-06 1.42935e-05 1.00015 
5.50686e-06 1.42935e-05 1.00015 
0.000199195 3.58806e-05 1.00016 
0.000199195 3.58806e-05 1.00016 
0.000199195 3.58806e-05 1.00016 
0.000199195 3.58806e-05 1.00016 
-5.8607e-05 3.55208e-05 1.00011 
-5.8607e-05 3.55208e-05 1.00011 
-5.8607e-05 3.55208e-05 1.00011 
-5.8607e-05 3.55208e-05 1.00011 
-0.000530882 -1.92705e-05 1.00006 
-0.000530882 -1.92705e-05 1.00006 
-0.000530882 -1.92705e-05 1.00006 
-0.000530882 -1.92705e-05 1.00006 
0.00178114 0.000144839 0.998872 
0.00178114 0.000144839 0.998872 
0.00178114 0.000144839 0.998872 
0.00178114 0.000144839 0.998872 
-0.0003225 -0.00029859 1.00014 
-0.0003225 -0.00029859 1.00014 
-0.0003225 -0.00029859 1.00014 
-0.0003225 -0.00029859 1.00014 
4.02392e-05 5.39839e-06 1.0001 
4.02392e-05 5.39839e-06 1.0001 
4.02392e-05 5.39839e-06 1.0001 
4.02392e-05 5.39839e-06 1.0001 
4.8457e-06 -9.75617e-06 1.00013 
4.8457e-06 -9.75617e-06 1.00013 
4.8457e-06 -9.75617e-06 1.00013 
4.8457e-06 -9.75617e-06 1.00013 
0.000260236 3.76389e-05 1.0002 
0.000260236 3.76389e-05 1.0002 
0.000260236 3.76389e-05 1.0002 
0.000260236 3.76389e-05 1.0002 
-6.11917e-05 -5.67198e-05 1.00009 
-6.11917e-05 -5.67198e-05 1.00009 
-6.11917e-05 -5.67198e-05 1.00009 
-6.11917e-05 -5.67198e-05 1.00009 
3.78929e-05 5.55187e-05 1.0001 
3.78929e-05 5.55187e-05 1.0001 
3.78929e-05 5.55187e-05 1.0001 
3.78929e-05 5.55187e-05 1.0001 
0.000125591 -0.000283289 1.00016 
0.000125591 -0.000283289 1.00016 
0.000125591 -0.000283289 1.00016 
0.000125591 -0.000283289 1.00016 
-0.000205155 1.57608e-05 1.00016 
-0.000205155 1.57608e-05 1.00016 
-0.000205155 1.57608e-05 1.00016 
-0.000205155 1.57608e-05 1.00016 
0.000251839 6.76821e-05 1.0002 
0.000251839 6.76821e-05 1.0002 
0.000251839 6.76821e-05 1.0002 
0.000251839 6.76821e-05 1.0002 
-5.9657e-05 0.000411093 1.00015 
-5.9657e-05 0.000411093 1.00015 
-5.9657e-05 0.000411093 1.00015 
-5.9657e-05 0.000411093 1.00015 
0.000118982 3.51526e-05 1.00013 
0.000118982 3.51526e-05 1.00013 
0.000118982 3.51526e-05 1.00013 
0.000118982 3.51526e-05 1.00013 
-0.000469061 3.98461e-05 1.00017 
-0.000469061 3.98461e-05 1.00017 
-0.000469061 3.98461e-05 1.00017 
-0.000469061 3.98461e-05 1.00017 
-1.37386e-05 -0.000118548 1.00014 
-1.37386e-05 -0.000118548 1.00014 
-1.37386e-05 -0.000118548 1.00014 
-1.37386e-05 -0.000118548 1.00014 
9.58264e-05 9.91609e-05 1.00012 
9.58264e-05 9.91609e-05 1.00012 
9.58264e-05 9.91609e-05 1.00012 
9.58264e-05 9.91609e-05 1.00012 
-0.000712611 -0.000370384 0.999808 
-0.000712611 -0.000370384 0.999808 
-0.000712611 -0.000370384 0.999808 
-0.000712611 -0.000370384 0.999808 
-0.000163968 0.000179468 1.00018 
-0.000163968 0.000179468 1.00018 
-0.000163968 0.000179468 1.00018 
-0.000163968 0.000179468 1.00018 
0.000340079 2.39896e-05 1.00002 
0.000340079 2.39896e-05 1.00002 
0.000340079 2.39896e-05 1.00002 
0.000340079 2.39896e-05 1.00002 
-0.000203473 6.51027e-05 1.00015 
-0.000203473 6.51027e-05 1.00015 
-0.000203473 6.51027e-05 1.00015 
-0.000203473 6.51027e-05 1.00015 
-5.97261e-05 1.7355e-05 1.00021 
-5.97261e-05 1.7355e-05 1.00021 
-5.97261e-05 1.7355e-05 1.00021 
-5.97261e-05 1.7355e-05 1.00021 
-6.14881e-05 0.00022792 1.00018 
-6.14881e-05 0.00022792 1.00018 
-6.14881e-05 0.00022792 1.00018 
-6.14881e-05 0.00022792 1.00018 
0.000111686 4.65183e-05 1.00013 
0.000111686 4.65183e-05 1.00013 
0.000111686 4.65183e-05 1.00013 
0.000111686 4.65183e-05 1.00013 
0.000191551 -1.75554e-06 1.00016 
0.000191551 -1.75554e-06 1.00016 
0.000191551 -1.75554e-06 1.00016 
0.000191551 -1.75554e-06 1.00016 
0.00049817 -0.000492433 0.99971 
0.00049817 -0.000492433 0.99971 
0.00049817 -0.000492433 0.99971 
0.00049817 -0.000492433 0.99971 
-3.36229e-06 3.46597e-05 1.00008 
-3.36229e-06 3.46597e-05 1.00008 
-3.36229e-06 3.46597e-05 1.00008 
-3.36229e-06 3.46597e-05 1.00008 
0.000157355 -6.00132e-05 1.00017 
0.000157355 -6.00132e-05 1.00017 
0.000157355 -6.00132e-05 1.00017 
0.000157355 -6.00132e-05 1.00017 
-1.75606e-06 3.28157e-05 1.00011 
-1.75606e-06 3.28157e-05 1.00011 
-1.75606e-06 3.28157e-05 1.00011 
-1.75606e-06 3.28157e-05 1.00011 
1.362e-05 0.000343732 1.00015 
1.362e-05 0.000343732 1.00015 
1.362e-05 0.000343732 1.00015 
1.362e-05 0.000343732 1.00015 
-0.000174334 0.000176476 1.00004 
-0.000174334 0.000176476 1.00004 
-0.000174334 0.000176476 1.00004 
-0.000174334 0.000176476 1.00004 
6.73376e-05 0.000168253 0.999236 
6.73376e-05 0.000168253 0.999236 
6.73376e-05 0.000168253 0.999236 
6.73376e-05 0.000168253 0.999236 
2.67318e-05 7.89053e-05 1.00015 
2.67318e-05 7.89053e-05 1.00015 
2.67318e-05 7.89053e-05 1.00015 
2.67318e-05 7.89053e-05 1.00015 
-0.000256755 -3.76989e-05 1.00016 
-0.000256755 -3.76989e-05 1.00016 
-0.000256755 -3.76989e-05 1.00016 
-0.000256755 -3.76989e-05 1.00016 
3.16688e-05 -0.000153184 1.00015 
3.16688e-05 -0.000153184 1.00015 
3.16688e-05 -0.000153184 1.00015 
3.16688e-05 -0.000153184 1.00015 
0.000115791 8.21583e-05 1.00014 
0.000115791 8.21583e-05 1.00014 
0.000115791 8.21583e-05 1.00014 
0.000115791 8.21583e-05 1.00014 
-2.50484e-05 9.23011e-06 1.00016 
-2.50484e-05 9.23011e-06 1.00016 
-2.50484e-05 9.23011e-06 1.00016 
-2.50484e-05 9.23011e-06 1.00016 
-0.000189021 4.73167e-05 1.00017 
-0.000189021 4.73167e-05 1.00017 
-0.000189021 4.73167e-05 1.00017 
-0.000189021 4.73167e-05 1.00017 
-0.000621723 -0.000190217 1.0001 
-0.000621723 -0.000190217 1.0001 
-0.000621723 -0.000190217 1.0001 
-0.000621723 -0.000190217 1.0001 
-0.00095856 5.79041e-05 0.999672 
-0.00095856 5.79041e-05 0.999672 
-0.00095856 5.79041e-05 0.999672 
-0.00095856 5.79041e-05 0.999672 
0.000157184 -7.65828e-06 1.00013 
0.000157184 -7.65828e-06 1.00013 
0.000157184 -7.65828e-06 1.00013 
0.000157184 -7.65828e-06 1.00013 
-0.00045201 -0.000222092 1.00008 
-0.00045201 -0.000222092 1.00008 
-0.00045201 -0.000222092 1.00008 
-0.00045201 -0.000222092 1.00008 
-0.000287928 1.3449e-05 1.00016 
-0.000287928 1.3449e-05 1.00016 
-0.000287928 1.3449e-05 1.00016 
-0.000287928 1.3449e-05 1.00016 
3.46264e-05 0.000193359 1.00013 
3.46264e-05 0.000193359 1.00013 
3.46264e-05 0.000193359 1.00013 
3.46264e-05 0.000193359 1.00013 
0.00102484 0.000721686 0.998526 
0.00102484 0.000721686 0.998526 
0.00102484 0.000721686 0.998526 
0.00102484 0.000721686 0.998526 
3.1648e-05 -0.000142784 1.00017 
3.1648e-05 -0.000142784 1.00017 
3.1648e-05 -0.000142784 1.00017 
3.1648e-05 -0.000142784 1.00017 
0.00114489 -0.000543204 0.998197 
0.00114489 -0.000543204 0.998197 
0.00114489 -0.000543204 0.998197 
0.00114489 -0.000543204 0.998197 
6.93835e-05 -3.12524e-05 1.00011 
6.93835e-05 -3.12524e-05 1.00011 
6.93835e-05 -3.12524e-05 1.00011 
6.93835e-05 -3.12524e-05 1.00011 
-0.000633425 -0.000164103 1.0001 
-0.000633425 -0.000164103 1.0001 
-0.000633425 -0.000164103 1.0001 
-0.000633425 -0.000164103 1.0001 
-0.000245946 0.0014087 0.998159 
-0.000245946 0.0014087 0.998159 
-0.000245946 0.0014087 0.998159 
-0.000245946 0.0014087 0.998159 
-2.65445e-06 1.2213e-05 1.00011 
-2.65445e-06 1.2213e-05 1.00011 
-2.65445e-06 1.2213e-05 1.00011 
-2.65445e-06 1.2213e-05 1.00011 
6.88634e-05 -8.33698e-05 1.00011 
6.88634e-05 -8.33698e-05 1.00011 
6.88634e-05 -8.33698e-05 1.00011 
6.88634e-05 -8.33698e-05 1.00011 
-1.34213e-05 1.27505e-05 1.00008 
-1.34213e-05 1.27505e-05 1.00008 
-1.34213e-05 1.27505e-05 1.00008 
-1.34213e-05 1.27505e-05 1.00008 
0.0012094 0.00222626 0.997746 
0.0012094 0.00222626 0.997746 
0.0012094 0.00222626 0.997746 
0.0012094 0.00222626 0.997746 
3.51162e-05 0.0010373 0.999629 
3.51162e-05 0.0010373 0.999629 
3.51162e-05 0.0010373 0.999629 
3.51162e-05 0.0010373 0.999629 
-0.000154904 0.000435598 1.00013 
-0.000154904 0.000435598 1.00013 
-0.000154904 0.000435598 1.00013 
-0.000154904 0.000435598 1.00013 
-3.20614e-05 0.00182414 0.998102 
-3.20614e-05 0.00182414 0.998102 
-3.20614e-05 0.00182414 0.998102 
-3.20614e-05 0.00182414 0.998102 
-8.58856e-06 0.000249641 1.00013 
-8.58856e-06 0.000249641 1.00013 
-8.58856e-06 0.000249641 1.00013 
-8.58856e-06 0.000249641 1.00013 
4.73498e-05 3.67861e-06 1.00009 
4.73498e-05 3.67861e-06 1.00009 
4.73498e-05 3.67861e-06 1.00009 
4.73498e-05 3.67861e-06 1.00009 
-0.00025428 -0.000118149 1.00015 
-0.00025428 -0.000118149 1.00015 
-0.00025428 -0.000118149 1.00015 
-0.00025428 -0.000118149 1.00015 
0.000146942 -0.000930097 0.999244 
0.000146942 -0.000930097 0.999244 
0.000146942 -0.000930097 0.999244 
0.000146942 -0.000930097 0.999244 
-4.05178e-05 2.63833e-06 1.00014 
-4.05178e-05 2.63833e-06 1.00014 
-4.05178e-05 2.63833e-06 1.00014 
-4.05178e-05 2.63833e-06 1.00014 
-1.27027e-05 2.58192e-05 1.00011 
-1.27027e-05 2.58192e-05 1.00011 
-1.27027e-05 2.58192e-05 1.00011 
-1.27027e-05 2.58192e-05 1.00011 
0.000140331 -0.00027559 1.00013 
0.000140331 -0.00027559 1.00013 
0.000140331 -0.00027559 1.00013 
0.000140331 -0.00027559 1.00013 
-1.58701e-05 0.000159231 1.00012 
-1.58701e-05 0.000159231 1.00012 
-1.58701e-05 0.000159231 1.00012 
-1.58701e-05 0.000159231 1.00012 
0.00023225 7.13515e-05 1.0002 
0.00023225 7.13515e-05 1.0002 
0.00023225 7.13515e-05 1.0002 
0.00023225 7.13515e-05 1.0002 
-0.000179606 -9.35242e-05 1.00015 
-0.000179606 -9.35242e-05 1.00015 
-0.000179606 -9.35242e-05 1.00015 
-0.000179606 -9.35242e-05 1.00015 
-0.000307159 0.000118006 1.00012 
-0.000307159 0.000118006 1.00012 
-0.000307159 0.000118006 1.00012 
-0.000307159 0.000118006 1.00012 
4.99361e-05 0.00180807 0.998097 
4.99361e-05 0.00180807 0.998097 
4.99361e-05 0.00180807 0.998097 
4.99361e-05 0.00180807 0.998097 
9.58648e-05 -0.000239005 1.00018 
9.58648e-05 -0.000239005 1.00018 
9.58648e-05 -0.000239005 1.00018 
9.58648e-05 -0.000239005 1.00018 
-2.60743e-05 3.83297e-05 1.00011 
-2.60743e-05 3.83297e-05 1.00011 
-2.60743e-05 3.83297e-05 1.00011 
-2.60743e-05 3.83297e-05 1.00011 
-0.00132944 0.000835837 0.998603 
-0.00132944 0.000835837 0.998603 
-0.00132944 0.000835837 0.998603 
-0.00132944 0.000835837 0.998603 
1.12558e-06 -0.000160591 1.00017 
1.12558e-06 -0.000160591 1.00017 
1.12558e-06 -0.000160591 1.00017 
1.12558e-06 -0.000160591 1.00017 
-4.83287e-05 0.00204524 0.997904 
-4.83287e-05 0.00204524 0.997904 
-4.83287e-05 0.00204524 0.997904 
-4.83287e-05 0.00204524 0.997904 
-0.000300386 -0.000263639 1.00013 
-0.000300386 -0.000263639 1.00013 
-0.000300386 -0.000263639 1.00013 
-0.000300386 -0.000263639 1.00013 
0.000212762 7.8304e-05 1.0002 
0.000212762 7.8304e-05 1.0002 
0.000212762 7.8304e-05 1.0002 
0.000212762 7.8304e-05 1.0002 
-0.000169419 0.000117789 1.00016 
-0.000169419 0.000117789 1.00016 
-0.000169419 0.000117789 1.00016 
-0.000169419 0.000117789 1.00016 
-0.000546567 -0.000289598 1.00009 
-0.000546567 -0.000289598 1.00009 
-0.000546567 -0.000289598 1.00009 
-0.000546567 -0.000289598 1.00009 
-2.45433e-05 4.98157e-05 1.00014 
-2.45433e-05 4.98157e-05 1.00014 
-2.45433e-05 4.98157e-05 1.00014 
-2.45433e-05 4.98157e-05 1.00014 
-0.000292788 1.07634e-05 1.00016 
-0.000292788 1.07634e-05 1.00016 
-0.000292788 1.07634e-05 1.00016 
-0.000292788 1.07634e-05 1.00016 
-5.26579e-05 0.000289736 1.00015 
-5.26579e-05 0.000289736 1.00015 
-5.26579e-05 0.000289736 1.00015 
-5.26579e-05 0.000289736 1.00015 
0.000244412 -0.000223704 1.00011 
0.000244412 -0.000223704 1.00011 
0.000244412 -0.000223704 1.00011 
0.000244412 -0.000223704 1.00011 
1.28802e-05 -0.000241827 1.00016 
1.28802e-05 -0.000241827 1.00016 
1.28802e-05 -0.000241827 1.00016 
1.28802e-05 -0.000241827 1.00016 
0.000126986 0.000341304 1.00006 
0.000126986 0.000341304 1.00006 
0.000126986 0.000341304 1.00006 
0.000126986 0.000341304 1.00006 
-0.000193292 6.19364e-05 1.00018 
-0.000193292 6.19364e-05 1.00018 
-0.000193292 6.19364e-05 1.00018 
-0.000193292 6.19364e-05 1.00018 
-8.18814e-05 -7.44138e-05 1.00014 
-8.18814e-05 -7.44138e-05 1.00014 
-8.18814e-05 -7.44138e-05 1.00014 
-8.18814e-05 -7.44138e-05 1.00014 
9.85872e-06 4.23892e-06 1.00008 
9.85872e-06 4.23892e-06 1.00008 
9.85872e-06 4.23892e-06 1.00008 
9.85872e-06 4.23892e-06 1.00008 
0.000212621 5.66304e-05 1.0002 
0.000212621 5.66304e-05 1.0002 
0.000212621 5.66304e-05 1.0002 
0.000212621 5.66304e-05 1.0002 
-0.000149395 -5.81178e-05 1.00013 
-0.000149395 -5.81178e-05 1.00013 
-0.000149395 -5.81178e-05 1.00013 
-0.000149395 -5.81178e-05 1.00013 
-0.000960369 -0.000455323 0.99968 
-0.000960369 -0.000455323 0.99968 
-0.000960369 -0.000455323 0.99968 
-0.000960369 -0.000455323 0.99968 
-1.53469e-05 0.000145571 1.00013 
-1.53469e-05 0.000145571 1.00013 
-1.53469e-05 0.000145571 1.00013 
-1.53469e-05 0.000145571 1.00013 
-0.000108728 0.000968542 0.999568 
-0.000108728 0.000968542 0.999568 
-0.000108728 0.000968542 0.999568 
-0.000108728 0.000968542 0.999568 
-2.99496e-06 4.51229e-05 1.00008 
-2.99496e-06 4.51229e-05 1.00008 
-2.99496e-06 4.51229e-05 1.00008 
-2.99496e-06 4.51229e-05 1.00008 
-0.000116352 0.000185328 1.00017 
-0.000116352 0.000185328 1.00017 
-0.000116352 0.000185328 1.00017 
-0.000116352 0.000185328 1.00017 
-4.72063e-05 8.86836e-05 1.00016 
-4.72063e-05 8.86836e-05 1.00016 
-4.72063e-05 8.86836e-05 1.00016 
-4.72063e-05 8.86836e-05 1.00016 
-0.000150534 -8.88736e-06 1.0001 
-0.000150534 -8.88736e-06 1.0001 
-0.000150534 -8.88736e-06 1.0001 
-0.000150534 -8.88736e-06 1.0001 
0.000120256 -4.20759e-05 1.00012 
0.000120256 -4.20759e-05 1.00012 
0.000120256 -4.20759e-05 1.00012 
0.000120256 -4.20759e-05 1.00012 
-2.97731e-05 -0.000164127 1.00017 
-2.97731e-05 -0.000164127 1.00017 
-2.97731e-05 -0.000164127 1.00017 
-2.97731e-05 -0.000164127 1.00017 
-0.00014694 0.000198685 1.00019 
-0.00014694 0.000198685 1.00019 
-0.00014694 0.000198685 1.00019 
-0.00014694 0.000198685 1.00019 
1.83073e-06 3.40865e-06 1.00014 
1.83073e-06 3.40865e-06 1.00014 
1.83073e-06 3.40865e-06 1.00014 
1.83073e-06 3.40865e-06 1.00014 
-0.000889748 -0.000690049 0.998136 
-0.000889748 -0.000690049 0.998136 
-0.000889748 -0.000690049 0.998136 
-0.000889748 -0.000690049 0.998136 
5.04251e-05 2.40284e-05 1.00011 
5.04251e-05 2.40284e-05 1.00011 
5.04251e-05 2.40284e-05 1.00011 
5.04251e-05 2.40284e-05 1.00011 
7.00054e-05 -0.000340862 1.00019 
7.00054e-05 -0.000340862 1.00019 
7.00054e-05 -0.000340862 1.00019 
7.00054e-05 -0.000340862 1.00019 
-9.45049e-05 0.000284598 1.00014 
-9.45049e-05 0.000284598 1.00014 
-9.45049e-05 0.000284598 1.00014 
-9.45049e-05 0.000284598 1.00014 
3.60507e-05 1.82171e-05 1.00008 
3.60507e-05 1.82171e-05 1.00008 
3.60507e-05 1.82171e-05 1.00008 
3.60507e-05 1.82171e-05 1.00008 
0.000108904 0.000504715 1.00004 
0.000108904 0.000504715 1.00004 
0.000108904 0.000504715 1.00004 
0.000108904 0.000504715 1.00004 
8.72493e-05 3.68411e-05 1.00009 
8.72493e-05 3.68411e-05 1.00009 
8.72493e-05 3.68411e-05 1.00009 
8.72493e-05 3.68411e-05 1.00009 
-4.14681e-05 0.000223034 1.00019 
-4.14681e-05 0.000223034 1.00019 
-4.14681e-05 0.000223034 1.00019 
-4.14681e-05 0.000223034 1.00019 
3.67825e-05 0.000147468 1.00012 
3.67825e-05 0.000147468 1.00012 
3.67825e-05 0.000147468 1.00012 
3.67825e-05 0.000147468 1.00012 
-0.000175293 0.000420212 1.00013 
-0.000175293 0.000420212 1.00013 
-0.000175293 0.000420212 1.00013 
-0.000175293 0.000420212 1.00013 
0.000494965 -8.94835e-05 0.99995 
0.000494965 -8.94835e-05 0.99995 
0.000494965 -8.94835e-05 0.99995 
0.000494965 -8.94835e-05 0.99995 
-1.58904e-05 8.29009e-06 1.0001 
-1.58904e-05 8.29009e-06 1.0001 
-1.58904e-05 8.29009e-06 1.0001 
-1.58904e-05 8.29009e-06 1.0001 
2.58404e-05 -3.11476e-05 1.00019 
2.58404e-05 -3.11476e-05 1.00019 
2.58404e-05 -3.11476e-05 1.00019 
2.58404e-05 -3.11476e-05 1.00019 
6.38928e-05 0.000342757 0.999871 
6.38928e-05 0.000342757 0.999871 
6.38928e-05 0.000342757 0.999871 
6.38928e-05 0.000342757 0.999871 
-3.63025e-06 5.28322e-05 1.00007 
-3.63025e-06 5.28322e-05 1.00007 
-3.63025e-06 5.28322e-05 1.00007 
-3.63025e-06 5.28322e-05 1.00007 
-0.000276333 0.000250024 1.00012 
-0.000276333 0.000250024 1.00012 
-0.000276333 0.000250024 1.00012 
-0.000276333 0.000250024 1.00012 
-0.000168248 0.00174095 0.9981 
-0.000168248 0.00174095 0.9981 
-0.000168248 0.00174095 0.9981 
-0.000168248 0.00174095 0.9981 
-0.000510728 0.000501047 0.997569 
-0.000510728 0.000501047 0.997569 
-0.000510728 0.000501047 0.997569 
-0.000510728 0.000501047 0.997569 
0.000213562 -0.000215934 1.00012 
0.000213562 -0.000215934 1.00012 
0.000213562 -0.000215934 1.00012 
0.000213562 -0.000215934 1.00012 
8.96641e-06 0.00102858 0.999671 
8.96641e-06 0.00102858 0.999671 
8.96641e-06 0.00102858 0.999671 
8.96641e-06 0.00102858 0.999671 
-0.00191543 -0.000839834 0.99761 
-0.00191543 -0.000839834 0.99761 
-0.00191543 -0.000839834 0.99761 
-0.00191543 -0.000839834 0.99761 
0.000597769 -0.000913227 0.998546 
0.000597769 -0.000913227 0.998546 
0.000597769 -0.000913227 0.998546 
0.000597769 -0.000913227 0.998546 
-0.000222365 6.68348e-05 1.00015 
-0.000222365 6.68348e-05 1.00015 
-0.000222365 6.68348e-05 1.00015 
-0.000222365 6.68348e-05 1.00015 
-0.000261631 -0.000131467 1.00007 
-0.000261631 -0.000131467 1.00007 
-0.000261631 -0.000131467 1.00007 
-0.000261631 -0.000131467 1.00007 
0.000231019 -5.90909e-06 1.00015 
0.000231019 -5.90909e-06 1.00015 
0.000231019 -5.90909e-06 1.00015 
0.000231019 -5.90909e-06 1.00015 
0.000172317 0.000340333 1.00018 
0.000172317 0.000340333 1.00018 
0.000172317 0.000340333 1.00018 
0.000172317 0.000340333 1.00018 
0.000347254 0.000103405 1.00003 
0.000347254 0.000103405 1.00003 
0.000347254 0.000103405 1.00003 
0.000347254 0.000103405 1.00003 
9.35355e-05 6.07039e-06 1.0001 
9.35355e-05 6.07039e-06 1.0001 
9.35355e-05 6.07039e-06 1.0001 
9.35355e-05 6.07039e-06 1.0001 
0.000517936 -0.000261367 0.999819 
0.000517936 -0.000261367 0.999819 
0.000517936 -0.000261367 0.999819 
0.000517936 -0.000261367 0.999819 
0.000162364 -5.49833e-05 1.00017 
0.000162364 -5.49833e-05 1.00017 
0.000162364 -5.49833e-05 1.00017 
0.000162364 -5.49833e-05 1.00017 
0.00018345 -0.0001026 1.00014 
0.00018345 -0.0001026 1.00014 
0.00018345 -0.0001026 1.00014 
0.00018345 -0.0001026 1.00014 
0.000174536 0.000121046 1.0002 
0.000174536 0.000121046 1.0002 
0.000174536 0.000121046 1.0002 
0.000174536 0.000121046 1.0002 
0.000170185 9.31566e-05 1.00019 
0.000170185 9.31566e-05 1.00019 
0.000170185 9.31566e-05 1.00019 
0.000170185 9.31566e-05 1.00019 
-2.84781e-05 0.000419669 1.00016 
-2.84781e-05 0.000419669 1.00016 
-2.84781e-05 0.000419669 1.00016 
-2.84781e-05 0.000419669 1.00016 
0.000282247 6.19868e-05 1.0002 
0.000282247 6.19868e-05 1.0002 
0.000282247 6.19868e-05 1.0002 
0.000282247 6.19868e-05 1.0002 
-0.000485329 -7.47931e-05 1.00007 
-0.000485329 -7.47931e-05 1.00007 
-0.000485329 -7.47931e-05 1.00007 
-0.000485329 -7.47931e-05 1.00007 
-4.00942e-05 -0.000111537 0.999403 
-4.00942e-05 -0.000111537 0.999403 
-4.00942e-05 -0.000111537 0.999403 
-4.00942e-05 -0.000111537 0.999403 
0.00219509 -5.94749e-05 0.998687 
0.00219509 -5.94749e-05 0.998687 
0.00219509 -5.94749e-05 0.998687 
0.00219509 -5.94749e-05 0.998687 
-0.000257655 -3.20532e-05 1.00016 
-0.000257655 -3.20532e-05 1.00016 
-0.000257655 -3.20532e-05 1.00016 
-0.000257655 -3.20532e-05 1.00016 
-7.82872e-05 0.000464345 1.0001 
-7.82872e-05 0.000464345 1.0001 
-7.82872e-05 0.000464345 1.0001 
-7.82872e-05 0.000464345 1.0001 
-0.000484386 -2.29757e-05 1.00006 
-0.000484386 -2.29757e-05 1.00006 
-0.000484386 -2.29757e-05 1.00006 
-0.000484386 -2.29757e-05 1.00006 
-0.000305583 -0.000167404 1.00015 
-0.000305583 -0.000167404 1.00015 
-0.000305583 -0.000167404 1.00015 
-0.000305583 -0.000167404 1.00015 
0.000348114 -1.50315e-05 1.00009 
0.000348114 -1.50315e-05 1.00009 
0.000348114 -1.50315e-05 1.00009 
0.000348114 -1.50315e-05 1.00009 
9.07615e-05 -5.03072e-05 1.00011 
9.07615e-05 -5.03072e-05 1.00011 
9.07615e-05 -5.03072e-05 1.00011 
9.07615e-05 -5.03072e-05 1.00011 
-0.000702454 0.000154159 0.999998 
-0.000702454 0.000154159 0.999998 
-0.000702454 0.000154159 0.999998 
-0.000702454 0.000154159 0.999998 
0.000246485 0.00023834 1.00005 
0.000246485 0.00023834 1.00005 
0.000246485 0.00023834 1.00005 
0.000246485 0.00023834 1.00005 
-0.000207249 5.79128e-06 1.00016 
-0.000207249 5.79128e-06 1.00016 
-0.000207249 5.79128e-06 1.00016 
-0.000207249 5.79128e-06 1.00016 
-0.000699519 -0.000139015 0.999961 
-0.000699519 -0.000139015 0.999961 
-0.000699519 -0.000139015 0.999961 
-0.000699519 -0.000139015 0.999961 
-0.000880601 0.000686497 0.998547 
-0.000880601 0.000686497 0.998547 
-0.000880601 0.000686497 0.998547 
-0.000880601 0.000686497 0.998547 
-4.09156e-05 -0.000109514 1.00011 
-4.09156e-05 -0.000109514 1.00011 
-4.09156e-05 -0.000109514 1.00011 
-4.09156e-05 -0.000109514 1.00011 
9.47799e-05 0.00219358 0.999042 
9.47799e-05 0.00219358 0.999042 
9.47799e-05 0.00219358 0.999042 
9.47799e-05 0.00219358 0.999042 
-0.000135405 -0.000387205 1.00012 
-0.000135405 -0.000387205 1.00012 
-0.000135405 -0.000387205 1.00012 
-0.000135405 -0.000387205 1.00012 
-0.00011317 -0.000246264 1.00016 
-0.00011317 -0.000246264 1.00016 
-0.00011317 -0.000246264 1.00016 
-0.00011317 -0.000246264 1.00016 
-0.000829795 0.000780897 0.999223 
-0.000829795 0.000780897 0.999223 
-0.000829795 0.000780897 0.999223 
-0.000829795 0.000780897 0.999223 
-2.70484e-05 4.25491e-05 1.00009 
-2.70484e-05 4.25491e-05 1.00009 
-2.70484e-05 4.25491e-05 1.00009 
-2.70484e-05 4.25491e-05 1.00009 
9.58113e-05 -0.000274158 1.0001 
9.58113e-05 -0.000274158 1.0001 
9.58113e-05 -0.000274158 1.0001 
9.58113e-05 -0.000274158 1.0001 
9.82054e-06 9.79018e-06 1.00008 
9.82054e-06 9.79018e-06 1.00008 
9.82054e-06 9.79018e-06 1.00008 
9.82054e-06 9.79018e-06 1.00008 
-5.76147e-05 3.95848e-05 1.00016 
-5.76147e-05 3.95848e-05 1.00016 
-5.76147e-05 3.95848e-05 1.00016 
-5.76147e-05 3.95848e-05 1.00016 
1.26452e-05 -0.000380667 1.00018 
1.26452e-05 -0.000380667 1.00018 
1.26452e-05 -0.000380667 1.00018 
1.26452e-05 -0.000380667 1.00018 
1.25755e-05 2.04988e-05 1.0001 
1.25755e-05 2.04988e-05 1.0001 
1.25755e-05 2.04988e-05 1.0001 
1.25755e-05 2.04988e-05 1.0001 
-0.000545965 0.000516527 0.997555 
-0.000545965 0.000516527 0.997555 
-0.000545965 0.000516527 0.997555 
-0.000545965 0.000516527 0.997555 
0.000645263 -0.00123682 0.997285 
0.000645263 -0.00123682 0.997285 
0.000645263 -0.00123682 0.997285 
0.000645263 -0.00123682 0.997285 
0.000118256 0.000118976 1.00019 
0.000118256 0.000118976 1.00019 
0.000118256 0.000118976 1.00019 
0.000118256 0.000118976 1.00019 
-0.000162258 -0.000187404 1.00013 
-0.000162258 -0.000187404 1.00013 
-0.000162258 -0.000187404 1.00013 
-0.000162258 -0.000187404 1.00013 
-0.00075153 0.000990169 0.997905 
-0.00075153 0.000990169 0.997905 
-0.00075153 0.000990169 0.997905 
-0.00075153 0.000990169 0.997905 
-0.00116589 -0.000336153 0.998598 
-0.00116589 -0.000336153 0.998598 
-0.00116589 -0.000336153 0.998598 
-0.00116589 -0.000336153 0.998598 
0.00105401 0.00235495 0.995761 
0.00105401 0.00235495 0.995761 
0.00105401 0.00235495 0.995761 
0.00105401 0.00235495 0.995761 
-7.09222e-05 3.82592e-05 1.00014 
-7.09222e-05 3.82592e-05 1.00014 
-7.09222e-05 3.82592e-05 1.00014 
-7.09222e-05 3.82592e-05 1.00014 
1.92366e-05 1.58165e-05 1.00008 
1.92366e-05 1.58165e-05 1.00008 
1.92366e-05 1.58165e-05 1.00008 
1.92366e-05 1.58165e-05 1.00008 
0.000216257 0.000321708 1.00019 
0.000216257 0.000321708 1.00019 
0.000216257 0.000321708 1.00019 
0.000216257 0.000321708 1.00019 
-5.92214e-05 4.73265e-05 1.00014 
-5.92214e-05 4.73265e-05 1.00014 
-5.92214e-05 4.73265e-05 1.00014 
-5.92214e-05 4.73265e-05 1.00014 
-0.000670591 0.00138045 0.99866 
-0.000670591 0.00138045 0.99866 
-0.000670591 0.00138045 0.99866 
-0.000670591 0.00138045 0.99866 
0.000338288 9.01527e-05 0.998253 
0.000338288 9.01527e-05 0.998253 
0.000338288 9.01527e-05 0.998253 
0.000338288 9.01527e-05 0.998253 
-0.000872061 0.000743454 0.999227 
-0.000872061 0.000743454 0.999227 
-0.000872061 0.000743454 0.999227 
-0.000872061 0.000743454 0.999227 
-0.0021471 -0.00126853 0.998668 
-0.0021471 -0.00126853 0.998668 
-0.0021471 -0.00126853 0.998668 
-0.0021471 -0.00126853 0.998668 
-0.00074699 -0.000855347 0.996473 
-0.00074699 -0.000855347 0.996473 
-0.00074699 -0.000855347 0.996473 
-0.00074699 -0.000855347 0.996473 
0.00210322 0.000219632 0.998141 
0.00210322 0.000219632 0.998141 
0.00210322 0.000219632 0.998141 
0.00210322 0.000219632 0.998141 
0.000641058 -0.00029642 0.998557 
0.000641058 -0.00029642 0.998557 
0.000641058 -0.00029642 0.998557 
0.000641058 -0.00029642 0.998557 
0.000492944 4.45655e-05 0.998746 
0.000492944 4.45655e-05 0.998746 
0.000492944 4.45655e-05 0.998746 
0.000492944 4.45655e-05 0.998746 
3.0146e-05 9.49976e-06 1.0001 
3.0146e-05 9.49976e-06 1.0001 
3.0146e-05 9.49976e-06 1.0001 
3.0146e-05 9.49976e-06 1.0001 
0.00122958 -1.19948e-05 0.997019 
0.00122958 -1.19948e-05 0.997019 
0.00122958 -1.19948e-05 0.997019 
0.00122958 -1.19948e-05 0.997019 
-0.000134702 0.000281328 1.00015 
-0.000134702 0.000281328 1.00015 
-0.000134702 0.000281328 1.00015 
-0.000134702 0.000281328 1.00015 
0.000238804 0.0003361 0.998758 
0.000238804 0.0003361 0.998758 
0.000238804 0.0003361 0.998758 
0.000238804 0.0003361 0.998758 
2.50492e-06 -0.000118637 1.00017 
2.50492e-06 -0.000118637 1.00017 
2.50492e-06 -0.000118637 1.00017 
2.50492e-06 -0.000118637 1.00017 
-0.000515565 0.00279915 0.9975 
-0.000515565 0.00279915 0.9975 
-0.000515565 0.00279915 0.9975 
-0.000515565 0.00279915 0.9975 
7.05834e-05 -0.000147631 1.00012 
7.05834e-05 -0.000147631 1.00012 
7.05834e-05 -0.000147631 1.00012 
7.05834e-05 -0.000147631 1.00012 
-0.000417491 -0.00232227 0.997496 
-0.000417491 -0.00232227 0.997496 
-0.000417491 -0.00232227 0.997496 
-0.000417491 -0.00232227 0.997496 
0.000282311 -0.000575501 0.999996 
0.000282311 -0.000575501 0.999996 
0.000282311 -0.000575501 0.999996 
0.000282311 -0.000575501 0.999996 
-0.000473609 -0.000417185 0.999705 
-0.000473609 -0.000417185 0.999705 
-0.000473609 -0.000417185 0.999705 
-0.000473609 -0.000417185 0.999705 
-0.000332113 0.000506619 0.999763 
-0.000332113 0.000506619 0.999763 
-0.000332113 0.000506619 0.999763 
-0.000332113 0.000506619 0.999763 
-0.000436112 3.65229e-05 1.00017 
-0.000436112 3.65229e-05 1.00017 
-0.000436112 3.65229e-05 1.00017 
-0.000436112 3.65229e-05 1.00017 
-6.34828e-05 1.96845e-05 1.00009 
-6.34828e-05 1.96845e-05 1.00009 
-6.34828e-05 1.96845e-05 1.00009 
-6.34828e-05 1.96845e-05 1.00009 
-0.00106158 2.1717e-05 0.999849 
-0.00106158 2.1717e-05 0.999849 
-0.00106158 2.1717e-05 0.999849 
-0.00106158 2.1717e-05 0.999849 
0.000838397 5.81755e-05 0.997576 
0.000838397 5.81755e-05 0.997576 
0.000838397 5.81755e-05 0.997576 
0.000838397 5.81755e-05 0.997576 
1.94912e-05 3.76715e-05 1.00009 
1.94912e-05 3.76715e-05 1.00009 
1.94912e-05 3.76715e-05 1.00009 
1.94912e-05 3.76715e-05 1.00009 
-0.000349542 -0.000828041 0.997447 
-0.000349542 -0.000828041 0.997447 
-0.000349542 -0.000828041 0.997447 
-0.000349542 -0.000828041 0.997447 
0.000135439 -0.000127496 1.00012 
0.000135439 -0.000127496 1.00012 
0.000135439 -0.000127496 1.00012 
0.000135439 -0.000127496 1.00012 
0.000267995 0.000667533 0.999864 
0.000267995 0.000667533 0.999864 
0.000267995 0.000667533 0.999864 
0.000267995 0.000667533 0.999864 
2.9882e-06 -0.000459626 1.00013 
2.9882e-06 -0.000459626 1.00013 
2.9882e-06 -0.000459626 1.00013 
2.9882e-06 -0.000459626 1.00013 
-0.00128609 -0.00165569 0.998365 
-0.00128609 -0.00165569 0.998365 
-0.00128609 -0.00165569 0.998365 
-0.00128609 -0.00165569 0.998365 
-9.01796e-05 0.000426959 1.00003 
-9.01796e-05 0.000426959 1.00003 
-9.01796e-05 0.000426959 1.00003 
-9.01796e-05 0.000426959 1.00003 
-7.73728e-05 0.000360595 0.999942 
-7.73728e-05 0.000360595 0.999942 
-7.73728e-05 0.000360595 0.999942 
-7.73728e-05 0.000360595 0.999942 
0.00047646 -0.000341343 0.999896 
0.00047646 -0.000341343 0.999896 
0.00047646 -0.000341343 0.999896 
0.00047646 -0.000341343 0.999896 
0.000715858 0.000994429 0.998472 
0.000715858 0.000994429 0.998472 
0.000715858 0.000994429 0.998472 
0.000715858 0.000994429 0.998472 
0.00104133 0.000707142 0.998532 
0.00104133 0.000707142 0.998532 
0.00104133 0.000707142 0.998532 
0.00104133 0.000707142 0.998532 
-0.00137981 0.0015881 0.99814 
-0.00137981 0.0015881 0.99814 
-0.00137981 0.0015881 0.99814 
-0.00137981 0.0015881 0.99814 
5.16589e-05 -3.11968e-05 1.00018 
5.16589e-05 -3.11968e-05 1.00018 
5.16589e-05 -3.11968e-05 1.00018 
5.16589e-05 -3.11968e-05 1.00018 
-1.61973e-05 3.21964e-05 1.00009 
-1.61973e-05 3.21964e-05 1.00009 
-1.61973e-05 3.21964e-05 1.00009 
-1.61973e-05 3.21964e-05 1.00009 
-0.000306621 -9.0494e-05 1.00019 
-0.000306621 -9.0494e-05 1.00019 
-0.000306621 -9.0494e-05 1.00019 
-0.000306621 -9.0494e-05 1.00019 
1.53909e-05 -8.87393e-06 1.00013 
1.53909e-05 -8.87393e-06 1.00013 
1.53909e-05 -8.87393e-06 1.00013 
1.53909e-05 -8.87393e-06 1.00013 
-0.000209162 0.00143488 0.997249 
-0.000209162 0.00143488 0.997249 
-0.000209162 0.00143488 0.997249 
-0.000209162 0.00143488 0.997249 
8.11651e-05 -0.000145448 1.00013 
8.11651e-05 -0.000145448 1.00013 
8.11651e-05 -0.000145448 1.00013 
8.11651e-05 -0.000145448 1.00013 
0.000460579 -0.000646102 0.99827 
0.000460579 -0.000646102 0.99827 
0.000460579 -0.000646102 0.99827 
0.000460579 -0.000646102 0.99827 
0.00126197 -0.000301264 0.997663 
0.00126197 -0.000301264 0.997663 
0.00126197 -0.000301264 0.997663 
0.00126197 -0.000301264 0.997663 
0.000291386 0.000156147 0.999628 
0.000291386 0.000156147 0.999628 
0.000291386 0.000156147 0.999628 
0.000291386 0.000156147 0.999628 
0.000126587 0.000127457 1.0002 
0.000126587 0.000127457 1.0002 
0.000126587 0.000127457 1.0002 
0.000126587 0.000127457 1.0002 
-0.000887295 3.24911e-05 0.997969 
-0.000887295 3.24911e-05 0.997969 
-0.000887295 3.24911e-05 0.997969 
-0.000887295 3.24911e-05 0.997969 
-0.000670777 0.000624508 0.998639 
-0.000670777 0.000624508 0.998639 
-0.000670777 0.000624508 0.998639 
-0.000670777 0.000624508 0.998639 
-0.000427465 0.000413166 0.999813 
-0.000427465 0.000413166 0.999813 
-0.000427465 0.000413166 0.999813 
-0.000427465 0.000413166 0.999813 
-0.000131106 0.000172776 1.00016 
-0.000131106 0.000172776 1.00016 
-0.000131106 0.000172776 1.00016 
-0.000131106 0.000172776 1.00016 
0.000876185 -0.00145885 0.999437 
0.000876185 -0.00145885 0.999437 
0.000876185 -0.00145885 0.999437 
0.000876185 -0.00145885 0.999437 
-0.000528514 0.000795266 0.998554 
-0.000528514 0.000795266 0.998554 
-0.000528514 0.000795266 0.998554 
-0.000528514 0.000795266 0.998554 
1.61515e-05 0.000198509 1.00009 
1.61515e-05 0.000198509 1.00009 
1.61515e-05 0.000198509 1.00009 
1.61515e-05 0.000198509 1.00009 
-0.000453177 0.00051871 0.999899 
-0.000453177 0.00051871 0.999899 
-0.000453177 0.00051871 0.999899 
-0.000453177 0.00051871 0.999899 
1.04145e-05 1.61587e-05 1.0001 
1.04145e-05 1.61587e-05 1.0001 
1.04145e-05 1.61587e-05 1.0001 
1.04145e-05 1.61587e-05 1.0001 
0.000963836 -4.13383e-05 0.99962 
0.000963836 -4.13383e-05 0.99962 
0.000963836 -4.13383e-05 0.99962 
0.000963836 -4.13383e-05 0.99962 
0.000170774 0.000182315 1.00017 
0.000170774 0.000182315 1.00017 
0.000170774 0.000182315 1.00017 
0.000170774 0.000182315 1.00017 
0.000171076 0.00163481 0.998735 
0.000171076 0.00163481 0.998735 
0.000171076 0.00163481 0.998735 
0.000171076 0.00163481 0.998735 
-0.000812868 0.000942726 0.997899 
-0.000812868 0.000942726 0.997899 
-0.000812868 0.000942726 0.997899 
-0.000812868 0.000942726 0.997899 
5.28419e-06 1.27742e-05 1.00009 
5.28419e-06 1.27742e-05 1.00009 
5.28419e-06 1.27742e-05 1.00009 
5.28419e-06 1.27742e-05 1.00009 
5.66144e-05 0.000145571 1.00012 
5.66144e-05 0.000145571 1.00012 
5.66144e-05 0.000145571 1.00012 
5.66144e-05 0.000145571 1.00012 
-0.000409828 0.00157781 0.998708 
-0.000409828 0.00157781 0.998708 
-0.000409828 0.00157781 0.998708 
-0.000409828 0.00157781 0.998708 
7.37175e-06 6.11723e-06 1.00013 
7.37175e-06 6.11723e-06 1.00013 
7.37175e-06 6.11723e-06 1.00013 
7.37175e-06 6.11723e-06 1.00013 
-0.00041997 0.000542859 0.999902 
-0.00041997 0.000542859 0.999902 
-0.00041997 0.000542859 0.999902 
-0.00041997 0.000542859 0.999902 
-8.47408e-05 0.00097788 0.999568 
-8.47408e-05 0.00097788 0.999568 
-8.47408e-05 0.00097788 0.999568 
-8.47408e-05 0.00097788 0.999568 
-0.000438729 0.000343347 0.999897 
-0.000438729 0.000343347 0.999897 
-0.000438729 0.000343347 0.999897 
-0.000438729 0.000343347 0.999897 
-0.000307248 -8.14298e-05 0.999868 
-0.000307248 -8.14298e-05 0.999868 
-0.000307248 -8.14298e-05 0.999868 
-0.000307248 -8.14298e-05 0.999868 
-0.000522325 0.00102204 0.999583 
-0.000522325 0.00102204 0.999583 
-0.000522325 0.00102204 0.999583 
-0.000522325 0.00102204 0.999583 
-2.37446e-05 7.54726e-05 1.00009 
-2.37446e-05 7.54726e-05 1.00009 
-2.37446e-05 7.54726e-05 1.00009 
-2.37446e-05 7.54726e-05 1.00009 
0.00155905 -0.00184516 0.997948 
0.00155905 -0.00184516 0.997948 
0.00155905 -0.00184516 0.997948 
0.00155905 -0.00184516 0.997948 
-0.000217468 -4.1294e-05 1.00012 
-0.000217468 -4.1294e-05 1.00012 
-0.000217468 -4.1294e-05 1.00012 
-0.000217468 -4.1294e-05 1.00012 
-0.000518035 0.000141185 1.00008 
-0.000518035 0.000141185 1.00008 
-0.000518035 0.000141185 1.00008 
-0.000518035 0.000141185 1.00008 
-0.00205322 -0.000246886 0.997616 
-0.00205322 -0.000246886 0.997616 
-0.00205322 -0.000246886 0.997616 
-0.00205322 -0.000246886 0.997616 
2.72286e-05 -0.000363914 1.00018 
2.72286e-05 -0.000363914 1.00018 
2.72286e-05 -0.000363914 1.00018 
2.72286e-05 -0.000363914 1.00018 
0.00121984 0.00129843 0.99936 
0.00121984 0.00129843 0.99936 
0.00121984 0.00129843 0.99936 
0.00121984 0.00129843 0.99936 
-0.00110194 -9.87875e-05 0.99971 
-0.00110194 -9.87875e-05 0.99971 
-0.00110194 -9.87875e-05 0.99971 
-0.00110194 -9.87875e-05 0.99971 
-0.000929477 -0.000483818 0.99968 
-0.000929477 -0.000483818 0.99968 
-0.000929477 -0.000483818 0.99968 
-0.000929477 -0.000483818 0.99968 
-5.27844e-05 0.000448524 0.99977 
-5.27844e-05 0.000448524 0.99977 
-5.27844e-05 0.000448524 0.99977 
-5.27844e-05 0.000448524 0.99977 
-9.35672e-05 0.000209051 0.999848 
-9.35672e-05 0.000209051 0.999848 
-9.35672e-05 0.000209051 0.999848 
-9.35672e-05 0.000209051 0.999848 
0.0018309 0.000578949 0.998644 
0.0018309 0.000578949 0.998644 
0.0018309 0.000578949 0.998644 
0.0018309 0.000578949 0.998644 
0.00026959 2.50938e-05 1.00016 
0.00026959 2.50938e-05 1.00016 
0.00026959 2.50938e-05 1.00016 
0.00026959 2.50938e-05 1.00016 
-4.5475e-05 -0.000172132 1.0001 
-4.5475e-05 -0.000172132 1.0001 
-4.5475e-05 -0.000172132 1.0001 
-4.5475e-05 -0.000172132 1.0001 
-0.000385152 0.000505138 0.998211 
-0.000385152 0.000505138 0.998211 
-0.000385152 0.000505138 0.998211 
-0.000385152 0.000505138 0.998211 
-0.00113239 -0.000794831 0.998246 
-0.00113239 -0.000794831 0.998246 
-0.00113239 -0.000794831 0.998246 
-0.00113239 -0.000794831 0.998246 
-0.000143276 5.25412e-05 1.00012 
-0.000143276 5.25412e-05 1.00012 
-0.000143276 5.25412e-05 1.00012 
-0.000143276 5.25412e-05 1.00012 
8.91954e-05 -0.000183679 1.00017 
8.91954e-05 -0.000183679 1.00017 
8.91954e-05 -0.000183679 1.00017 
8.91954e-05 -0.000183679 1.00017 
0.000706868 0.000151885 0.999941 
0.000706868 0.000151885 0.999941 
0.000706868 0.000151885 0.999941 
0.000706868 0.000151885 0.999941 
-0.000555962 -0.000399715 0.997981 
-0.000555962 -0.000399715 0.997981 
-0.000555962 -0.000399715 0.997981 
-0.000555962 -0.000399715 0.997981 
-1.94924e-06 -0.000204691 0.999608 
-1.94924e-06 -0.000204691 0.999608 
-1.94924e-06 -0.000204691 0.999608 
-1.94924e-06 -0.000204691 0.999608 
0.000159795 0.00291527 0.997525 
0.000159795 0.00291527 0.997525 
0.000159795 0.00291527 0.997525 
0.000159795 0.00291527 0.997525 
-8.22505e-05 -0.00018034 1.00018 
-8.22505e-05 -0.00018034 1.00018 
-8.22505e-05 -0.00018034 1.00018 
-8.22505e-05 -0.00018034 1.00018 
-1.82961e-05 4.42108e-05 1.00011 
-1.82961e-05 4.42108e-05 1.00011 
-1.82961e-05 4.42108e-05 1.00011 
-1.82961e-05 4.42108e-05 1.00011 
0.000633725 -0.00158564 0.998064 
0.000633725 -0.00158564 0.998064 
0.000633725 -0.00158564 0.998064 
0.000633725 -0.00158564 0.998064 
0.000105891 -0.000516964 0.999788 
0.000105891 -0.000516964 0.999788 
0.000105891 -0.000516964 0.999788 
0.000105891 -0.000516964 0.999788 
-0.000651144 -0.000494247 0.999659 
-0.000651144 -0.000494247 0.999659 
-0.000651144 -0.000494247 0.999659 
-0.000651144 -0.000494247 0.999659 
0.000103515 -4.74983e-05 1.00011 
0.000103515 -4.74983e-05 1.00011 
0.000103515 -4.74983e-05 1.00011 
0.000103515 -4.74983e-05 1.00011 
0.000541769 -0.00110445 0.998565 
0.000541769 -0.00110445 0.998565 
0.000541769 -0.00110445 0.998565 
0.000541769 -0.00110445 0.998565 
-0.000671714 0.000799572 0.999289 
-0.000671714 0.000799572 0.999289 
-0.000671714 0.000799572 0.999289 
-0.000671714 0.000799572 0.999289 
0.00217072 -0.000101007 0.998693 
0.00217072 -0.000101007 0.998693 
0.00217072 -0.000101007 0.998693 
0.00217072 -0.000101007 0.998693 
6.96354e-05 -0.000380585 1.00018 
6.96354e-05 -0.000380585 1.00018 
6.96354e-05 -0.000380585 1.00018 
6.96354e-05 -0.000380585 1.00018 
0.000484318 -4.53514e-05 1.0001 
0.000484318 -4.53514e-05 1.0001 
0.000484318 -4.53514e-05 1.0001 
0.000484318 -4.53514e-05 1.0001 
-0.000435083 0.000660387 0.998604 
-0.000435083 0.000660387 0.998604 
-0.000435083 0.000660387 0.998604 
-0.000435083 0.000660387 0.998604 
0.000581717 -0.000304383 0.999845 
0.000581717 -0.000304383 0.999845 
0.000581717 -0.000304383 0.999845 
0.000581717 -0.000304383 0.999845 
-2.72425e-05 1.02545e-05 1.00009 
-2.72425e-05 1.02545e-05 1.00009 
-2.72425e-05 1.02545e-05 1.00009 
-2.72425e-05 1.02545e-05 1.00009 
-0.000371982 -0.000402079 0.999963 
-0.000371982 -0.000402079 0.999963 
-0.000371982 -0.000402079 0.999963 
-0.000371982 -0.000402079 0.999963 
-0.00229468 0.000939217 0.997331 
-0.00229468 0.000939217 0.997331 
-0.00229468 0.000939217 0.997331 
-0.00229468 0.000939217 0.997331 
-0.000197741 -0.000307808 1.00012 
-0.000197741 -0.000307808 1.00012 
-0.000197741 -0.000307808 1.00012 
-0.000197741 -0.000307808 1.00012 
4.5758e-05 -0.000363408 1.00018 
4.5758e-05 -0.000363408 1.00018 
4.5758e-05 -0.000363408 1.00018 
4.5758e-05 -0.000363408 1.00018 
0.000656348 -0.000988121 0.999058 
0.000656348 -0.000988121 0.999058 
0.000656348 -0.000988121 0.999058 
0.000656348 -0.000988121 0.999058 
2.94875e-05 4.89281e-05 1.00015 
2.94875e-05 4.89281e-05 1.00015 
2.94875e-05 4.89281e-05 1.00015 
2.94875e-05 4.89281e-05 1.00015 
9.57821e-06 -0.000219963 1.00016 
9.57821e-06 -0.000219963 1.00016 
9.57821e-06 -0.000219963 1.00016 
9.57821e-06 -0.000219963 1.00016 
-0.000410937 0.000221609 1.0001 
-0.000410937 0.000221609 1.0001 
-0.000410937 0.000221609 1.0001 
-0.000410937 0.000221609 1.0001 
-0.00194126 -4.41898e-05 0.998167 
-0.00194126 -4.41898e-05 0.998167 
-0.00194126 -4.41898e-05 0.998167 
-0.00194126 -4.41898e-05 0.998167 
-0.000411143 -0.00210842 0.998278 
-0.000411143 -0.00210842 0.998278 
-0.000411143 -0.00210842 0.998278 
-0.000411143 -0.00210842 0.998278 
2.11048e-05 -0.00101595 0.999666 
2.11048e-05 -0.00101595 0.999666 
2.11048e-05 -0.00101595 0.999666 
2.11048e-05 -0.00101595 0.999666 
-0.000487888 0.00126161 0.998643 
-0.000487888 0.00126161 0.998643 
-0.000487888 0.00126161 0.998643 
-0.000487888 0.00126161 0.998643 
-0.000226404 -0.000474824 0.999873 
-0.000226404 -0.000474824 0.999873 
-0.000226404 -0.000474824 0.999873 
-0.000226404 -0.000474824 0.999873 
-0.000514318 -0.0013015 0.999145 
-0.000514318 -0.0013015 0.999145 
-0.000514318 -0.0013015 0.999145 
-0.000514318 -0.0013015 0.999145 
0.00126096 -6.95918e-05 0.998758 
0.00126096 -6.95918e-05 0.998758 
0.00126096 -6.95918e-05 0.998758 
0.00126096 -6.95918e-05 0.998758 
9.20076e-05 0.000206089 0.99999 
9.20076e-05 0.000206089 0.99999 
9.20076e-05 0.000206089 0.99999 
9.20076e-05 0.000206089 0.99999 
-0.000141512 8.24081e-05 1.00014 
-0.000141512 8.24081e-05 1.00014 
-0.000141512 8.24081e-05 1.00014 
-0.000141512 8.24081e-05 1.00014 
-5.86005e-05 0.000301514 1.00012 
-5.86005e-05 0.000301514 1.00012 
-5.86005e-05 0.000301514 1.00012 
-5.86005e-05 0.000301514 1.00012 
-0.000324636 -0.000268207 0.997983 
-0.000324636 -0.000268207 0.997983 
-0.000324636 -0.000268207 0.997983 
-0.000324636 -0.000268207 0.997983 
-4.66592e-06 -0.00110246 0.99969 
-4.66592e-06 -0.00110246 0.99969 
-4.66592e-06 -0.00110246 0.99969 
-4.66592e-06 -0.00110246 0.99969 
0.00031178 7.64144e-05 1.00003 
0.00031178 7.64144e-05 1.00003 
0.00031178 7.64144e-05 1.00003 
0.00031178 7.64144e-05 1.00003 
8.96222e-05 -0.000275343 1.00018 
8.96222e-05 -0.000275343 1.00018 
8.96222e-05 -0.000275343 1.00018 
8.96222e-05 -0.000275343 1.00018 
0.00128406 0.000404809 0.998006 
0.00128406 0.000404809 0.998006 
0.00128406 0.000404809 0.998006 
0.00128406 0.000404809 0.998006 
-0.000253581 0.00100568 0.999552 
-0.000253581 0.00100568 0.999552 
-0.000253581 0.00100568 0.999552 
-0.000253581 0.00100568 0.999552 
0.00178473 -0.000509109 0.996586 
0.00178473 -0.000509109 0.996586 
0.00178473 -0.000509109 0.996586 
0.00178473 -0.000509109 0.996586 
1.4726e-05 1.51503e-05 1.00008 
1.4726e-05 1.51503e-05 1.00008 
1.4726e-05 1.51503e-05 1.00008 
1.4726e-05 1.51503e-05 1.00008 
-0.00152208 0.000297927 0.998782 
-0.00152208 0.000297927 0.998782 
-0.00152208 0.000297927 0.998782 
-0.00152208 0.000297927 0.998782 
-0.00105265 -0.000540912 0.999625 
-0.00105265 -0.000540912 0.999625 
-0.00105265 -0.000540912 0.999625 
-0.00105265 -0.000540912 0.999625 
3.93408e-05 0.000196741 1.00013 
3.93408e-05 0.000196741 1.00013 
3.93408e-05 0.000196741 1.00013 
3.93408e-05 0.000196741 1.00013 
-0.000178648 -0.000617231 0.999732 
-0.000178648 -0.000617231 0.999732 
-0.000178648 -0.000617231 0.999732 
-0.000178648 -0.000617231 0.999732 
0.000284226 0.00116356 0.999146 
0.000284226 0.00116356 0.999146 
0.000284226 0.00116356 0.999146 
0.000284226 0.00116356 0.999146 
1.07485e-05 5.08077e-05 1.00011 
1.07485e-05 5.08077e-05 1.00011 
1.07485e-05 5.08077e-05 1.00011 
1.07485e-05 5.08077e-05 1.00011 
0.000232931 -0.000813963 0.999843 
0.000232931 -0.000813963 0.999843 
0.000232931 -0.000813963 0.999843 
0.000232931 -0.000813963 0.999843 
0.000209231 0.000349061 1.00002 
0.000209231 0.000349061 1.00002 
0.000209231 0.000349061 1.00002 
0.000209231 0.000349061 1.00002 
-0.000645124 -0.000548239 0.998066 
-0.000645124 -0.000548239 0.998066 
-0.000645124 -0.000548239 0.998066 
-0.000645124 -0.000548239 0.998066 
-0.000305005 0.000239413 0.99806 
-0.000305005 0.000239413 0.99806 
-0.000305005 0.000239413 0.99806 
-0.000305005 0.000239413 0.99806 
-6.7973e-06 0.000231056 0.999225 
-6.7973e-06 0.000231056 0.999225 
-6.7973e-06 0.000231056 0.999225 
-6.7973e-06 0.000231056 0.999225 
-0.000150672 8.60778e-05 1.00014 
-0.000150672 8.60778e-05 1.00014 
-0.000150672 8.60778e-05 1.00014 
-0.000150672 8.60778e-05 1.00014 
0.000844462 -0.00108825 0.997647 
0.000844462 -0.00108825 0.997647 
0.000844462 -0.00108825 0.997647 
0.000844462 -0.00108825 0.997647 
0.000559059 -0.000330679 0.999849 
0.000559059 -0.000330679 0.999849 
0.000559059 -0.000330679 0.999849 
0.000559059 -0.000330679 0.999849 
-0.000470563 0.00100267 0.998986 
-0.000470563 0.00100267 0.998986 
-0.000470563 0.00100267 0.998986 
-0.000470563 0.00100267 0.998986 
0.000566231 -5.35806e-05 1.00033 
0.000566231 -5.35806e-05 1.00033 
0.000566231 -5.35806e-05 1.00033 
0.000566231 -5.35806e-05 1.00033 
-0.00016633 4.60209e-05 1.00012 
-0.00016633 4.60209e-05 1.00012 
-0.00016633 4.60209e-05 1.00012 
-0.00016633 4.60209e-05 1.00012 
-4.46013e-06 1.87877e-05 1.00008 
-4.46013e-06 1.87877e-05 1.00008 
-4.46013e-06 1.87877e-05 1.00008 
-4.46013e-06 1.87877e-05 1.00008 
4.07883e-05 7.27434e-05 1.0001 
4.07883e-05 7.27434e-05 1.0001 
4.07883e-05 7.27434e-05 1.0001 
4.07883e-05 7.27434e-05 1.0001 
0.00141525 0.00125553 0.99818 
0.00141525 0.00125553 0.99818 
0.00141525 0.00125553 0.99818 
0.00141525 0.00125553 0.99818 
1.32064e-06 1.50503e-05 1.00011 
1.32064e-06 1.50503e-05 1.00011 
1.32064e-06 1.50503e-05 1.00011 
1.32064e-06 1.50503e-05 1.00011 
0.000276282 -4.52974e-05 0.999993 
0.000276282 -4.52974e-05 0.999993 
0.000276282 -4.52974e-05 0.999993 
0.000276282 -4.52974e-05 0.999993 
-0.000468339 -8.52013e-05 1.00014 
-0.000468339 -8.52013e-05 1.00014 
-0.000468339 -8.52013e-05 1.00014 
-0.000468339 -8.52013e-05 1.00014 
0.000515984 -0.00167301 0.996012 
0.000515984 -0.00167301 0.996012 
0.000515984 -0.00167301 0.996012 
0.000515984 -0.00167301 0.996012 
2.51572e-05 -0.000157774 1.00003 
2.51572e-05 -0.000157774 1.00003 
2.51572e-05 -0.000157774 1.00003 
2.51572e-05 -0.000157774 1.00003 
-0.00032113 -0.00137427 0.998734 
-0.00032113 -0.00137427 0.998734 
-0.00032113 -0.00137427 0.998734 
-0.00032113 -0.00137427 0.998734 
2.99497e-05 2.8084e-05 1.00011 
2.99497e-05 2.8084e-05 1.00011 
2.99497e-05 2.8084e-05 1.00011 
2.99497e-05 2.8084e-05 1.00011 
0.000372314 -0.000484298 0.999792 
0.000372314 -0.000484298 0.999792 
0.000372314 -0.000484298 0.999792 
0.000372314 -0.000484298 0.999792 
-0.000511218 -0.000102103 0.99974 
-0.000511218 -0.000102103 0.99974 
-0.000511218 -0.000102103 0.99974 
-0.000511218 -0.000102103 0.99974 
-0.000474074 5.73924e-05 1.00009 
-0.000474074 5.73924e-05 1.00009 
-0.000474074 5.73924e-05 1.00009 
-0.000474074 5.73924e-05 1.00009 
-9.95144e-05 0.000533587 0.997955 
-9.95144e-05 0.000533587 0.997955 
-9.95144e-05 0.000533587 0.997955 
-9.95144e-05 0.000533587 0.997955 
1.09067e-05 1.84964e-05 1.00011 
1.09067e-05 1.84964e-05 1.00011 
1.09067e-05 1.84964e-05 1.00011 
1.09067e-05 1.84964e-05 1.00011 
-0.000528764 -0.000592492 0.999192 
-0.000528764 -0.000592492 0.999192 
-0.000528764 -0.000592492 0.999192 
-0.000528764 -0.000592492 0.999192 
-0.000583383 -0.0013246 0.998619 
-0.000583383 -0.0013246 0.998619 
-0.000583383 -0.0013246 0.998619 
-0.000583383 -0.0013246 0.998619 
0.000767252 0.000855136 0.998861 
0.000767252 0.000855136 0.998861 
0.000767252 0.000855136 0.998861 
0.000767252 0.000855136 0.998861 
0.00101504 -0.000953442 0.997326 
0.00101504 -0.000953442 0.997326 
0.00101504 -0.000953442 0.997326 
0.00101504 -0.000953442 0.997326 
-0.000193757 -0.00113442 0.997709 
-0.000193757 -0.00113442 0.997709 
-0.000193757 -0.00113442 0.997709 
-0.000193757 -0.00113442 0.997709 
0.00145328 0.000250567 0.998337 
0.00145328 0.000250567 0.998337 
0.00145328 0.000250567 0.998337 
0.00145328 0.000250567 0.998337 
0.000107454 0.000412529 0.99987 
0.000107454 0.000412529 0.99987 
0.000107454 0.000412529 0.99987 
0.000107454 0.000412529 0.99987 
-0.00157651 -0.00192973 0.998473 
-0.00157651 -0.00192973 0.998473 
-0.00157651 -0.00192973 0.998473 
-0.00157651 -0.00192973 0.998473 
-0.00171478 -0.00032851 0.998438 
-0.00171478 -0.00032851 0.998438 
-0.00171478 -0.00032851 0.998438 
-0.00171478 -0.00032851 0.998438 
0.000330634 0.000783596 0.999828 
0.000330634 0.000783596 0.999828 
0.000330634 0.000783596 0.999828 
0.000330634 0.000783596 0.999828 
0.00164778 -0.000400249 0.999119 
0.00164778 -0.000400249 0.999119 
0.00164778 -0.000400249 0.999119 
0.00164778 -0.000400249 0.999119 
-1.80539e-05 7.35568e-05 1.00014 
-1.80539e-05 7.35568e-05 1.00014 
-1.80539e-05 7.35568e-05 1.00014 
-1.80539e-05 7.35568e-05 1.00014 
-2.9007e-05 1.35564e-05 1.00012 
-2.9007e-05 1.35564e-05 1.00012 
-2.9007e-05 1.35564e-05 1.00012 
-2.9007e-05 1.35564e-05 1.00012 
0.000257262 0.000186747 0.999317 
0.000257262 0.000186747 0.999317 
0.000257262 0.000186747 0.999317 
0.000257262 0.000186747 0.999317 
-5.82449e-05 7.94012e-07 1.00013 
-5.82449e-05 7.94012e-07 1.00013 
-5.82449e-05 7.94012e-07 1.00013 
-5.82449e-05 7.94012e-07 1.00013 
-0.00115165 -0.00169626 0.997435 
-0.00115165 -0.00169626 0.997435 
-0.00115165 -0.00169626 0.997435 
-0.00115165 -0.00169626 0.997435 
-0.00065398 0.000917945 0.998036 
-0.00065398 0.000917945 0.998036 
-0.00065398 0.000917945 0.998036 
-0.00065398 0.000917945 0.998036 
0.000211338 -0.000206869 0.999965 
0.000211338 -0.000206869 0.999965 
0.000211338 -0.000206869 0.999965 
0.000211338 -0.000206869 0.999965 
0.000132931 0.000981259 0.997331 
0.000132931 0.000981259 0.997331 
0.000132931 0.000981259 0.997331 
0.000132931 0.000981259 0.997331 
4.52913e-07 4.24607e-05 1.00009 
4.52913e-07 4.24607e-05 1.00009 
4.52913e-07 4.24607e-05 1.00009 
4.52913e-07 4.24607e-05 1.00009 
-6.54242e-05 0.000596671 1 
-6.54242e-05 0.000596671 1 
-6.54242e-05 0.000596671 1 
-6.54242e-05 0.000596671 1 
0.000109125 0.000141742 1.00016 
0.000109125 0.000141742 1.00016 
0.000109125 0.000141742 1.00016 
0.000109125 0.000141742 1.00016 
-0.00132772 0.000202879 0.999624 
-0.00132772 0.000202879 0.999624 
-0.00132772 0.000202879 0.999624 
-0.00132772 0.000202879 0.999624 
0.00035802 0.00018039 0.999886 
0.00035802 0.00018039 0.999886 
0.00035802 0.00018039 0.999886 
0.00035802 0.00018039 0.999886 
-0.000285069 -0.000211091 1.00011 
-0.000285069 -0.000211091 1.00011 
-0.000285069 -0.000211091 1.00011 
-0.000285069 -0.000211091 1.00011 
-3.54889e-05 2.35174e-05 1.00011 
-3.54889e-05 2.35174e-05 1.00011 
-3.54889e-05 2.35174e-05 1.00011 
-3.54889e-05 2.35174e-05 1.00011 
-6.57498e-05 5.9693e-06 1.00023 
-6.57498e-05 5.9693e-06 1.00023 
-6.57498e-05 5.9693e-06 1.00023 
-6.57498e-05 5.9693e-06 1.00023 
0.000182403 -0.000184209 0.999897 
0.000182403 -0.000184209 0.999897 
0.000182403 -0.000184209 0.999897 
0.000182403 -0.000184209 0.999897 
0.000545247 -0.000597038 0.999706 
0.000545247 -0.000597038 0.999706 
0.000545247 -0.000597038 0.999706 
0.000545247 -0.000597038 0.999706 
0.000354666 -0.000161043 0.9997 
0.000354666 -0.000161043 0.9997 
0.000354666 -0.000161043 0.9997 
0.000354666 -0.000161043 0.9997 
0.00161912 0.000521824 0.999396 
0.00161912 0.000521824 0.999396 
0.00161912 0.000521824 0.999396 
0.00161912 0.000521824 0.999396 
0.000475153 9.69489e-06 0.999995 
0.000475153 9.69489e-06 0.999995 
0.000475153 9.69489e-06 0.999995 
0.000475153 9.69489e-06 0.999995 
-0.000313022 -0.000277852 1.00014 
-0.000313022 -0.000277852 1.00014 
-0.000313022 -0.000277852 1.00014 
-0.000313022 -0.000277852 1.00014 
0.00191457 -0.000807489 0.997237 
0.00191457 -0.000807489 0.997237 
0.00191457 -0.000807489 0.997237 
0.00191457 -0.000807489 0.997237 
0.000481616 -3.95582e-05 1.0001 
0.000481616 -3.95582e-05 1.0001 
0.000481616 -3.95582e-05 1.0001 
0.000481616 -3.95582e-05 1.0001 
-9.38315e-05 -0.000650361 1.0001 
-9.38315e-05 -0.000650361 1.0001 
-9.38315e-05 -0.000650361 1.0001 
-9.38315e-05 -0.000650361 1.0001 
9.68149e-06 -1.55257e-05 1.00012 
9.68149e-06 -1.55257e-05 1.00012 
9.68149e-06 -1.55257e-05 1.00012 
9.68149e-06 -1.55257e-05 1.00012 
1.41696e-05 -2.38676e-05 1.00014 
1.41696e-05 -2.38676e-05 1.00014 
1.41696e-05 -2.38676e-05 1.00014 
1.41696e-05 -2.38676e-05 1.00014 
0.000326799 0.000395967 1.00006 
0.000326799 0.000395967 1.00006 
0.000326799 0.000395967 1.00006 
0.000326799 0.000395967 1.00006 
-0.000429629 0.000170598 0.998048 
-0.000429629 0.000170598 0.998048 
-0.000429629 0.000170598 0.998048 
-0.000429629 0.000170598 0.998048 
-0.000666921 0.000205745 0.999961 
-0.000666921 0.000205745 0.999961 
-0.000666921 0.000205745 0.999961 
-0.000666921 0.000205745 0.999961 
0.000578426 0.000275456 0.99986 
0.000578426 0.000275456 0.99986 
0.000578426 0.000275456 0.99986 
0.000578426 0.000275456 0.99986 
0.000283039 -3.97881e-05 1.0001 
0.000283039 -3.97881e-05 1.0001 
0.000283039 -3.97881e-05 1.0001 
0.000283039 -3.97881e-05 1.0001 
-0.000250997 -0.000778205 0.999831 
-0.000250997 -0.000778205 0.999831 
-0.000250997 -0.000778205 0.999831 
-0.000250997 -0.000778205 0.999831 
0.00124579 -0.000241223 0.999624 
0.00124579 -0.000241223 0.999624 
0.00124579 -0.000241223 0.999624 
0.00124579 -0.000241223 0.999624 
-4.24306e-05 -0.000625653 1.00011 
-4.24306e-05 -0.000625653 1.00011 
-4.24306e-05 -0.000625653 1.00011 
-4.24306e-05 -0.000625653 1.00011 
-9.39407e-05 0.000966317 0.999573 
-9.39407e-05 0.000966317 0.999573 
-9.39407e-05 0.000966317 0.999573 
-9.39407e-05 0.000966317 0.999573 
-0.000468319 0.000279019 1.00005 
-0.000468319 0.000279019 1.00005 
-0.000468319 0.000279019 1.00005 
-0.000468319 0.000279019 1.00005 
-0.000385416 -0.000205587 0.998073 
-0.000385416 -0.000205587 0.998073 
-0.000385416 -0.000205587 0.998073 
-0.000385416 -0.000205587 0.998073 
-0.000269003 -0.000161295 0.999516 
-0.000269003 -0.000161295 0.999516 
-0.000269003 -0.000161295 0.999516 
-0.000269003 -0.000161295 0.999516 
-6.81655e-05 -0.000142988 0.999517 
-6.81655e-05 -0.000142988 0.999517 
-6.81655e-05 -0.000142988 0.999517 
-6.81655e-05 -0.000142988 0.999517 
-2.12832e-05 -0.000123251 0.99951 
-2.12832e-05 -0.000123251 0.99951 
-2.12832e-05 -0.000123251 0.99951 
-2.12832e-05 -0.000123251 0.99951 
0.000482409 0.000259986 0.99991 
0.000482409 0.000259986 0.99991 
0.000482409 0.000259986 0.99991 
0.000482409 0.000259986 0.99991 
-0.000573643 -0.00160065 0.99889 
-0.000573643 -0.00160065 0.99889 
-0.000573643 -0.00160065 0.99889 
-0.000573643 -0.00160065 0.99889 
-0.0010001 5.77459e-05 0.99967 
-0.0010001 5.77459e-05 0.99967 
-0.0010001 5.77459e-05 0.99967 
-0.0010001 5.77459e-05 0.99967 
0.000245229 -3.89393e-05 0.999973 
0.000245229 -3.89393e-05 0.999973 
0.000245229 -3.89393e-05 0.999973 
0.000245229 -3.89393e-05 0.999973 
0.0011831 0.00131474 0.998589 
0.0011831 0.00131474 0.998589 
0.0011831 0.00131474 0.998589 
0.0011831 0.00131474 0.998589 
-0.000107757 -0.000244309 1.00014 
-0.000107757 -0.000244309 1.00014 
-0.000107757 -0.000244309 1.00014 
-0.000107757 -0.000244309 1.00014 
0.001644 -0.00128754 0.997188 
0.001644 -0.00128754 0.997188 
0.001644 -0.00128754 0.997188 
0.001644 -0.00128754 0.997188 
-0.00117886 -0.00182231 0.997641 
-0.00117886 -0.00182231 0.997641 
-0.00117886 -0.00182231 0.997641 
-0.00117886 -0.00182231 0.997641 
-0.00141631 0.000577429 0.997706 
-0.00141631 0.000577429 0.997706 
-0.00141631 0.000577429 0.997706 
-0.00141631 0.000577429 0.997706 
-0.000351697 -0.000779337 0.9985 
-0.000351697 -0.000779337 0.9985 
-0.000351697 -0.000779337 0.9985 
-0.000351697 -0.000779337 0.9985 
-0.000688869 -0.00202309 0.997799 
-0.000688869 -0.00202309 0.997799 
-0.000688869 -0.00202309 0.997799 
-0.000688869 -0.00202309 0.997799 
-1.3041e-05 -0.000402478 0.999974 
-1.3041e-05 -0.000402478 0.999974 
-1.3041e-05 -0.000402478 0.999974 
-1.3041e-05 -0.000402478 0.999974 
0.000790786 0.000323102 0.999307 
0.000790786 0.000323102 0.999307 
0.000790786 0.000323102 0.999307 
0.000790786 0.000323102 0.999307 
0.000431431 -0.00124704 0.999083 
0.000431431 -0.00124704 0.999083 
0.000431431 -0.00124704 0.999083 
0.000431431 -0.00124704 0.999083 
-0.000365155 0.000127726 1.0001 
-0.000365155 0.000127726 1.0001 
-0.000365155 0.000127726 1.0001 
-0.000365155 0.000127726 1.0001 
-0.00124293 0.00163726 0.998703 
-0.00124293 0.00163726 0.998703 
-0.00124293 0.00163726 0.998703 
-0.00124293 0.00163726 0.998703 
-0.000149218 -0.000339535 1.00015 
-0.000149218 -0.000339535 1.00015 
-0.000149218 -0.000339535 1.00015 
-0.000149218 -0.000339535 1.00015 
-1.02129e-05 -0.000162857 0.99992 
-1.02129e-05 -0.000162857 0.99992 
-1.02129e-05 -0.000162857 0.99992 
-1.02129e-05 -0.000162857 0.99992 
-0.000148973 -0.000339126 1.00015 
-0.000148973 -0.000339126 1.00015 
-0.000148973 -0.000339126 1.00015 
-0.000148973 -0.000339126 1.00015 
0.00206563 0.00074778 0.998498 
0.00206563 0.00074778 0.998498 
0.00206563 0.00074778 0.998498 
0.00206563 0.00074778 0.998498 
-0.000114424 0.000710767 1.00021 
-0.000114424 0.000710767 1.00021 
-0.000114424 0.000710767 1.00021 
-0.000114424 0.000710767 1.00021 
-3.37033e-05 1.03287e-07 1.00013 
-3.37033e-05 1.03287e-07 1.00013 
-3.37033e-05 1.03287e-07 1.00013 
-3.37033e-05 1.03287e-07 1.00013 
-0.000347523 0.000159594 1 
-0.000347523 0.000159594 1 
-0.000347523 0.000159594 1 
-0.000347523 0.000159594 1 
0.000116258 8.93076e-05 1.00011 
0.000116258 8.93076e-05 1.00011 
0.000116258 8.93076e-05 1.00011 
0.000116258 8.93076e-05 1.00011 
-0.000176201 -0.000348067 0.999887 
-0.000176201 -0.000348067 0.999887 
-0.000176201 -0.000348067 0.999887 
-0.000176201 -0.000348067 0.999887 
-0.000967645 -0.00218588 0.997401 
-0.000967645 -0.00218588 0.997401 
-0.000967645 -0.00218588 0.997401 
-0.000967645 -0.00218588 0.997401 
0.000465984 -4.71216e-05 0.999898 
0.000465984 -4.71216e-05 0.999898 
0.000465984 -4.71216e-05 0.999898 
0.000465984 -4.71216e-05 0.999898 
-0.000127829 -0.000161308 0.99291 
-0.000127829 -0.000161308 0.99291 
-0.000127829 -0.000161308 0.99291 
-0.000127829 -0.000161308 0.99291 
-0.000581201 -0.000928543 0.999013 
-0.000581201 -0.000928543 0.999013 
-0.000581201 -0.000928543 0.999013 
-0.000581201 -0.000928543 0.999013 
-5.20035e-05 0.000287416 1.00013 
-5.20035e-05 0.000287416 1.00013 
-5.20035e-05 0.000287416 1.00013 
-5.20035e-05 0.000287416 1.00013 
-0.00110346 -0.00145482 0.998527 
-0.00110346 -0.00145482 0.998527 
-0.00110346 -0.00145482 0.998527 
-0.00110346 -0.00145482 0.998527 
0.000208748 0.000340525 1.0002 
0.000208748 0.000340525 1.0002 
0.000208748 0.000340525 1.0002 
0.000208748 0.000340525 1.0002 
0.000517517 -0.00112362 0.999315 
0.000517517 -0.00112362 0.999315 
0.000517517 -0.00112362 0.999315 
0.000517517 -0.00112362 0.999315 
-0.000170674 -8.52434e-05 1.00015 
-0.000170674 -8.52434e-05 1.00015 
-0.000170674 -8.52434e-05 1.00015 
-0.000170674 -8.52434e-05 1.00015 
-0.000277534 3.87965e-05 1.00008 
-0.000277534 3.87965e-05 1.00008 
-0.000277534 3.87965e-05 1.00008 
-0.000277534 3.87965e-05 1.00008 
0.000835844 -0.000113203 0.99935 
0.000835844 -0.000113203 0.99935 
0.000835844 -0.000113203 0.99935 
0.000835844 -0.000113203 0.99935 
0.00132354 0.000161299 0.999144 
0.00132354 0.000161299 0.999144 
0.00132354 0.000161299 0.999144 
0.00132354 0.000161299 0.999144 
-9.56817e-05 0.000284738 1.00014 
-9.56817e-05 0.000284738 1.00014 
-9.56817e-05 0.000284738 1.00014 
-9.56817e-05 0.000284738 1.00014 
9.35642e-05 -8.68996e-05 1.00012 
9.35642e-05 -8.68996e-05 1.00012 
9.35642e-05 -8.68996e-05 1.00012 
9.35642e-05 -8.68996e-05 1.00012 
-8.33532e-05 0.00104781 0.999461 
-8.33532e-05 0.00104781 0.999461 
-8.33532e-05 0.00104781 0.999461 
-8.33532e-05 0.00104781 0.999461 
0.00124763 0.000497312 0.999175 
0.00124763 0.000497312 0.999175 
0.00124763 0.000497312 0.999175 
0.00124763 0.000497312 0.999175 
0.00065409 -0.000395748 0.991214 
0.00065409 -0.000395748 0.991214 
0.00065409 -0.000395748 0.991214 
0.00065409 -0.000395748 0.991214 
0.000570786 -0.00120444 0.998797 
0.000570786 -0.00120444 0.998797 
0.000570786 -0.00120444 0.998797 
0.000570786 -0.00120444 0.998797 
0.000509739 0.000349371 0.999555 
0.000509739 0.000349371 0.999555 
0.000509739 0.000349371 0.999555 
0.000509739 0.000349371 0.999555 
-0.000316315 0.000870529 0.997517 
-0.000316315 0.000870529 0.997517 
-0.000316315 0.000870529 0.997517 
-0.000316315 0.000870529 0.997517 
0.00160668 0.000246762 0.99851 
0.00160668 0.000246762 0.99851 
0.00160668 0.000246762 0.99851 
0.00160668 0.000246762 0.99851 
-0.000356785 -0.000839198 0.999786 
-0.000356785 -0.000839198 0.999786 
-0.000356785 -0.000839198 0.999786 
-0.000356785 -0.000839198 0.999786 
-0.000374272 -0.000944003 0.998232 
-0.000374272 -0.000944003 0.998232 
-0.000374272 -0.000944003 0.998232 
-0.000374272 -0.000944003 0.998232 
-3.01576e-05 -4.55838e-05 1.00009 
-3.01576e-05 -4.55838e-05 1.00009 
-3.01576e-05 -4.55838e-05 1.00009 
-3.01576e-05 -4.55838e-05 1.00009 
0.000376653 -0.000373748 0.999735 
0.000376653 -0.000373748 0.999735 
0.000376653 -0.000373748 0.999735 
0.000376653 -0.000373748 0.999735 
-0.000246487 1.02843e-06 1.00015 
-0.000246487 1.02843e-06 1.00015 
-0.000246487 1.02843e-06 1.00015 
-0.000246487 1.02843e-06 1.00015 
0.00123261 -0.000193954 0.999618 
0.00123261 -0.000193954 0.999618 
0.00123261 -0.000193954 0.999618 
0.00123261 -0.000193954 0.999618 
0.000165341 6.74598e-05 1.00014 
0.000165341 6.74598e-05 1.00014 
0.000165341 6.74598e-05 1.00014 
0.000165341 6.74598e-05 1.00014 
4.78866e-05 -1.97716e-05 1.00007 
4.78866e-05 -1.97716e-05 1.00007 
4.78866e-05 -1.97716e-05 1.00007 
4.78866e-05 -1.97716e-05 1.00007 
-5.58434e-07 2.08742e-05 1.00009 
-5.58434e-07 2.08742e-05 1.00009 
-5.58434e-07 2.08742e-05 1.00009 
-5.58434e-07 2.08742e-05 1.00009 
-0.000184629 0.000154786 1.00013 
-0.000184629 0.000154786 1.00013 
-0.000184629 0.000154786 1.00013 
-0.000184629 0.000154786 1.00013 
-0.000491551 -0.000236094 0.999882 
-0.000491551 -0.000236094 0.999882 
-0.000491551 -0.000236094 0.999882 
-0.000491551 -0.000236094 0.999882 
-0.00118254 0.00119633 0.998566 
-0.00118254 0.00119633 0.998566 
-0.00118254 0.00119633 0.998566 
-0.00118254 0.00119633 0.998566 
0.000640531 0.000576332 0.999796 
0.000640531 0.000576332 0.999796 
0.000640531 0.000576332 0.999796 
0.000640531 0.000576332 0.999796 
0.000501759 0.000286775 0.999971 
0.000501759 0.000286775 0.999971 
0.000501759 0.000286775 0.999971 
0.000501759 0.000286775 0.999971 
8.07834e-05 -0.000771154 0.998005 
8.07834e-05 -0.000771154 0.998005 
8.07834e-05 -0.000771154 0.998005 
8.07834e-05 -0.000771154 0.998005 
0.000562602 -0.001134 0.999338 
0.000562602 -0.001134 0.999338 
0.000562602 -0.001134 0.999338 
0.000562602 -0.001134 0.999338 
-1.40092e-05 -0.00103012 0.999684 
-1.40092e-05 -0.00103012 0.999684 
-1.40092e-05 -0.00103012 0.999684 
-1.40092e-05 -0.00103012 0.999684 
-1.3922e-05 -0.000319035 1.00014 
-1.3922e-05 -0.000319035 1.00014 
-1.3922e-05 -0.000319035 1.00014 
-1.3922e-05 -0.000319035 1.00014 
-0.000104488 4.02832e-05 1.00015 
-0.000104488 4.02832e-05 1.00015 
-0.000104488 4.02832e-05 1.00015 
-0.000104488 4.02832e-05 1.00015 
0.000190489 0.00126334 0.998976 
0.000190489 0.00126334 0.998976 
0.000190489 0.00126334 0.998976 
0.000190489 0.00126334 0.998976 
-0.00104507 0.00147765 0.998057 
-0.00104507 0.00147765 0.998057 
-0.00104507 0.00147765 0.998057 
-0.00104507 0.00147765 0.998057 
-0.000556974 0.000987294 0.999588 
-0.000556974 0.000987294 0.999588 
-0.000556974 0.000987294 0.999588 
-0.000556974 0.000987294 0.999588 
0.00172103 -0.00103536 0.996375 
0.00172103 -0.00103536 0.996375 
0.00172103 -0.00103536 0.996375 
0.00172103 -0.00103536 0.996375 
2.6914e-05 7.49017e-06 1.00012 
2.6914e-05 7.49017e-06 1.00012 
2.6914e-05 7.49017e-06 1.00012 
2.6914e-05 7.49017e-06 1.00012 
-0.000704447 -0.000770765 0.998199 
-0.000704447 -0.000770765 0.998199 
-0.000704447 -0.000770765 0.998199 
-0.000704447 -0.000770765 0.998199 
-0.000245436 -0.000797627 0.999831 
-0.000245436 -0.000797627 0.999831 
-0.000245436 -0.000797627 0.999831 
-0.000245436 -0.000797627 0.999831 
0.000188794 -0.00010365 0.999982 
0.000188794 -0.00010365 0.999982 
0.000188794 -0.00010365 0.999982 
0.000188794 -0.00010365 0.999982 
0.000215734 -0.00023055 0.99099 
0.000215734 -0.00023055 0.99099 
0.000215734 -0.00023055 0.99099 
0.000215734 -0.00023055 0.99099 
0.000202397 -0.000105193 1.00013 
0.000202397 -0.000105193 1.00013 
0.000202397 -0.000105193 1.00013 
0.000202397 -0.000105193 1.00013 
-1.12493e-06 1.3442e-05 1.00008 
-1.12493e-06 1.3442e-05 1.00008 
-1.12493e-06 1.3442e-05 1.00008 
-1.12493e-06 1.3442e-05 1.00008 
-0.000209332 0.00020656 0.999834 
-0.000209332 0.00020656 0.999834 
-0.000209332 0.00020656 0.999834 
-0.000209332 0.00020656 0.999834 
-0.000205125 0.000121629 1.00011 
-0.000205125 0.000121629 1.00011 
-0.000205125 0.000121629 1.00011 
-0.000205125 0.000121629 1.00011 
-0.000538415 0.00103482 0.999586 
-0.000538415 0.00103482 0.999586 
-0.000538415 0.00103482 0.999586 
-0.000538415 0.00103482 0.999586 
-8.98065e-05 2.27095e-06 1.00017 
-8.98065e-05 2.27095e-06 1.00017 
-8.98065e-05 2.27095e-06 1.00017 
-8.98065e-05 2.27095e-06 1.00017 
-6.01631e-05 0.000102757 1.00018 
-6.01631e-05 0.000102757 1.00018 
-6.01631e-05 0.000102757 1.00018 
-6.01631e-05 0.000102757 1.00018 
3.40467e-05 0.000190698 0.999869 
3.40467e-05 0.000190698 0.999869 
3.40467e-05 0.000190698 0.999869 
3.40467e-05 0.000190698 0.999869 
-1.15065e-05 1.9266e-05 1.00008 
-1.15065e-05 1.9266e-05 1.00008 
-1.15065e-05 1.9266e-05 1.00008 
-1.15065e-05 1.9266e-05 1.00008 
0.000918019 0.00141258 0.998565 
0.000918019 0.00141258 0.998565 
0.000918019 0.00141258 0.998565 
0.000918019 0.00141258 0.998565 
-0.000654652 -5.48525e-05 0.999523 
-0.000654652 -5.48525e-05 0.999523 
-0.000654652 -5.48525e-05 0.999523 
-0.000654652 -5.48525e-05 0.999523 
0.000700444 -0.00119941 0.991212 
0.000700444 -0.00119941 0.991212 
0.000700444 -0.00119941 0.991212 
0.000700444 -0.00119941 0.991212 
-0.00196269 -0.000443839 0.999087 
-0.00196269 -0.000443839 0.999087 
-0.00196269 -0.000443839 0.999087 
-0.00196269 -0.000443839 0.999087 
-0.000919858 0.000225958 0.998132 
-0.000919858 0.000225958 0.998132 
-0.000919858 0.000225958 0.998132 
-0.000919858 0.000225958 0.998132 
0.000608182 0.000595555 0.998323 
0.000608182 0.000595555 0.998323 
0.000608182 0.000595555 0.998323 
0.000608182 0.000595555 0.998323 
-0.000420075 6.39644e-05 0.999541 
-0.000420075 6.39644e-05 0.999541 
-0.000420075 6.39644e-05 0.999541 
-0.000420075 6.39644e-05 0.999541 
2.58848e-05 -0.000684271 0.991221 
2.58848e-05 -0.000684271 0.991221 
2.58848e-05 -0.000684271 0.991221 
2.58848e-05 -0.000684271 0.991221 
-0.000851476 8.0998e-05 0.997747 
-0.000851476 8.0998e-05 0.997747 
-0.000851476 8.0998e-05 0.997747 
-0.000851476 8.0998e-05 0.997747 
0.00013817 -0.000240736 1.00008 
0.00013817 -0.000240736 1.00008 
0.00013817 -0.000240736 1.00008 
0.00013817 -0.000240736 1.00008 
0.00010156 -0.000233348 0.993993 
0.00010156 -0.000233348 0.993993 
0.00010156 -0.000233348 0.993993 
0.00010156 -0.000233348 0.993993 
0.000303073 0.00133337 0.999087 
0.000303073 0.00133337 0.999087 
0.000303073 0.00133337 0.999087 
0.000303073 0.00133337 0.999087 
1.57874e-05 -6.2845e-05 0.992133 
1.57874e-05 -6.2845e-05 0.992133 
1.57874e-05 -6.2845e-05 0.992133 
1.57874e-05 -6.2845e-05 0.992133 
1.31612e-05 -3.79536e-05 1.00019 
1.31612e-05 -3.79536e-05 1.00019 
1.31612e-05 -3.79536e-05 1.00019 
1.31612e-05 -3.79536e-05 1.00019 
0.00106259 -0.000685035 0.998995 
0.00106259 -0.000685035 0.998995 
0.00106259 -0.000685035 0.998995 
0.00106259 -0.000685035 0.998995 
0.00121951 -0.000790123 0.999192 
0.00121951 -0.000790123 0.999192 
0.00121951 -0.000790123 0.999192 
0.00121951 -0.000790123 0.999192 
0.000210373 -0.00039431 0.998803 
0.000210373 -0.00039431 0.998803 
0.000210373 -0.00039431 0.998803 
0.000210373 -0.00039431 0.998803 
0.00106127 0.00129051 0.99856 
0.00106127 0.00129051 0.99856 
0.00106127 0.00129051 0.99856 
0.00106127 0.00129051 0.99856 
-0.000642432 -0.000979284 0.999766 
-0.000642432 -0.000979284 0.999766 
-0.000642432 -0.000979284 0.999766 
-0.000642432 -0.000979284 0.999766 
-8.45881e-05 0.000309404 0.999932 
-8.45881e-05 0.000309404 0.999932 
-8.45881e-05 0.000309404 0.999932 
-8.45881e-05 0.000309404 0.999932 
1.28262e-06 6.17034e-05 1.00004 
1.28262e-06 6.17034e-05 1.00004 
1.28262e-06 6.17034e-05 1.00004 
1.28262e-06 6.17034e-05 1.00004 
0.00023904 -0.00022381 1.00012 
0.00023904 -0.00022381 1.00012 
0.00023904 -0.00022381 1.00012 
0.00023904 -0.00022381 1.00012 
0.00021131 8.26972e-05 0.990018 
0.00021131 8.26972e-05 0.990018 
0.00021131 8.26972e-05 0.990018 
0.00021131 8.26972e-05 0.990018 
-2.94745e-05 0.000500265 0.99823 
-2.94745e-05 0.000500265 0.99823 
-2.94745e-05 0.000500265 0.99823 
-2.94745e-05 0.000500265 0.99823 
3.83091e-05 -4.07666e-05 1.00015 
3.83091e-05 -4.07666e-05 1.00015 
3.83091e-05 -4.07666e-05 1.00015 
3.83091e-05 -4.07666e-05 1.00015 
-8.94664e-05 -0.000191236 0.991434 
-8.94664e-05 -0.000191236 0.991434 
-8.94664e-05 -0.000191236 0.991434 
-8.94664e-05 -0.000191236 0.991434 
0.000706723 0.000998615 0.999755 
0.000706723 0.000998615 0.999755 
0.000706723 0.000998615 0.999755 
0.000706723 0.000998615 0.999755 
0.000729199 0.000952286 0.999756 
0.000729199 0.000952286 0.999756 
0.000729199 0.000952286 0.999756 
0.000729199 0.000952286 0.999756 
-0.000144154 -7.0736e-05 0.991525 
-0.000144154 -7.0736e-05 0.991525 
-0.000144154 -7.0736e-05 0.991525 
-0.000144154 -7.0736e-05 0.991525 
-0.000532951 0.000715186 0.991797 
-0.000532951 0.000715186 0.991797 
-0.000532951 0.000715186 0.991797 
-0.000532951 0.000715186 0.991797 
-0.000687265 0.000156575 0.999745 
-0.000687265 0.000156575 0.999745 
-0.000687265 0.000156575 0.999745 
-0.000687265 0.000156575 0.999745 
-0.00154835 -0.00103103 0.998356 
-0.00154835 -0.00103103 0.998356 
-0.00154835 -0.00103103 0.998356 
-0.00154835 -0.00103103 0.998356 
0.000369283 -5.71401e-05 1.00005 
0.000369283 -5.71401e-05 1.00005 
0.000369283 -5.71401e-05 1.00005 
0.000369283 -5.71401e-05 1.00005 
0.000294431 0.000710179 0.999865 
0.000294431 0.000710179 0.999865 
0.000294431 0.000710179 0.999865 
0.000294431 0.000710179 0.999865 
-5.93623e-05 0.000931039 0.999683 
-5.93623e-05 0.000931039 0.999683 
-5.93623e-05 0.000931039 0.999683 
-5.93623e-05 0.000931039 0.999683 
-6.31354e-05 -6.1822e-05 0.994067 
-6.31354e-05 -6.1822e-05 0.994067 
-6.31354e-05 -6.1822e-05 0.994067 
-6.31354e-05 -6.1822e-05 0.994067 
6.34889e-05 0.000381416 0.999862 
6.34889e-05 0.000381416 0.999862 
6.34889e-05 0.000381416 0.999862 
6.34889e-05 0.000381416 0.999862 
-0.000679806 -0.000934056 0.99978 
-0.000679806 -0.000934056 0.99978 
-0.000679806 -0.000934056 0.99978 
-0.000679806 -0.000934056 0.99978 
3.80849e-05 3.23547e-05 1.00008 
3.80849e-05 3.23547e-05 1.00008 
3.80849e-05 3.23547e-05 1.00008 
3.80849e-05 3.23547e-05 1.00008 
-5.66188e-05 -0.000735653 0.9993 
-5.66188e-05 -0.000735653 0.9993 
-5.66188e-05 -0.000735653 0.9993 
-5.66188e-05 -0.000735653 0.9993 
-0.00126012 9.15658e-05 0.998277 
-0.00126012 9.15658e-05 0.998277 
-0.00126012 9.15658e-05 0.998277 
-0.00126012 9.15658e-05 0.998277 
0.00064783 -0.00115673 0.991752 
0.00064783 -0.00115673 0.991752 
0.00064783 -0.00115673 0.991752 
0.00064783 -0.00115673 0.991752 
1.42916e-05 -2.54814e-05 1.00014 
1.42916e-05 -2.54814e-05 1.00014 
1.42916e-05 -2.54814e-05 1.00014 
1.42916e-05 -2.54814e-05 1.00014 
0.000429578 3.60867e-05 0.998217 
0.000429578 3.60867e-05 0.998217 
0.000429578 3.60867e-05 0.998217 
0.000429578 3.60867e-05 0.998217 
0.000562028 2.74772e-05 0.999992 
0.000562028 2.74772e-05 0.999992 
0.000562028 2.74772e-05 0.999992 
0.000562028 2.74772e-05 0.999992 
4.5548e-05 3.53243e-05 1.00014 
4.5548e-05 3.53243e-05 1.00014 
4.5548e-05 3.53243e-05 1.00014 
4.5548e-05 3.53243e-05 1.00014 
0.00136148 8.00443e-05 0.999198 
0.00136148 8.00443e-05 0.999198 
0.00136148 8.00443e-05 0.999198 
0.00136148 8.00443e-05 0.999198 
-3.18613e-05 -0.000641412 0.999532 
-3.18613e-05 -0.000641412 0.999532 
-3.18613e-05 -0.000641412 0.999532 
-3.18613e-05 -0.000641412 0.999532 
-0.000382716 0.000221684 1.00011 
-0.000382716 0.000221684 1.00011 
-0.000382716 0.000221684 1.00011 
-0.000382716 0.000221684 1.00011 
0.000568955 2.51092e-05 0.999991 
0.000568955 2.51092e-05 0.999991 
0.000568955 2.51092e-05 0.999991 
0.000568955 2.51092e-05 0.999991 
0.000537474 -0.000458465 0.99265 
0.000537474 -0.000458465 0.99265 
0.000537474 -0.000458465 0.99265 
0.000537474 -0.000458465 0.99265 
0.00122706 0.000537582 0.999175 
0.00122706 0.000537582 0.999175 
0.00122706 0.000537582 0.999175 
0.00122706 0.000537582 0.999175 
4.64069e-07 3.10453e-05 1.00011 
4.64069e-07 3.10453e-05 1.00011 
4.64069e-07 3.10453e-05 1.00011 
4.64069e-07 3.10453e-05 1.00011 
-0.000867577 -0.000976672 0.990355 
-0.000867577 -0.000976672 0.990355 
-0.000867577 -0.000976672 0.990355 
-0.000867577 -0.000976672 0.990355 
-0.000532287 0.000271807 0.998263 
-0.000532287 0.000271807 0.998263 
-0.000532287 0.000271807 0.998263 
-0.000532287 0.000271807 0.998263 
-0.0011008 0.00116729 0.991083 
-0.0011008 0.00116729 0.991083 
-0.0011008 0.00116729 0.991083 
-0.0011008 0.00116729 0.991083 
-4.5984e-05 -0.00176556 0.998624 
-4.5984e-05 -0.00176556 0.998624 
-4.5984e-05 -0.00176556 0.998624 
-4.5984e-05 -0.00176556 0.998624 
-0.000420336 -0.000201593 0.992139 
-0.000420336 -0.000201593 0.992139 
-0.000420336 -0.000201593 0.992139 
-0.000420336 -0.000201593 0.992139 
0.00108522 0.00106513 0.990874 
0.00108522 0.00106513 0.990874 
0.00108522 0.00106513 0.990874 
0.00108522 0.00106513 0.990874 
0.000527832 0.000121804 0.999948 
0.000527832 0.000121804 0.999948 
0.000527832 0.000121804 0.999948 
0.000527832 0.000121804 0.999948 
-7.84231e-05 0.000242676 1.00005 
-7.84231e-05 0.000242676 1.00005 
-7.84231e-05 0.000242676 1.00005 
-7.84231e-05 0.000242676 1.00005 
0.000250598 -0.0005744 1.00001 
0.000250598 -0.0005744 1.00001 
0.000250598 -0.0005744 1.00001 
0.000250598 -0.0005744 1.00001 
-0.00117508 0.000928725 0.988658 
-0.00117508 0.000928725 0.988658 
-0.00117508 0.000928725 0.988658 
-0.00117508 0.000928725 0.988658 
-4.15263e-07 1.40673e-05 1.00009 
-4.15263e-07 1.40673e-05 1.00009 
-4.15263e-07 1.40673e-05 1.00009 
-4.15263e-07 1.40673e-05 1.00009 
4.01926e-06 1.3386e-05 0.999955 
4.01926e-06 1.3386e-05 0.999955 
4.01926e-06 1.3386e-05 0.999955 
4.01926e-06 1.3386e-05 0.999955 
-0.000111012 0.00058481 0.991737 
-0.000111012 0.00058481 0.991737 
-0.000111012 0.00058481 0.991737 
-0.000111012 0.00058481 0.991737 
0.0003348 0.000286468 0.998531 
0.0003348 0.000286468 0.998531 
0.0003348 0.000286468 0.998531 
0.0003348 0.000286468 0.998531 
0.000404673 0.000520925 0.99798 
0.000404673 0.000520925 0.99798 
0.000404673 0.000520925 0.99798 
0.000404673 0.000520925 0.99798 
0.000308794 0.000185618 0.990821 
0.000308794 0.000185618 0.990821 
0.000308794 0.000185618 0.990821 
0.000308794 0.000185618 0.990821 
-0.000105917 -0.00076475 0.99798 
-0.000105917 -0.00076475 0.99798 
-0.000105917 -0.00076475 0.99798 
-0.000105917 -0.00076475 0.99798 
0.000359685 0.000322346 0.999913 
0.000359685 0.000322346 0.999913 
0.000359685 0.000322346 0.999913 
0.000359685 0.000322346 0.999913 
-9.11583e-05 -0.000749146 0.998703 
-9.11583e-05 -0.000749146 0.998703 
-9.11583e-05 -0.000749146 0.998703 
-9.11583e-05 -0.000749146 0.998703 
-0.000136596 0.000103689 0.99821 
-0.000136596 0.000103689 0.99821 
-0.000136596 0.000103689 0.99821 
-0.000136596 0.000103689 0.99821 
4.72614e-05 -8.88192e-05 0.99219 
4.72614e-05 -8.88192e-05 0.99219 
4.72614e-05 -8.88192e-05 0.99219 
4.72614e-05 -8.88192e-05 0.99219 
0.00154893 0.000171448 0.990441 
0.00154893 0.000171448 0.990441 
0.00154893 0.000171448 0.990441 
0.00154893 0.000171448 0.990441 
-1.07765e-05 1.7755e-05 1.0001 
-1.07765e-05 1.7755e-05 1.0001 
-1.07765e-05 1.7755e-05 1.0001 
-1.07765e-05 1.7755e-05 1.0001 
0.000876433 0.00121795 0.989213 
0.000876433 0.00121795 0.989213 
0.000876433 0.00121795 0.989213 
0.000876433 0.00121795 0.989213 
0.000190962 0.0014009 0.988659 
0.000190962 0.0014009 0.988659 
0.000190962 0.0014009 0.988659 
0.000190962 0.0014009 0.988659 
0.000157594 -0.000381821 0.999763 
0.000157594 -0.000381821 0.999763 
0.000157594 -0.000381821 0.999763 
0.000157594 -0.000381821 0.999763 
-8.72906e-06 1.97709e-06 1.0001 
-8.72906e-06 1.97709e-06 1.0001 
-8.72906e-06 1.97709e-06 1.0001 
-8.72906e-06 1.97709e-06 1.0001 
-0.00134335 -0.000947306 0.998708 
-0.00134335 -0.000947306 0.998708 
-0.00134335 -0.000947306 0.998708 
-0.00134335 -0.000947306 0.998708 
-0.00120931 0.000546254 0.999193 
-0.00120931 0.000546254 0.999193 
-0.00120931 0.000546254 0.999193 
-0.00120931 0.000546254 0.999193 
0.00012506 0.000283694 0.988962 
0.00012506 0.000283694 0.988962 
0.00012506 0.000283694 0.988962 
0.00012506 0.000283694 0.988962 
0.000192425 0.00129717 0.990075 
0.000192425 0.00129717 0.990075 
0.000192425 0.00129717 0.990075 
0.000192425 0.00129717 0.990075 
0.000148505 -0.000208693 0.991411 
0.000148505 -0.000208693 0.991411 
0.000148505 -0.000208693 0.991411 
0.000148505 -0.000208693 0.991411 
-0.000283005 0.000490593 0.999667 
-0.000283005 0.000490593 0.999667 
-0.000283005 0.000490593 0.999667 
-0.000283005 0.000490593 0.999667 
-5.20922e-05 -0.000368265 0.999949 
-5.20922e-05 -0.000368265 0.999949 
-5.20922e-05 -0.000368265 0.999949 
-5.20922e-05 -0.000368265 0.999949 
0.00101676 0.00123427 0.998546 
0.00101676 0.00123427 0.998546 
0.00101676 0.00123427 0.998546 
0.00101676 0.00123427 0.998546 
0.00038219 0.00132961 0.999105 
0.00038219 0.00132961 0.999105 
0.00038219 0.00132961 0.999105 
0.00038219 0.00132961 0.999105 
-0.00018719 -0.000388641 0.999961 
-0.00018719 -0.000388641 0.999961 
-0.00018719 -0.000388641 0.999961 
-0.00018719 -0.000388641 0.999961 
9.13216e-05 0.000466666 0.999821 
9.13216e-05 0.000466666 0.999821 
9.13216e-05 0.000466666 0.999821 
9.13216e-05 0.000466666 0.999821 
-7.86035e-07 1.63971e-05 1.00008 
-7.86035e-07 1.63971e-05 1.00008 
-7.86035e-07 1.63971e-05 1.00008 
-7.86035e-07 1.63971e-05 1.00008 
0.00068834 0.000681861 0.998867 
0.00068834 0.000681861 0.998867 
0.00068834 0.000681861 0.998867 
0.00068834 0.000681861 0.998867 
-0.000213074 0.000108953 0.991865 
-0.000213074 0.000108953 0.991865 
-0.000213074 0.000108953 0.991865 
-0.000213074 0.000108953 0.991865 
-1.09315e-05 2.21349e-06 1.0001 
-1.09315e-05 2.21349e-06 1.0001 
-1.09315e-05 2.21349e-06 1.0001 
-1.09315e-05 2.21349e-06 1.0001 
-0.000564272 0.000132489 0.998873 
-0.000564272 0.000132489 0.998873 
-0.000564272 0.000132489 0.998873 
-0.000564272 0.000132489 0.998873 
0.00122504 -0.000155401 0.99147 
0.00122504 -0.000155401 0.99147 
0.00122504 -0.000155401 0.99147 
0.00122504 -0.000155401 0.99147 
0.000627542 -4.78157e-05 0.999538 
0.000627542 -4.78157e-05 0.999538 
0.000627542 -4.78157e-05 0.999538 
0.000627542 -4.78157e-05 0.999538 
-0.000134708 -4.15353e-05 0.999989 
-0.000134708 -4.15353e-05 0.999989 
-0.000134708 -4.15353e-05 0.999989 
-0.000134708 -4.15353e-05 0.999989 
0.000344855 0.000113279 1.00005 
0.000344855 0.000113279 1.00005 
0.000344855 0.000113279 1.00005 
0.000344855 0.000113279 1.00005 
-0.000202378 0.000552761 0.990017 
-0.000202378 0.000552761 0.990017 
-0.000202378 0.000552761 0.990017 
-0.000202378 0.000552761 0.990017 
-0.000305799 0.000501601 0.997909 
-0.000305799 0.000501601 0.997909 
-0.000305799 0.000501601 0.997909 
-0.000305799 0.000501601 0.997909 
0.00118776 0.00105861 0.991497 
0.00118776 0.00105861 0.991497 
0.00118776 0.00105861 0.991497 
0.00118776 0.00105861 0.991497 
2.83692e-05 -0.000138551 1.00017 
2.83692e-05 -0.000138551 1.00017 
2.83692e-05 -0.000138551 1.00017 
2.83692e-05 -0.000138551 1.00017 
9.44575e-05 0.000484362 1.00004 
9.44575e-05 0.000484362 1.00004 
9.44575e-05 0.000484362 1.00004 
9.44575e-05 0.000484362 1.00004 
0.00091459 -0.000207105 0.999502 
0.00091459 -0.000207105 0.999502 
0.00091459 -0.000207105 0.999502 
0.00091459 -0.000207105 0.999502 
0.00114439 -0.000686867 0.991543 
0.00114439 -0.000686867 0.991543 
0.00114439 -0.000686867 0.991543 
0.00114439 -0.000686867 0.991543 
0.000276184 -0.000348312 0.999649 
0.000276184 -0.000348312 0.999649 
0.000276184 -0.000348312 0.999649 
0.000276184 -0.000348312 0.999649 
0.0015042 9.18404e-05 0.999248 
0.0015042 9.18404e-05 0.999248 
0.0015042 9.18404e-05 0.999248 
0.0015042 9.18404e-05 0.999248 
-0.00137215 0.000140275 0.991346 
-0.00137215 0.000140275 0.991346 
-0.00137215 0.000140275 0.991346 
-0.00137215 0.000140275 0.991346 
-0.000169941 -0.000235339 1.00013 
-0.000169941 -0.000235339 1.00013 
-0.000169941 -0.000235339 1.00013 
-0.000169941 -0.000235339 1.00013 
0.000659176 0.000294006 0.998359 
0.000659176 0.000294006 0.998359 
0.000659176 0.000294006 0.998359 
0.000659176 0.000294006 0.998359 
-0.00131083 0.00101123 0.990242 
-0.00131083 0.00101123 0.990242 
-0.00131083 0.00101123 0.990242 
-0.00131083 0.00101123 0.990242 
-0.000408388 -0.00122143 0.991369 
-0.000408388 -0.00122143 0.991369 
-0.000408388 -0.00122143 0.991369 
-0.000408388 -0.00122143 0.991369 
8.61401e-05 -0.000147018 0.990496 
8.61401e-05 -0.000147018 0.990496 
8.61401e-05 -0.000147018 0.990496 
8.61401e-05 -0.000147018 0.990496 
3.70782e-05 -0.000381463 0.999952 
3.70782e-05 -0.000381463 0.999952 
3.70782e-05 -0.000381463 0.999952 
3.70782e-05 -0.000381463 0.999952 
0.000364552 -5.19772e-06 0.988783 
0.000364552 -5.19772e-06 0.988783 
0.000364552 -5.19772e-06 0.988783 
0.000364552 -5.19772e-06 0.988783 
0.000588475 -0.000514205 0.999266 
0.000588475 -0.000514205 0.999266 
0.000588475 -0.000514205 0.999266 
0.000588475 -0.000514205 0.999266 
0.000114471 3.23639e-05 0.989034 
0.000114471 3.23639e-05 0.989034 
0.000114471 3.23639e-05 0.989034 
0.000114471 3.23639e-05 0.989034 
4.20169e-05 1.54993e-05 1.00011 
4.20169e-05 1.54993e-05 1.00011 
4.20169e-05 1.54993e-05 1.00011 
4.20169e-05 1.54993e-05 1.00011 
0.00153084 8.74975e-05 0.999247 
0.00153084 8.74975e-05 0.999247 
0.00153084 8.74975e-05 0.999247 
0.00153084 8.74975e-05 0.999247 
-0.00157859 -0.000454535 0.9912 
-0.00157859 -0.000454535 0.9912 
-0.00157859 -0.000454535 0.9912 
-0.00157859 -0.000454535 0.9912 
-0.000678757 -0.000939708 0.99978 
-0.000678757 -0.000939708 0.99978 
-0.000678757 -0.000939708 0.99978 
-0.000678757 -0.000939708 0.99978 
-0.00103079 7.58124e-06 0.999867 
-0.00103079 7.58124e-06 0.999867 
-0.00103079 7.58124e-06 0.999867 
-0.00103079 7.58124e-06 0.999867 
0.000412992 -9.68556e-05 0.999832 
0.000412992 -9.68556e-05 0.999832 
0.000412992 -9.68556e-05 0.999832 
0.000412992 -9.68556e-05 0.999832 
0.000415767 0.000303769 1.00002 
0.000415767 0.000303769 1.00002 
0.000415767 0.000303769 1.00002 
0.000415767 0.000303769 1.00002 
0.000132395 0.000135497 0.988649 
0.000132395 0.000135497 0.988649 
0.000132395 0.000135497 0.988649 
0.000132395 0.000135497 0.988649 
8.55777e-05 -0.000196221 0.99057 
8.55777e-05 -0.000196221 0.99057 
8.55777e-05 -0.000196221 0.99057 
8.55777e-05 -0.000196221 0.99057 
0.000669299 0.000151536 0.999949 
0.000669299 0.000151536 0.999949 
0.000669299 0.000151536 0.999949 
0.000669299 0.000151536 0.999949 
0.000142526 -0.000864102 0.999598 
0.000142526 -0.000864102 0.999598 
0.000142526 -0.000864102 0.999598 
0.000142526 -0.000864102 0.999598 
0.000165988 0.000247853 1.0001 
0.000165988 0.000247853 1.0001 
0.000165988 0.000247853 1.0001 
0.000165988 0.000247853 1.0001 
0.000147826 -0.00090876 0.999602 
0.000147826 -0.00090876 0.999602 
0.000147826 -0.00090876 0.999602 
0.000147826 -0.00090876 0.999602 
-0.000835878 0.00119483 0.990773 
-0.000835878 0.00119483 0.990773 
-0.000835878 0.00119483 0.990773 
-0.000835878 0.00119483 0.990773 
-5.90086e-05 0.000187603 0.99224 
-5.90086e-05 0.000187603 0.99224 
-5.90086e-05 0.000187603 0.99224 
-5.90086e-05 0.000187603 0.99224 
0.000762983 -0.00097365 0.991063 
0.000762983 -0.00097365 0.991063 
0.000762983 -0.00097365 0.991063 
0.000762983 -0.00097365 0.991063 
0.000221393 0.000143303 1.00004 
0.000221393 0.000143303 1.00004 
0.000221393 0.000143303 1.00004 
0.000221393 0.000143303 1.00004 
-0.000492406 0.000244109 0.99985 
-0.000492406 0.000244109 0.99985 
-0.000492406 0.000244109 0.99985 
-0.000492406 0.000244109 0.99985 
0.000946715 -2.1591e-05 0.999649 
0.000946715 -2.1591e-05 0.999649 
0.000946715 -2.1591e-05 0.999649 
0.000946715 -2.1591e-05 0.999649 
-0.000876753 0.0002577 0.999829 
-0.000876753 0.0002577 0.999829 
-0.000876753 0.0002577 0.999829 
-0.000876753 0.0002577 0.999829 
0.000198757 0.00047377 0.991089 
0.000198757 0.00047377 0.991089 
0.000198757 0.00047377 0.991089 
0.000198757 0.00047377 0.991089 
0.000470129 0.000298723 1.00002 
0.000470129 0.000298723 1.00002 
0.000470129 0.000298723 1.00002 
0.000470129 0.000298723 1.00002 
-0.000143246 6.5837e-05 0.989388 
-0.000143246 6.5837e-05 0.989388 
-0.000143246 6.5837e-05 0.989388 
-0.000143246 6.5837e-05 0.989388 
2.62949e-05 -0.000145187 0.99149 
2.62949e-05 -0.000145187 0.99149 
2.62949e-05 -0.000145187 0.99149 
2.62949e-05 -0.000145187 0.99149 
-0.000664764 0.00181394 0.990347 
-0.000664764 0.00181394 0.990347 
-0.000664764 0.00181394 0.990347 
-0.000664764 0.00181394 0.990347 
0.00083909 0.000816545 0.990939 
0.00083909 0.000816545 0.990939 
0.00083909 0.000816545 0.990939 
0.00083909 0.000816545 0.990939 
-9.89534e-06 -2.42178e-05 1.00012 
-9.89534e-06 -2.42178e-05 1.00012 
-9.89534e-06 -2.42178e-05 1.00012 
-9.89534e-06 -2.42178e-05 1.00012 
0.000307993 0.000155072 0.999611 
0.000307993 0.000155072 0.999611 
0.000307993 0.000155072 0.999611 
0.000307993 0.000155072 0.999611 
5.12976e-05 -3.89526e-05 1.00014 
5.12976e-05 -3.89526e-05 1.00014 
5.12976e-05 -3.89526e-05 1.00014 
5.12976e-05 -3.89526e-05 1.00014 
0.000515969 -0.000588478 0.999719 
0.000515969 -0.000588478 0.999719 
0.000515969 -0.000588478 0.999719 
0.000515969 -0.000588478 0.999719 
-1.38239e-05 -3.26986e-05 1.00013 
-1.38239e-05 -3.26986e-05 1.00013 
-1.38239e-05 -3.26986e-05 1.00013 
-1.38239e-05 -3.26986e-05 1.00013 
4.4119e-05 -9.01625e-05 1.00006 
4.4119e-05 -9.01625e-05 1.00006 
4.4119e-05 -9.01625e-05 1.00006 
4.4119e-05 -9.01625e-05 1.00006 
0.000530932 -0.000617435 0.999727 
0.000530932 -0.000617435 0.999727 
0.000530932 -0.000617435 0.999727 
0.000530932 -0.000617435 0.999727 
0.000360797 -0.000213302 0.991886 
0.000360797 -0.000213302 0.991886 
0.000360797 -0.000213302 0.991886 
0.000360797 -0.000213302 0.991886 
-0.00178099 0.000702165 0.990725 
-0.00178099 0.000702165 0.990725 
-0.00178099 0.000702165 0.990725 
-0.00178099 0.000702165 0.990725 
-0.000157499 -0.000452778 0.999883 
-0.000157499 -0.000452778 0.999883 
-0.000157499 -0.000452778 0.999883 
-0.000157499 -0.000452778 0.999883 
-0.000117176 -0.000207434 0.999446 
-0.000117176 -0.000207434 0.999446 
-0.000117176 -0.000207434 0.999446 
-0.000117176 -0.000207434 0.999446 
-0.00149117 -0.000303244 0.990567 
-0.00149117 -0.000303244 0.990567 
-0.00149117 -0.000303244 0.990567 
-0.00149117 -0.000303244 0.990567 
0.00111455 -0.00118346 0.990686 
0.00111455 -0.00118346 0.990686 
0.00111455 -0.00118346 0.990686 
0.00111455 -0.00118346 0.990686 
-0.000914392 0.000252524 0.990019 
-0.000914392 0.000252524 0.990019 
-0.000914392 0.000252524 0.990019 
-0.000914392 0.000252524 0.990019 
0.000205207 0.000288601 0.999998 
0.000205207 0.000288601 0.999998 
0.000205207 0.000288601 0.999998 
0.000205207 0.000288601 0.999998 
0.000442905 -0.000144528 0.999825 
0.000442905 -0.000144528 0.999825 
0.000442905 -0.000144528 0.999825 
0.000442905 -0.000144528 0.999825 
-1.26834e-05 -0.00187695 0.990179 
-1.26834e-05 -0.00187695 0.990179 
-1.26834e-05 -0.00187695 0.990179 
-1.26834e-05 -0.00187695 0.990179 
-9.98052e-07 -9.20361e-06 1.0001 
-9.98052e-07 -9.20361e-06 1.0001 
-9.98052e-07 -9.20361e-06 1.0001 
-9.98052e-07 -9.20361e-06 1.0001 
0.000345856 3.6939e-05 0.999589 
0.000345856 3.6939e-05 0.999589 
0.000345856 3.6939e-05 0.999589 
0.000345856 3.6939e-05 0.999589 
-0.00182205 0.00122118 0.989528 
-0.00182205 0.00122118 0.989528 
-0.00182205 0.00122118 0.989528 
-0.00182205 0.00122118 0.989528 
0.000369623 -0.000100294 0.991161 
0.000369623 -0.000100294 0.991161 
0.000369623 -0.000100294 0.991161 
0.000369623 -0.000100294 0.991161 
0.00127618 0.000712939 0.988915 
0.00127618 0.000712939 0.988915 
0.00127618 0.000712939 0.988915 
0.00127618 0.000712939 0.988915 
0.00054785 -0.00115468 0.999337 
0.00054785 -0.00115468 0.999337 
0.00054785 -0.00115468 0.999337 
0.00054785 -0.00115468 0.999337 
6.12315e-05 -0.000181375 0.991587 
6.12315e-05 -0.000181375 0.991587 
6.12315e-05 -0.000181375 0.991587 
6.12315e-05 -0.000181375 0.991587 
0.000899296 -0.000895374 0.992315 
0.000899296 -0.000895374 0.992315 
0.000899296 -0.000895374 0.992315 
0.000899296 -0.000895374 0.992315 
-0.000135161 2.52236e-05 0.987111 
-0.000135161 2.52236e-05 0.987111 
-0.000135161 2.52236e-05 0.987111 
-0.000135161 2.52236e-05 0.987111 
-0.000731643 7.17177e-05 0.999907 
-0.000731643 7.17177e-05 0.999907 
-0.000731643 7.17177e-05 0.999907 
-0.000731643 7.17177e-05 0.999907 
-0.000121343 0.000129527 0.992229 
-0.000121343 0.000129527 0.992229 
-0.000121343 0.000129527 0.992229 
-0.000121343 0.000129527 0.992229 
-0.000162634 7.40307e-05 0.992012 
-0.000162634 7.40307e-05 0.992012 
-0.000162634 7.40307e-05 0.992012 
-0.000162634 7.40307e-05 0.992012 
-0.000149459 0.000208477 0.991806 
-0.000149459 0.000208477 0.991806 
-0.000149459 0.000208477 0.991806 
-0.000149459 0.000208477 0.991806 
-0.000402668 0.000173901 0.990351 
-0.000402668 0.000173901 0.990351 
-0.000402668 0.000173901 0.990351 
-0.000402668 0.000173901 0.990351 
-0.00118275 0.000390455 0.999644 
-0.00118275 0.000390455 0.999644 
-0.00118275 0.000390455 0.999644 
-0.00118275 0.000390455 0.999644 
0.000607683 0.00324824 0.982968 
0.000607683 0.00324824 0.982968 
0.000607683 0.00324824 0.982968 
0.000607683 0.00324824 0.982968 
0.00162228 0.000331385 0.991485 
0.00162228 0.000331385 0.991485 
0.00162228 0.000331385 0.991485 
0.00162228 0.000331385 0.991485 
0.000647812 -0.000984482 0.990886 
0.000647812 -0.000984482 0.990886 
0.000647812 -0.000984482 0.990886 
0.000647812 -0.000984482 0.990886 
-0.00143623 0.00160721 0.989858 
-0.00143623 0.00160721 0.989858 
-0.00143623 0.00160721 0.989858 
-0.00143623 0.00160721 0.989858 
-3.95849e-05 1.82629e-05 1.00017 
-3.95849e-05 1.82629e-05 1.00017 
-3.95849e-05 1.82629e-05 1.00017 
-3.95849e-05 1.82629e-05 1.00017 
9.5625e-06 2.57069e-05 1.00014 
9.5625e-06 2.57069e-05 1.00014 
9.5625e-06 2.57069e-05 1.00014 
9.5625e-06 2.57069e-05 1.00014 
-0.00131643 -0.00102546 0.990899 
-0.00131643 -0.00102546 0.990899 
-0.00131643 -0.00102546 0.990899 
-0.00131643 -0.00102546 0.990899 
-0.00318021 -0.000850797 0.983085 
-0.00318021 -0.000850797 0.983085 
-0.00318021 -0.000850797 0.983085 
-0.00318021 -0.000850797 0.983085 
-0.000419897 3.43484e-06 0.999552 
-0.000419897 3.43484e-06 0.999552 
-0.000419897 3.43484e-06 0.999552 
-0.000419897 3.43484e-06 0.999552 
-0.00015547 7.25179e-05 0.990489 
-0.00015547 7.25179e-05 0.990489 
-0.00015547 7.25179e-05 0.990489 
-0.00015547 7.25179e-05 0.990489 
0.00187164 0.00160342 0.998413 
0.00187164 0.00160342 0.998413 
0.00187164 0.00160342 0.998413 
0.00187164 0.00160342 0.998413 
-5.11553e-05 -4.24106e-06 1.00014 
-5.11553e-05 -4.24106e-06 1.00014 
-5.11553e-05 -4.24106e-06 1.00014 
-5.11553e-05 -4.24106e-06 1.00014 
0.000374722 0.0010237 0.990202 
0.000374722 0.0010237 0.990202 
0.000374722 0.0010237 0.990202 
0.000374722 0.0010237 0.990202 
-0.00143094 -1.19371e-05 0.988416 
-0.00143094 -1.19371e-05 0.988416 
-0.00143094 -1.19371e-05 0.988416 
-0.00143094 -1.19371e-05 0.988416 
1.02278e-05 2.32001e-05 1.00011 
1.02278e-05 2.32001e-05 1.00011 
1.02278e-05 2.32001e-05 1.00011 
1.02278e-05 2.32001e-05 1.00011 
0.000242084 -0.000337313 0.999658 
0.000242084 -0.000337313 0.999658 
0.000242084 -0.000337313 0.999658 
0.000242084 -0.000337313 0.999658 
0.000393747 0.000201 0.992101 
0.000393747 0.000201 0.992101 
0.000393747 0.000201 0.992101 
0.000393747 0.000201 0.992101 
0.000191945 -0.000157055 0.999901 
0.000191945 -0.000157055 0.999901 
0.000191945 -0.000157055 0.999901 
0.000191945 -0.000157055 0.999901 
0.000638027 -0.00131103 0.989091 
0.000638027 -0.00131103 0.989091 
0.000638027 -0.00131103 0.989091 
0.000638027 -0.00131103 0.989091 
0.000784053 -0.000966279 0.991564 
0.000784053 -0.000966279 0.991564 
0.000784053 -0.000966279 0.991564 
0.000784053 -0.000966279 0.991564 
0.00182619 0.00131899 0.989405 
0.00182619 0.00131899 0.989405 
0.00182619 0.00131899 0.989405 
0.00182619 0.00131899 0.989405 
-6.4431e-06 5.42332e-05 1.00016 
-6.4431e-06 5.42332e-05 1.00016 
-6.4431e-06 5.42332e-05 1.00016 
-6.4431e-06 5.42332e-05 1.00016 
0.000143022 9.25738e-05 0.993016 
0.000143022 9.25738e-05 0.993016 
0.000143022 9.25738e-05 0.993016 
0.000143022 9.25738e-05 0.993016 
-0.00021551 -0.000322293 0.999953 
-0.00021551 -0.000322293 0.999953 
-0.00021551 -0.000322293 0.999953 
-0.00021551 -0.000322293 0.999953 
-0.000686012 0.00150464 0.990177 
-0.000686012 0.00150464 0.990177 
-0.000686012 0.00150464 0.990177 
-0.000686012 0.00150464 0.990177 
-6.57244e-05 -6.94582e-05 0.991845 
-6.57244e-05 -6.94582e-05 0.991845 
-6.57244e-05 -6.94582e-05 0.991845 
-6.57244e-05 -6.94582e-05 0.991845 
-0.000104773 2.82706e-06 1.00024 
-0.000104773 2.82706e-06 1.00024 
-0.000104773 2.82706e-06 1.00024 
-0.000104773 2.82706e-06 1.00024 
0.000279035 0.00147026 0.991531 
0.000279035 0.00147026 0.991531 
0.000279035 0.00147026 0.991531 
0.000279035 0.00147026 0.991531 
-3.4355e-05 4.6981e-05 1.00017 
-3.4355e-05 4.6981e-05 1.00017 
-3.4355e-05 4.6981e-05 1.00017 
-3.4355e-05 4.6981e-05 1.00017 
4.40162e-06 6.07854e-05 1.00017 
4.40162e-06 6.07854e-05 1.00017 
4.40162e-06 6.07854e-05 1.00017 
4.40162e-06 6.07854e-05 1.00017 
-7.17362e-05 3.77632e-05 1.00005 
-7.17362e-05 3.77632e-05 1.00005 
-7.17362e-05 3.77632e-05 1.00005 
-7.17362e-05 3.77632e-05 1.00005 
-6.5107e-05 0.000202434 0.991791 
-6.5107e-05 0.000202434 0.991791 
-6.5107e-05 0.000202434 0.991791 
-6.5107e-05 0.000202434 0.991791 
0.00121513 0.00045447 0.991337 
0.00121513 0.00045447 0.991337 
0.00121513 0.00045447 0.991337 
0.00121513 0.00045447 0.991337 
-5.37254e-05 -5.21116e-07 1.00011 
-5.37254e-05 -5.21116e-07 1.00011 
-5.37254e-05 -5.21116e-07 1.00011 
-5.37254e-05 -5.21116e-07 1.00011 
6.62036e-05 -0.000251491 0.99324 
6.62036e-05 -0.000251491 0.99324 
6.62036e-05 -0.000251491 0.99324 
6.62036e-05 -0.000251491 0.99324 
-0.00127575 -0.000763062 0.988987 
-0.00127575 -0.000763062 0.988987 
-0.00127575 -0.000763062 0.988987 
-0.00127575 -0.000763062 0.988987 
0.000866866 -0.00046902 0.990651 
0.000866866 -0.00046902 0.990651 
0.000866866 -0.00046902 0.990651 
0.000866866 -0.00046902 0.990651 
0.000303079 0.00236569 0.987249 
0.000303079 0.00236569 0.987249 
0.000303079 0.00236569 0.987249 
0.000303079 0.00236569 0.987249 
6.87737e-06 6.90692e-05 1.00001 
6.87737e-06 6.90692e-05 1.00001 
6.87737e-06 6.90692e-05 1.00001 
6.87737e-06 6.90692e-05 1.00001 
-0.00117172 -0.00102386 0.991376 
-0.00117172 -0.00102386 0.991376 
-0.00117172 -0.00102386 0.991376 
-0.00117172 -0.00102386 0.991376 
0.000141441 -0.000197964 0.985979 
0.000141441 -0.000197964 0.985979 
0.000141441 -0.000197964 0.985979 
0.000141441 -0.000197964 0.985979 
0.00159553 -0.000361479 0.98734 
0.00159553 -0.000361479 0.98734 
0.00159553 -0.000361479 0.98734 
0.00159553 -0.000361479 0.98734 
-0.0024752 0.000756786 0.983085 
-0.0024752 0.000756786 0.983085 
-0.0024752 0.000756786 0.983085 
-0.0024752 0.000756786 0.983085 
1.793e-05 -4.05611e-06 1.00007 
1.793e-05 -4.05611e-06 1.00007 
1.793e-05 -4.05611e-06 1.00007 
1.793e-05 -4.05611e-06 1.00007 
-0.000614215 -0.00159143 0.990733 
-0.000614215 -0.00159143 0.990733 
-0.000614215 -0.00159143 0.990733 
-0.000614215 -0.00159143 0.990733 
0.00127823 -0.00159817 0.98864 
0.00127823 -0.00159817 0.98864 
0.00127823 -0.00159817 0.98864 
0.00127823 -0.00159817 0.98864 
-3.21478e-05 -2.98368e-05 1.00005 
-3.21478e-05 -2.98368e-05 1.00005 
-3.21478e-05 -2.98368e-05 1.00005 
-3.21478e-05 -2.98368e-05 1.00005 
-0.000124246 -0.000187934 0.986696 
-0.000124246 -0.000187934 0.986696 
-0.000124246 -0.000187934 0.986696 
-0.000124246 -0.000187934 0.986696 
-0.000755263 0.00233516 0.988383 
-0.000755263 0.00233516 0.988383 
-0.000755263 0.00233516 0.988383 
-0.000755263 0.00233516 0.988383 
-1.75539e-05 -6.68625e-06 1.00014 
-1.75539e-05 -6.68625e-06 1.00014 
-1.75539e-05 -6.68625e-06 1.00014 
-1.75539e-05 -6.68625e-06 1.00014 
-4.8804e-07 -4.71983e-06 1.00013 
-4.8804e-07 -4.71983e-06 1.00013 
-4.8804e-07 -4.71983e-06 1.00013 
-4.8804e-07 -4.71983e-06 1.00013 
0.000106833 0.000208438 0.992671 
0.000106833 0.000208438 0.992671 
0.000106833 0.000208438 0.992671 
0.000106833 0.000208438 0.992671 
-2.36481e-05 1.59204e-05 1.00013 
-2.36481e-05 1.59204e-05 1.00013 
-2.36481e-05 1.59204e-05 1.00013 
-2.36481e-05 1.59204e-05 1.00013 
-1.58887e-05 2.95509e-05 1.00007 
-1.58887e-05 2.95509e-05 1.00007 
-1.58887e-05 2.95509e-05 1.00007 
-1.58887e-05 2.95509e-05 1.00007 
0.00102284 0.000660947 0.987111 
0.00102284 0.000660947 0.987111 
0.00102284 0.000660947 0.987111 
0.00102284 0.000660947 0.987111 
-0.00111041 0.000504529 0.991536 
-0.00111041 0.000504529 0.991536 
-0.00111041 0.000504529 0.991536 
-0.00111041 0.000504529 0.991536 
0.000665733 8.63777e-05 0.990489 
0.000665733 8.63777e-05 0.990489 
0.000665733 8.63777e-05 0.990489 
0.000665733 8.63777e-05 0.990489 
1.07374e-05 -3.02932e-05 1.00019 
1.07374e-05 -3.02932e-05 1.00019 
1.07374e-05 -3.02932e-05 1.00019 
1.07374e-05 -3.02932e-05 1.00019 
5.14535e-05 -2.96178e-05 1.00018 
5.14535e-05 -2.96178e-05 1.00018 
5.14535e-05 -2.96178e-05 1.00018 
5.14535e-05 -2.96178e-05 1.00018 
-1.91122e-05 4.77068e-05 1.00013 
-1.91122e-05 4.77068e-05 1.00013 
-1.91122e-05 4.77068e-05 1.00013 
-1.91122e-05 4.77068e-05 1.00013 
-0.000704659 -0.000336219 0.990036 
-0.000704659 -0.000336219 0.990036 
-0.000704659 -0.000336219 0.990036 
-0.000704659 -0.000336219 0.990036 
0.00129927 -0.00391185 0.981454 
0.00129927 -0.00391185 0.981454 
0.00129927 -0.00391185 0.981454 
0.00129927 -0.00391185 0.981454 
0.00433606 0.000822382 0.980652 
0.00433606 0.000822382 0.980652 
0.00433606 0.000822382 0.980652 
0.00433606 0.000822382 0.980652 
-0.000826441 -0.000872953 0.991728 
-0.000826441 -0.000872953 0.991728 
-0.000826441 -0.000872953 0.991728 
-0.000826441 -0.000872953 0.991728 
-0.00148486 0.000662567 0.988747 
-0.00148486 0.000662567 0.988747 
-0.00148486 0.000662567 0.988747 
-0.00148486 0.000662567 0.988747 
-3.47832e-05 1.795e-05 1.00013 
-3.47832e-05 1.795e-05 1.00013 
-3.47832e-05 1.795e-05 1.00013 
-3.47832e-05 1.795e-05 1.00013 
-0.000307136 -0.00048809 0.986696 
-0.000307136 -0.00048809 0.986696 
-0.000307136 -0.00048809 0.986696 
-0.000307136 -0.00048809 0.986696 
7.02818e-05 0.000762125 0.99179 
7.02818e-05 0.000762125 0.99179 
7.02818e-05 0.000762125 0.99179 
7.02818e-05 0.000762125 0.99179 
1.65604e-05 -1.64253e-05 1.00003 
1.65604e-05 -1.64253e-05 1.00003 
1.65604e-05 -1.64253e-05 1.00003 
1.65604e-05 -1.64253e-05 1.00003 
0.000368641 -4.57984e-05 0.999662 
0.000368641 -4.57984e-05 0.999662 
0.000368641 -4.57984e-05 0.999662 
0.000368641 -4.57984e-05 0.999662 
0.000913918 -0.00107669 0.990286 
0.000913918 -0.00107669 0.990286 
0.000913918 -0.00107669 0.990286 
0.000913918 -0.00107669 0.990286 
0.000360722 -0.00203409 0.988009 
0.000360722 -0.00203409 0.988009 
0.000360722 -0.00203409 0.988009 
0.000360722 -0.00203409 0.988009 
0.00018218 5.64064e-05 0.991714 
0.00018218 5.64064e-05 0.991714 
0.00018218 5.64064e-05 0.991714 
0.00018218 5.64064e-05 0.991714 
0.00164625 -0.00043802 0.987481 
0.00164625 -0.00043802 0.987481 
0.00164625 -0.00043802 0.987481 
0.00164625 -0.00043802 0.987481 
-0.000729292 0.00258667 0.982968 
-0.000729292 0.00258667 0.982968 
-0.000729292 0.00258667 0.982968 
-0.000729292 0.00258667 0.982968 
0.000578668 -0.00168189 0.987988 
0.000578668 -0.00168189 0.987988 
0.000578668 -0.00168189 0.987988 
0.000578668 -0.00168189 0.987988 
-9.6367e-05 -1.0341e-05 1.00016 
-9.6367e-05 -1.0341e-05 1.00016 
-9.6367e-05 -1.0341e-05 1.00016 
-9.6367e-05 -1.0341e-05 1.00016 
0.000258947 7.52154e-05 0.986911 
0.000258947 7.52154e-05 0.986911 
0.000258947 7.52154e-05 0.986911 
0.000258947 7.52154e-05 0.986911 
-0.00124305 -0.000661879 0.985979 
-0.00124305 -0.000661879 0.985979 
-0.00124305 -0.000661879 0.985979 
-0.00124305 -0.000661879 0.985979 
7.28489e-06 8.01642e-06 1.00011 
7.28489e-06 8.01642e-06 1.00011 
7.28489e-06 8.01642e-06 1.00011 
7.28489e-06 8.01642e-06 1.00011 
-0.0010774 -0.000926707 0.990521 
-0.0010774 -0.000926707 0.990521 
-0.0010774 -0.000926707 0.990521 
-0.0010774 -0.000926707 0.990521 
-2.16101e-05 8.35315e-08 0.991858 
-2.16101e-05 8.35315e-08 0.991858 
-2.16101e-05 8.35315e-08 0.991858 
-2.16101e-05 8.35315e-08 0.991858 
3.60918e-05 -7.84542e-05 1.00001 
3.60918e-05 -7.84542e-05 1.00001 
3.60918e-05 -7.84542e-05 1.00001 
3.60918e-05 -7.84542e-05 1.00001 
0.000348609 0.00112149 0.991508 
0.000348609 0.00112149 0.991508 
0.000348609 0.00112149 0.991508 
0.000348609 0.00112149 0.991508 
-3.17492e-05 2.14482e-05 1.00012 
-3.17492e-05 2.14482e-05 1.00012 
-3.17492e-05 2.14482e-05 1.00012 
-3.17492e-05 2.14482e-05 1.00012 
7.21881e-05 -0.000170488 0.988968 
7.21881e-05 -0.000170488 0.988968 
7.21881e-05 -0.000170488 0.988968 
7.21881e-05 -0.000170488 0.988968 
-5.54813e-05 -1.2205e-05 1.00024 
-5.54813e-05 -1.2205e-05 1.00024 
-5.54813e-05 -1.2205e-05 1.00024 
-5.54813e-05 -1.2205e-05 1.00024 
1.69548e-05 -3.59501e-06 1.00004 
1.69548e-05 -3.59501e-06 1.00004 
1.69548e-05 -3.59501e-06 1.00004 
1.69548e-05 -3.59501e-06 1.00004 
0.000971429 0.000674846 0.991533 
0.000971429 0.000674846 0.991533 
0.000971429 0.000674846 0.991533 
0.000971429 0.000674846 0.991533 
3.287e-05 -4.83172e-05 1.00014 
3.287e-05 -4.83172e-05 1.00014 
3.287e-05 -4.83172e-05 1.00014 
3.287e-05 -4.83172e-05 1.00014 
1.46791e-05 -0.000436812 0.992726 
1.46791e-05 -0.000436812 0.992726 
1.46791e-05 -0.000436812 0.992726 
1.46791e-05 -0.000436812 0.992726 
-3.01557e-05 -6.15243e-06 1.00014 
-3.01557e-05 -6.15243e-06 1.00014 
-3.01557e-05 -6.15243e-06 1.00014 
-3.01557e-05 -6.15243e-06 1.00014 
3.74374e-05 1.37518e-05 1.00015 
3.74374e-05 1.37518e-05 1.00015 
3.74374e-05 1.37518e-05 1.00015 
3.74374e-05 1.37518e-05 1.00015 
0.00108327 -0.00183159 0.986911 
0.00108327 -0.00183159 0.986911 
0.00108327 -0.00183159 0.986911 
0.00108327 -0.00183159 0.986911 
-1.43903e-05 -3.57508e-05 1.00001 
-1.43903e-05 -3.57508e-05 1.00001 
-1.43903e-05 -3.57508e-05 1.00001 
-1.43903e-05 -3.57508e-05 1.00001 
-0.000143492 0.0036656 0.982968 
-0.000143492 0.0036656 0.982968 
-0.000143492 0.0036656 0.982968 
-0.000143492 0.0036656 0.982968 
-4.42292e-05 3.62555e-05 1.00017 
-4.42292e-05 3.62555e-05 1.00017 
-4.42292e-05 3.62555e-05 1.00017 
-4.42292e-05 3.62555e-05 1.00017 
-0.000695411 0.00133339 0.986696 
-0.000695411 0.00133339 0.986696 
-0.000695411 0.00133339 0.986696 
-0.000695411 0.00133339 0.986696 
1.63534e-05 -2.91395e-05 1.00014 
1.63534e-05 -2.91395e-05 1.00014 
1.63534e-05 -2.91395e-05 1.00014 
1.63534e-05 -2.91395e-05 1.00014 
-0.000114471 -2.94592e-05 1.00023 
-0.000114471 -2.94592e-05 1.00023 
-0.000114471 -2.94592e-05 1.00023 
-0.000114471 -2.94592e-05 1.00023 
-2.00669e-05 -3.35616e-06 1.00003 
-2.00669e-05 -3.35616e-06 1.00003 
-2.00669e-05 -3.35616e-06 1.00003 
-2.00669e-05 -3.35616e-06 1.00003 
-0.000463681 -0.00310624 0.981454 
-0.000463681 -0.00310624 0.981454 
-0.000463681 -0.00310624 0.981454 
-0.000463681 -0.00310624 0.981454 
3.05352e-05 2.98151e-05 1.00003 
3.05352e-05 2.98151e-05 1.00003 
3.05352e-05 2.98151e-05 1.00003 
3.05352e-05 2.98151e-05 1.00003 
0.00392171 2.38604e-05 0.980652 
0.00392171 2.38604e-05 0.980652 
0.00392171 2.38604e-05 0.980652 
0.00392171 2.38604e-05 0.980652 
2.74181e-05 -7.62913e-06 1.00011 
2.74181e-05 -7.62913e-06 1.00011 
2.74181e-05 -7.62913e-06 1.00011 
2.74181e-05 -7.62913e-06 1.00011 
2.41875e-05 1.19433e-05 1.00004 
2.41875e-05 1.19433e-05 1.00004 
2.41875e-05 1.19433e-05 1.00004 
2.41875e-05 1.19433e-05 1.00004 
-4.20869e-06 7.71308e-06 1.00011 
-4.20869e-06 7.71308e-06 1.00011 
-4.20869e-06 7.71308e-06 1.00011 
-4.20869e-06 7.71308e-06 1.00011 
-1.94586e-05 5.46959e-06 1.00013 
-1.94586e-05 5.46959e-06 1.00013 
-1.94586e-05 5.46959e-06 1.00013 
-1.94586e-05 5.46959e-06 1.00013 
6.26712e-06 6.58406e-06 1.00014 
6.26712e-06 6.58406e-06 1.00014 
6.26712e-06 6.58406e-06 1.00014 
6.26712e-06 6.58406e-06 1.00014 
-2.69876e-05 2.03485e-05 1.00001 
-2.69876e-05 2.03485e-05 1.00001 
-2.69876e-05 2.03485e-05 1.00001 
-2.69876e-05 2.03485e-05 1.00001 
-7.00967e-06 9.16526e-06 1.00001 
-7.00967e-06 9.16526e-06 1.00001 
-7.00967e-06 9.16526e-06 1.00001 
-7.00967e-06 9.16526e-06 1.00001 
3.35649e-05 3.45851e-05 1.00001 
3.35649e-05 3.45851e-05 1.00001 
3.35649e-05 3.45851e-05 1.00001 
3.35649e-05 3.45851e-05 1.00001 
1.02565e-05 8.25866e-06 1.00004 
1.02565e-05 8.25866e-06 1.00004 
1.02565e-05 8.25866e-06 1.00004 
1.02565e-05 8.25866e-06 1.00004 
6.09106e-05 -4.76221e-05 0.999981 
6.09106e-05 -4.76221e-05 0.999981 
6.09106e-05 -4.76221e-05 0.999981 
6.09106e-05 -4.76221e-05 0.999981 
-5.66976e-05 -3.98075e-05 1.00004 
-5.66976e-05 -3.98075e-05 1.00004 
-5.66976e-05 -3.98075e-05 1.00004 
-5.66976e-05 -3.98075e-05 1.00004 
-2.57707e-05 -6.61314e-06 1.00002 
-2.57707e-05 -6.61314e-06 1.00002 
-2.57707e-05 -6.61314e-06 1.00002 
-2.57707e-05 -6.61314e-06 1.00002 
-6.45058e-06 8.3996e-07 1 
-6.45058e-06 8.3996e-07 1 
-6.45058e-06 8.3996e-07 1 
-6.45058e-06 8.3996e-07 1 
-8.071e-05 -1.62592e-05 1.00006 
-8.071e-05 -1.62592e-05 1.00006 
-8.071e-05 -1.62592e-05 1.00006 
-8.071e-05 -1.62592e-05 1.00006 
-6.86096e-05 7.12328e-05 1 
-6.86096e-05 7.12328e-05 1 
-6.86096e-05 7.12328e-05 1 
-6.86096e-05 7.12328e-05 1 
0.000490964 -0.000446603 0.985979 
0.000490964 -0.000446603 0.985979 
0.000490964 -0.000446603 0.985979 
0.000490964 -0.000446603 0.985979 
-5.47627e-06 6.93505e-05 1.00005 
-5.47627e-06 6.93505e-05 1.00005 
-5.47627e-06 6.93505e-05 1.00005 
-5.47627e-06 6.93505e-05 1.00005 
-0.000865893 0.000399691 0.987111 
-0.000865893 0.000399691 0.987111 
-0.000865893 0.000399691 0.987111 
-0.000865893 0.000399691 0.987111 
-0.000134814 -3.57171e-05 1.00002 
-0.000134814 -3.57171e-05 1.00002 
-0.000134814 -3.57171e-05 1.00002 
-0.000134814 -3.57171e-05 1.00002 
1.83025e-05 9.10443e-05 1 
1.83025e-05 9.10443e-05 1 
1.83025e-05 9.10443e-05 1 
1.83025e-05 9.10443e-05 1 
-8.61547e-05 3.10737e-06 1.00004 
-8.61547e-05 3.10737e-06 1.00004 
-8.61547e-05 3.10737e-06 1.00004 
-8.61547e-05 3.10737e-06 1.00004 
2.1962e-05 6.04804e-05 1.00017 
2.1962e-05 6.04804e-05 1.00017 
2.1962e-05 6.04804e-05 1.00017 
2.1962e-05 6.04804e-05 1.00017 
4.86268e-06 -8.01825e-05 1.00003 
4.86268e-06 -8.01825e-05 1.00003 
4.86268e-06 -8.01825e-05 1.00003 
4.86268e-06 -8.01825e-05 1.00003 
-1.82057e-05 -2.37687e-05 1.00004 
-1.82057e-05 -2.37687e-05 1.00004 
-1.82057e-05 -2.37687e-05 1.00004 
-1.82057e-05 -2.37687e-05 1.00004 
-0.000105734 2.87075e-05 1.00005 
-0.000105734 2.87075e-05 1.00005 
-0.000105734 2.87075e-05 1.00005 
-0.000105734 2.87075e-05 1.00005 
8.26386e-05 1.99641e-05 1 
8.26386e-05 1.99641e-05 1 
8.26386e-05 1.99641e-05 1 
8.26386e-05 1.99641e-05 1 
1.70402e-05 -4.18668e-05 1.00019 
1.70402e-05 -4.18668e-05 1.00019 
1.70402e-05 -4.18668e-05 1.00019 
1.70402e-05 -4.18668e-05 1.00019 
0.000174563 0.000125387 0.99211 
0.000174563 0.000125387 0.99211 
0.000174563 0.000125387 0.99211 
0.000174563 0.000125387 0.99211 
3.00284e-06 -7.67538e-07 1.00003 
3.00284e-06 -7.67538e-07 1.00003 
3.00284e-06 -7.67538e-07 1.00003 
3.00284e-06 -7.67538e-07 1.00003 
-9.94855e-05 6.29018e-06 1.00016 
-9.94855e-05 6.29018e-06 1.00016 
-9.94855e-05 6.29018e-06 1.00016 
-9.94855e-05 6.29018e-06 1.00016 
8.82812e-05 2.36409e-05 1 
8.82812e-05 2.36409e-05 1 
8.82812e-05 2.36409e-05 1 
8.82812e-05 2.36409e-05 1 
0.000172162 -0.00459953 0.981454 
0.000172162 -0.00459953 0.981454 
0.000172162 -0.00459953 0.981454 
0.000172162 -0.00459953 0.981454 
-6.53165e-05 -2.23915e-05 1.00004 
-6.53165e-05 -2.23915e-05 1.00004 
-6.53165e-05 -2.23915e-05 1.00004 
-6.53165e-05 -2.23915e-05 1.00004 
3.68774e-05 -8.67597e-05 1 
3.68774e-05 -8.67597e-05 1 
3.68774e-05 -8.67597e-05 1 
3.68774e-05 -8.67597e-05 1 
5.64948e-05 7.90417e-06 1.00003 
5.64948e-05 7.90417e-06 1.00003 
5.64948e-05 7.90417e-06 1.00003 
5.64948e-05 7.90417e-06 1.00003 
-2.28239e-05 1.53572e-05 1.00003 
-2.28239e-05 1.53572e-05 1.00003 
-2.28239e-05 1.53572e-05 1.00003 
-2.28239e-05 1.53572e-05 1.00003 
-0.00300565 -0.00115315 0.983085 
-0.00300565 -0.00115315 0.983085 
-0.00300565 -0.00115315 0.983085 
-0.00300565 -0.00115315 0.983085 
-5.17029e-05 3.50931e-05 1.00001 
-5.17029e-05 3.50931e-05 1.00001 
-5.17029e-05 3.50931e-05 1.00001 
-5.17029e-05 3.50931e-05 1.00001 
0.000866955 0.00114272 0.986911 
0.000866955 0.00114272 0.986911 
0.000866955 0.00114272 0.986911 
0.000866955 0.00114272 0.986911 
-4.80409e-05 2.6463e-05 1.00003 
-4.80409e-05 2.6463e-05 1.00003 
-4.80409e-05 2.6463e-05 1.00003 
-4.80409e-05 2.6463e-05 1.00003 
1.32071e-05 2.04207e-05 1.00003 
1.32071e-05 2.04207e-05 1.00003 
1.32071e-05 2.04207e-05 1.00003 
1.32071e-05 2.04207e-05 1.00003 
-0.00241342 0.00184688 0.985398 
-0.00241342 0.00184688 0.985398 
-0.00241342 0.00184688 0.985398 
-0.00241342 0.00184688 0.985398 
3.64776e-05 1.96089e-05 1.00015 
3.64776e-05 1.96089e-05 1.00015 
3.64776e-05 1.96089e-05 1.00015 
3.64776e-05 1.96089e-05 1.00015 
0.00450845 0.000512303 0.980652 
0.00450845 0.000512303 0.980652 
0.00450845 0.000512303 0.980652 
0.00450845 0.000512303 0.980652 
-0.0018853 0.0028159 0.98497 
-0.0018853 0.0028159 0.98497 
-0.0018853 0.0028159 0.98497 
-0.0018853 0.0028159 0.98497 
3.83936e-05 -8.73172e-05 0.988993 
3.83936e-05 -8.73172e-05 0.988993 
3.83936e-05 -8.73172e-05 0.988993 
3.83936e-05 -8.73172e-05 0.988993 
-1.90538e-06 3.75699e-06 1.00004 
-1.90538e-06 3.75699e-06 1.00004 
-1.90538e-06 3.75699e-06 1.00004 
-1.90538e-06 3.75699e-06 1.00004 
3.92888e-07 7.7742e-06 1.00004 
3.92888e-07 7.7742e-06 1.00004 
3.92888e-07 7.7742e-06 1.00004 
3.92888e-07 7.7742e-06 1.00004 
-0.000122002 -6.89691e-06 1.00001 
-0.000122002 -6.89691e-06 1.00001 
-0.000122002 -6.89691e-06 1.00001 
-0.000122002 -6.89691e-06 1.00001 
0.000190552 0.000117132 0.989084 
0.000190552 0.000117132 0.989084 
0.000190552 0.000117132 0.989084 
0.000190552 0.000117132 0.989084 
-4.38926e-05 1.20483e-05 1.00014 
-4.38926e-05 1.20483e-05 1.00014 
-4.38926e-05 1.20483e-05 1.00014 
-4.38926e-05 1.20483e-05 1.00014 
2.97092e-05 7.44035e-05 1.00002 
2.97092e-05 7.44035e-05 1.00002 
2.97092e-05 7.44035e-05 1.00002 
2.97092e-05 7.44035e-05 1.00002 
2.73907e-05 -1.129e-05 1.00005 
2.73907e-05 -1.129e-05 1.00005 
2.73907e-05 -1.129e-05 1.00005 
2.73907e-05 -1.129e-05 1.00005 
-2.3481e-05 -0.0002116 0.990696 
-2.3481e-05 -0.0002116 0.990696 
-2.3481e-05 -0.0002116 0.990696 
-2.3481e-05 -0.0002116 0.990696 
0.000105746 0.000175543 0.989638 
0.000105746 0.000175543 0.989638 
0.000105746 0.000175543 0.989638 
0.000105746 0.000175543 0.989638 
0.00158264 0.000827776 0.990403 
0.00158264 0.000827776 0.990403 
0.00158264 0.000827776 0.990403 
0.00158264 0.000827776 0.990403 
-5.17225e-05 -6.09606e-05 1.00006 
-5.17225e-05 -6.09606e-05 1.00006 
-5.17225e-05 -6.09606e-05 1.00006 
-5.17225e-05 -6.09606e-05 1.00006 
-0.000120395 -8.69832e-05 0.987131 
-0.000120395 -8.69832e-05 0.987131 
-0.000120395 -8.69832e-05 0.987131 
-0.000120395 -8.69832e-05 0.987131 
-0.00185654 -0.00318266 0.984454 
-0.00185654 -0.00318266 0.984454 
-0.00185654 -0.00318266 0.984454 
-0.00185654 -0.00318266 0.984454 
-0.000218377 0.00017553 0.990697 
-0.000218377 0.00017553 0.990697 
-0.000218377 0.00017553 0.990697 
-0.000218377 0.00017553 0.990697 
0.000613448 0.000837913 0.992506 
0.000613448 0.000837913 0.992506 
0.000613448 0.000837913 0.992506 
0.000613448 0.000837913 0.992506 
0.000144427 -0.00019091 0.990212 
0.000144427 -0.00019091 0.990212 
0.000144427 -0.00019091 0.990212 
0.000144427 -0.00019091 0.990212 
-0.000281019 -0.000459974 0.989694 
-0.000281019 -0.000459974 0.989694 
-0.000281019 -0.000459974 0.989694 
-0.000281019 -0.000459974 0.989694 
-8.51843e-05 -4.06377e-05 1.00008 
-8.51843e-05 -4.06377e-05 1.00008 
-8.51843e-05 -4.06377e-05 1.00008 
-8.51843e-05 -4.06377e-05 1.00008 
0.00378137 -0.00187157 0.984741 
0.00378137 -0.00187157 0.984741 
0.00378137 -0.00187157 0.984741 
0.00378137 -0.00187157 0.984741 
0.00012182 -0.000102494 0.992199 
0.00012182 -0.000102494 0.992199 
0.00012182 -0.000102494 0.992199 
0.00012182 -0.000102494 0.992199 
0.00151913 -0.000591153 0.991157 
0.00151913 -0.000591153 0.991157 
0.00151913 -0.000591153 0.991157 
0.00151913 -0.000591153 0.991157 
-8.47142e-05 -0.000219806 0.992923 
-8.47142e-05 -0.000219806 0.992923 
-8.47142e-05 -0.000219806 0.992923 
-8.47142e-05 -0.000219806 0.992923 
-5.37908e-05 5.77216e-07 1.00014 
-5.37908e-05 5.77216e-07 1.00014 
-5.37908e-05 5.77216e-07 1.00014 
-5.37908e-05 5.77216e-07 1.00014 
8.07441e-06 6.3768e-05 1.00017 
8.07441e-06 6.3768e-05 1.00017 
8.07441e-06 6.3768e-05 1.00017 
8.07441e-06 6.3768e-05 1.00017 
0.00118824 0.00348201 0.985585 
0.00118824 0.00348201 0.985585 
0.00118824 0.00348201 0.985585 
0.00118824 0.00348201 0.985585 
-9.06854e-05 -1.59642e-05 0.99224 
-9.06854e-05 -1.59642e-05 0.99224 
-9.06854e-05 -1.59642e-05 0.99224 
-9.06854e-05 -1.59642e-05 0.99224 
-0.000986789 0.00137214 0.990481 
-0.000986789 0.00137214 0.990481 
-0.000986789 0.00137214 0.990481 
-0.000986789 0.00137214 0.990481 
-0.00166991 -0.00083971 0.990375 
-0.00166991 -0.00083971 0.990375 
-0.00166991 -0.00083971 0.990375 
-0.00166991 -0.00083971 0.990375 
0.000200724 -0.00209857 0.989063 
0.000200724 -0.00209857 0.989063 
0.000200724 -0.00209857 0.989063 
0.000200724 -0.00209857 0.989063 
-0.000107325 -1.32008e-05 1.00025 
-0.000107325 -1.32008e-05 1.00025 
-0.000107325 -1.32008e-05 1.00025 
-0.000107325 -1.32008e-05 1.00025 
-9.18442e-05 0.000216863 0.991877 
-9.18442e-05 0.000216863 0.991877 
-9.18442e-05 0.000216863 0.991877 
-9.18442e-05 0.000216863 0.991877 
-5.68708e-05 -0.000214872 0.994063 
-5.68708e-05 -0.000214872 0.994063 
-5.68708e-05 -0.000214872 0.994063 
-5.68708e-05 -0.000214872 0.994063 
2.31995e-05 -1.31879e-05 1.00005 
2.31995e-05 -1.31879e-05 1.00005 
2.31995e-05 -1.31879e-05 1.00005 
2.31995e-05 -1.31879e-05 1.00005 
-0.000253143 0.000182071 0.992303 
-0.000253143 0.000182071 0.992303 
-0.000253143 0.000182071 0.992303 
-0.000253143 0.000182071 0.992303 
-9.7601e-05 -0.000168626 0.991635 
-9.7601e-05 -0.000168626 0.991635 
-9.7601e-05 -0.000168626 0.991635 
-9.7601e-05 -0.000168626 0.991635 
-0.000128577 -0.000107338 0.991456 
-0.000128577 -0.000107338 0.991456 
-0.000128577 -0.000107338 0.991456 
-0.000128577 -0.000107338 0.991456 
-1.35522e-05 0.0020009 0.988051 
-1.35522e-05 0.0020009 0.988051 
-1.35522e-05 0.0020009 0.988051 
-1.35522e-05 0.0020009 0.988051 
-0.00170979 -0.000126309 0.989738 
-0.00170979 -0.000126309 0.989738 
-0.00170979 -0.000126309 0.989738 
-0.00170979 -0.000126309 0.989738 
-8.80673e-05 -0.000163962 0.988896 
-8.80673e-05 -0.000163962 0.988896 
-8.80673e-05 -0.000163962 0.988896 
-8.80673e-05 -0.000163962 0.988896 
-0.000729165 -0.00120233 0.991188 
-0.000729165 -0.00120233 0.991188 
-0.000729165 -0.00120233 0.991188 
-0.000729165 -0.00120233 0.991188 
0.000796727 -0.00114089 0.9904 
0.000796727 -0.00114089 0.9904 
0.000796727 -0.00114089 0.9904 
0.000796727 -0.00114089 0.9904 
-1.15489e-05 -9.20012e-05 0.991897 
-1.15489e-05 -9.20012e-05 0.991897 
-1.15489e-05 -9.20012e-05 0.991897 
-1.15489e-05 -9.20012e-05 0.991897 
0.00027119 7.50385e-05 0.991884 
0.00027119 7.50385e-05 0.991884 
0.00027119 7.50385e-05 0.991884 
0.00027119 7.50385e-05 0.991884 
0.00121515 -0.00102717 0.989456 
0.00121515 -0.00102717 0.989456 
0.00121515 -0.00102717 0.989456 
0.00121515 -0.00102717 0.989456 
0.00223396 0.0004032 0.987975 
0.00223396 0.0004032 0.987975 
0.00223396 0.0004032 0.987975 
0.00223396 0.0004032 0.987975 
1.83234e-05 -9.48674e-05 1.00008 
1.83234e-05 -9.48674e-05 1.00008 
1.83234e-05 -9.48674e-05 1.00008 
1.83234e-05 -9.48674e-05 1.00008 
-2.67044e-05 -5.00243e-05 0.991455 
-2.67044e-05 -5.00243e-05 0.991455 
-2.67044e-05 -5.00243e-05 0.991455 
-2.67044e-05 -5.00243e-05 0.991455 
0.0017297 -0.00454986 0.983563 
0.0017297 -0.00454986 0.983563 
0.0017297 -0.00454986 0.983563 
0.0017297 -0.00454986 0.983563 
0.000144913 0.000299076 0.990891 
0.000144913 0.000299076 0.990891 
0.000144913 0.000299076 0.990891 
0.000144913 0.000299076 0.990891 
0.00474742 0.00198892 0.982757 
0.00474742 0.00198892 0.982757 
0.00474742 0.00198892 0.982757 
0.00474742 0.00198892 0.982757 
-2.34501e-05 -0.000305434 0.986759 
-2.34501e-05 -0.000305434 0.986759 
-2.34501e-05 -0.000305434 0.986759 
-2.34501e-05 -0.000305434 0.986759 
-7.31182e-05 0.000152302 0.988991 
-7.31182e-05 0.000152302 0.988991 
-7.31182e-05 0.000152302 0.988991 
-7.31182e-05 0.000152302 0.988991 
0.000113728 -0.000159443 0.991425 
0.000113728 -0.000159443 0.991425 
0.000113728 -0.000159443 0.991425 
0.000113728 -0.000159443 0.991425 
-1.58114e-05 -1.03596e-05 1.00014 
-1.58114e-05 -1.03596e-05 1.00014 
-1.58114e-05 -1.03596e-05 1.00014 
-1.58114e-05 -1.03596e-05 1.00014 
0.000116836 0.000222857 0.992703 
0.000116836 0.000222857 0.992703 
0.000116836 0.000222857 0.992703 
0.000116836 0.000222857 0.992703 
3.48659e-05 -0.000291847 0.991057 
3.48659e-05 -0.000291847 0.991057 
3.48659e-05 -0.000291847 0.991057 
3.48659e-05 -0.000291847 0.991057 
6.19908e-05 0.000117348 0.993091 
6.19908e-05 0.000117348 0.993091 
6.19908e-05 0.000117348 0.993091 
6.19908e-05 0.000117348 0.993091 
-0.00185204 0.00158684 0.989072 
-0.00185204 0.00158684 0.989072 
-0.00185204 0.00158684 0.989072 
-0.00185204 0.00158684 0.989072 
-0.00204735 -0.000136468 0.987222 
-0.00204735 -0.000136468 0.987222 
-0.00204735 -0.000136468 0.987222 
-0.00204735 -0.000136468 0.987222 
-0.00314987 -0.00186731 0.98398 
-0.00314987 -0.00186731 0.98398 
-0.00314987 -0.00186731 0.98398 
-0.00314987 -0.00186731 0.98398 
0.00116927 -0.00126675 0.990078 
0.00116927 -0.00126675 0.990078 
0.00116927 -0.00126675 0.990078 
0.00116927 -0.00126675 0.990078 
0.000252577 0.00296679 0.986348 
0.000252577 0.00296679 0.986348 
0.000252577 0.00296679 0.986348 
0.000252577 0.00296679 0.986348 
0.00223521 -0.000445883 0.98681 
0.00223521 -0.000445883 0.98681 
0.00223521 -0.000445883 0.98681 
0.00223521 -0.000445883 0.98681 
-3.13951e-05 -3.39353e-06 1.00004 
-3.13951e-05 -3.39353e-06 1.00004 
-3.13951e-05 -3.39353e-06 1.00004 
-3.13951e-05 -3.39353e-06 1.00004 
-0.000313376 -0.00245046 0.988158 
-0.000313376 -0.00245046 0.988158 
-0.000313376 -0.00245046 0.988158 
-0.000313376 -0.00245046 0.988158 
1.51852e-05 -0.000185238 0.993311 
1.51852e-05 -0.000185238 0.993311 
1.51852e-05 -0.000185238 0.993311 
1.51852e-05 -0.000185238 0.993311 
0.00010496 0.000435781 0.988884 
0.00010496 0.000435781 0.988884 
0.00010496 0.000435781 0.988884 
0.00010496 0.000435781 0.988884 
-0.00158404 0.00104307 0.989259 
-0.00158404 0.00104307 0.989259 
-0.00158404 0.00104307 0.989259 
-0.00158404 0.00104307 0.989259 
-0.00156212 -0.000967021 0.988806 
-0.00156212 -0.000967021 0.988806 
-0.00156212 -0.000967021 0.988806 
-0.00156212 -0.000967021 0.988806 
0.000380899 0.000206698 0.990629 
0.000380899 0.000206698 0.990629 
0.000380899 0.000206698 0.990629 
0.000380899 0.000206698 0.990629 
-0.00188877 0.00195353 0.987981 
-0.00188877 0.00195353 0.987981 
-0.00188877 0.00195353 0.987981 
-0.00188877 0.00195353 0.987981 
-0.000528541 0.000276203 0.990201 
-0.000528541 0.000276203 0.990201 
-0.000528541 0.000276203 0.990201 
-0.000528541 0.000276203 0.990201 
0.00180175 0.00113976 0.988283 
0.00180175 0.00113976 0.988283 
0.00180175 0.00113976 0.988283 
0.00180175 0.00113976 0.988283 
0.000687035 0.00172087 0.988575 
0.000687035 0.00172087 0.988575 
0.000687035 0.00172087 0.988575 
0.000687035 0.00172087 0.988575 
-0.000105553 0.000147048 0.991879 
-0.000105553 0.000147048 0.991879 
-0.000105553 0.000147048 0.991879 
-0.000105553 0.000147048 0.991879 
-0.00100194 -0.00243739 0.988005 
-0.00100194 -0.00243739 0.988005 
-0.00100194 -0.00243739 0.988005 
-0.00100194 -0.00243739 0.988005 
5.45522e-05 -8.73979e-06 1.00011 
5.45522e-05 -8.73979e-06 1.00011 
5.45522e-05 -8.73979e-06 1.00011 
5.45522e-05 -8.73979e-06 1.00011 
0.000195951 1.84522e-05 1.00014 
0.000195951 1.84522e-05 1.00014 
0.000195951 1.84522e-05 1.00014 
0.000195951 1.84522e-05 1.00014 
-0.000216804 -8.0032e-05 1.00017 
-0.000216804 -8.0032e-05 1.00017 
-0.000216804 -8.0032e-05 1.00017 
-0.000216804 -8.0032e-05 1.00017 
-0.000424235 -0.000104845 1.00009 
-0.000424235 -0.000104845 1.00009 
-0.000424235 -0.000104845 1.00009 
-0.000424235 -0.000104845 1.00009 
-0.000110768 -0.000237666 1.00014 
-0.000110768 -0.000237666 1.00014 
-0.000110768 -0.000237666 1.00014 
-0.000110768 -0.000237666 1.00014 
5.41638e-07 -0.000301676 1.00014 
5.41638e-07 -0.000301676 1.00014 
5.41638e-07 -0.000301676 1.00014 
5.41638e-07 -0.000301676 1.00014 
3.55836e-05 -0.000107656 1.00017 
3.55836e-05 -0.000107656 1.00017 
3.55836e-05 -0.000107656 1.00017 
3.55836e-05 -0.000107656 1.00017 
3.91993e-05 -0.000335799 1.00018 
3.91993e-05 -0.000335799 1.00018 
3.91993e-05 -0.000335799 1.00018 
3.91993e-05 -0.000335799 1.00018 
-4.03019e-05 -2.36453e-05 1.00012 
-4.03019e-05 -2.36453e-05 1.00012 
-4.03019e-05 -2.36453e-05 1.00012 
-4.03019e-05 -2.36453e-05 1.00012 
-0.000121563 -2.43731e-05 1.00024 
-0.000121563 -2.43731e-05 1.00024 
-0.000121563 -2.43731e-05 1.00024 
-0.000121563 -2.43731e-05 1.00024 
-6.94676e-05 -2.76648e-05 1.00022 
-6.94676e-05 -2.76648e-05 1.00022 
-6.94676e-05 -2.76648e-05 1.00022 
-6.94676e-05 -2.76648e-05 1.00022 
-0.000241924 -2.22644e-05 1.00016 
-0.000241924 -2.22644e-05 1.00016 
-0.000241924 -2.22644e-05 1.00016 
-0.000241924 -2.22644e-05 1.00016 
0.00065382 -0.00076489 0.999216 
0.00065382 -0.00076489 0.999216 
0.00065382 -0.00076489 0.999216 
0.00065382 -0.00076489 0.999216 
0.000315593 -0.000124259 0.99974 
0.000315593 -0.000124259 0.99974 
0.000315593 -0.000124259 0.99974 
0.000315593 -0.000124259 0.99974 
0.000274203 0.000142877 1.00006 
0.000274203 0.000142877 1.00006 
0.000274203 0.000142877 1.00006 
0.000274203 0.000142877 1.00006 
0.00013163 0.000126599 1.0002 
0.00013163 0.000126599 1.0002 
0.00013163 0.000126599 1.0002 
0.00013163 0.000126599 1.0002 
8.49256e-05 -0.000186868 1.00017 
8.49256e-05 -0.000186868 1.00017 
8.49256e-05 -0.000186868 1.00017 
8.49256e-05 -0.000186868 1.00017 
1.29274e-05 -0.000339602 1.00018 
1.29274e-05 -0.000339602 1.00018 
1.29274e-05 -0.000339602 1.00018 
1.29274e-05 -0.000339602 1.00018 
1.10344e-05 6.99809e-05 1.00015 
1.10344e-05 6.99809e-05 1.00015 
1.10344e-05 6.99809e-05 1.00015 
1.10344e-05 6.99809e-05 1.00015 
1.65911e-05 5.4369e-05 1.00012 
1.65911e-05 5.4369e-05 1.00012 
1.65911e-05 5.4369e-05 1.00012 
1.65911e-05 5.4369e-05 1.00012 
-3.00911e-05 -6.67112e-06 1.00013 
-3.00911e-05 -6.67112e-06 1.00013 
-3.00911e-05 -6.67112e-06 1.00013 
-3.00911e-05 -6.67112e-06 1.00013 
-6.98929e-06 5.24433e-06 1.0001 
-6.98929e-06 5.24433e-06 1.0001 
-6.98929e-06 5.24433e-06 1.0001 
-6.98929e-06 5.24433e-06 1.0001 
0.000304027 -0.00135247 0.998093 
0.000304027 -0.00135247 0.998093 
0.000304027 -0.00135247 0.998093 
0.000304027 -0.00135247 0.998093 
-0.000225251 -0.00167175 0.998467 
-0.000225251 -0.00167175 0.998467 
-0.000225251 -0.00167175 0.998467 
-0.000225251 -0.00167175 0.998467 
0.000118589 0.000349407 1.00006 
0.000118589 0.000349407 1.00006 
0.000118589 0.000349407 1.00006 
0.000118589 0.000349407 1.00006 
0.000139498 0.00025093 1.00018 
0.000139498 0.00025093 1.00018 
0.000139498 0.00025093 1.00018 
0.000139498 0.00025093 1.00018 
-5.8865e-06 5.05464e-06 1.00008 
-5.8865e-06 5.05464e-06 1.00008 
-5.8865e-06 5.05464e-06 1.00008 
-5.8865e-06 5.05464e-06 1.00008 
-5.74981e-05 -1.46215e-06 1.00013 
-5.74981e-05 -1.46215e-06 1.00013 
-5.74981e-05 -1.46215e-06 1.00013 
-5.74981e-05 -1.46215e-06 1.00013 
-2.46187e-05 2.05316e-05 1.00012 
-2.46187e-05 2.05316e-05 1.00012 
-2.46187e-05 2.05316e-05 1.00012 
-2.46187e-05 2.05316e-05 1.00012 
3.91926e-05 -1.44457e-05 1.0001 
3.91926e-05 -1.44457e-05 1.0001 
3.91926e-05 -1.44457e-05 1.0001 
3.91926e-05 -1.44457e-05 1.0001 
-8.07622e-07 -2.83013e-05 1.00012 
-8.07622e-07 -2.83013e-05 1.00012 
-8.07622e-07 -2.83013e-05 1.00012 
-8.07622e-07 -2.83013e-05 1.00012 
0.000477968 -0.00170062 0.999471 
0.000477968 -0.00170062 0.999471 
0.000477968 -0.00170062 0.999471 
0.000477968 -0.00170062 0.999471 
-0.000718947 -0.00200918 0.997802 
-0.000718947 -0.00200918 0.997802 
-0.000718947 -0.00200918 0.997802 
-0.000718947 -0.00200918 0.997802 
1.1956e-05 -0.00170541 0.99868 
1.1956e-05 -0.00170541 0.99868 
1.1956e-05 -0.00170541 0.99868 
1.1956e-05 -0.00170541 0.99868 
0.000877291 -0.00159648 0.997775 
0.000877291 -0.00159648 0.997775 
0.000877291 -0.00159648 0.997775 
0.000877291 -0.00159648 0.997775 
-0.000259514 0.000241279 0.998166 
-0.000259514 0.000241279 0.998166 
-0.000259514 0.000241279 0.998166 
-0.000259514 0.000241279 0.998166 
-0.000737522 -0.000377184 0.99981 
-0.000737522 -0.000377184 0.99981 
-0.000737522 -0.000377184 0.99981 
-0.000737522 -0.000377184 0.99981 
-0.00028395 -9.421e-05 1.00019 
-0.00028395 -9.421e-05 1.00019 
-0.00028395 -9.421e-05 1.00019 
-0.00028395 -9.421e-05 1.00019 
-3.12611e-05 9.59948e-06 1.00022 
-3.12611e-05 9.59948e-06 1.00022 
-3.12611e-05 9.59948e-06 1.00022 
-3.12611e-05 9.59948e-06 1.00022 
-0.000360354 -1.47749e-05 0.999627 
-0.000360354 -1.47749e-05 0.999627 
-0.000360354 -1.47749e-05 0.999627 
-0.000360354 -1.47749e-05 0.999627 
0.0011443 -0.000510347 0.998201 
0.0011443 -0.000510347 0.998201 
0.0011443 -0.000510347 0.998201 
0.0011443 -0.000510347 0.998201 
-0.000652687 -0.00168685 0.988116 
-0.000652687 -0.00168685 0.988116 
-0.000652687 -0.00168685 0.988116 
-0.000652687 -0.00168685 0.988116 
-0.00185142 -0.00164568 0.989326 
-0.00185142 -0.00164568 0.989326 
-0.00185142 -0.00164568 0.989326 
-0.00185142 -0.00164568 0.989326 
4.6655e-05 -0.000400615 0.999957 
4.6655e-05 -0.000400615 0.999957 
4.6655e-05 -0.000400615 0.999957 
4.6655e-05 -0.000400615 0.999957 
4.0416e-05 -9.69297e-05 0.999548 
4.0416e-05 -9.69297e-05 0.999548 
4.0416e-05 -9.69297e-05 0.999548 
4.0416e-05 -9.69297e-05 0.999548 
-0.000221714 -0.000714319 0.999811 
-0.000221714 -0.000714319 0.999811 
-0.000221714 -0.000714319 0.999811 
-0.000221714 -0.000714319 0.999811 
-0.000816589 -0.000890149 0.998643 
-0.000816589 -0.000890149 0.998643 
-0.000816589 -0.000890149 0.998643 
-0.000816589 -0.000890149 0.998643 
-0.000870036 -0.000397723 0.999675 
-0.000870036 -0.000397723 0.999675 
-0.000870036 -0.000397723 0.999675 
-0.000870036 -0.000397723 0.999675 
-0.000584365 -0.000506287 0.999649 
-0.000584365 -0.000506287 0.999649 
-0.000584365 -0.000506287 0.999649 
-0.000584365 -0.000506287 0.999649 
-0.000674432 0.000511338 0.999571 
-0.000674432 0.000511338 0.999571 
-0.000674432 0.000511338 0.999571 
-0.000674432 0.000511338 0.999571 
0.000171412 -0.000147147 0.998652 
0.000171412 -0.000147147 0.998652 
0.000171412 -0.000147147 0.998652 
0.000171412 -0.000147147 0.998652 
-0.00079314 0.0007803 0.99922 
-0.00079314 0.0007803 0.99922 
-0.00079314 0.0007803 0.99922 
-0.00079314 0.0007803 0.99922 
-0.00121744 0.000514546 0.99919 
-0.00121744 0.000514546 0.99919 
-0.00121744 0.000514546 0.99919 
-0.00121744 0.000514546 0.99919 
-0.00155051 0.00079187 0.999058 
-0.00155051 0.00079187 0.999058 
-0.00155051 0.00079187 0.999058 
-0.00155051 0.00079187 0.999058 
-0.00169065 0.000677122 0.998798 
-0.00169065 0.000677122 0.998798 
-0.00169065 0.000677122 0.998798 
-0.00169065 0.000677122 0.998798 
1.28248e-05 2.45679e-05 1.00008 
1.28248e-05 2.45679e-05 1.00008 
1.28248e-05 2.45679e-05 1.00008 
1.28248e-05 2.45679e-05 1.00008 
4.65115e-05 9.26308e-06 1.0001 
4.65115e-05 9.26308e-06 1.0001 
4.65115e-05 9.26308e-06 1.0001 
4.65115e-05 9.26308e-06 1.0001 
-0.00103781 -0.000914062 0.999265 
-0.00103781 -0.000914062 0.999265 
-0.00103781 -0.000914062 0.999265 
-0.00103781 -0.000914062 0.999265 
-0.00041703 0.00045367 0.997489 
-0.00041703 0.00045367 0.997489 
-0.00041703 0.00045367 0.997489 
-0.00041703 0.00045367 0.997489 
0.0012259 -0.000164595 0.999619 
0.0012259 -0.000164595 0.999619 
0.0012259 -0.000164595 0.999619 
0.0012259 -0.000164595 0.999619 
0.00103158 -2.513e-05 0.99966 
0.00103158 -2.513e-05 0.99966 
0.00103158 -2.513e-05 0.99966 
0.00103158 -2.513e-05 0.99966 
