# vtk DataFile Version 3.0
vtk output
ASCII
DATASET UNSTRUCTURED_GRID
POINTS 8576 float
0.114043	0.0943971	0.1	
0.0858783	0.0607949	0.1	
0.0741079	0.088115	0.1	
0.0632975	0.0980676	0	
0.204676	0.0233192	0.1	
0.153315	0.00689278	0.1	
0.160735	0.0621263	0.1	
0.132963	0.044259	0	
-0.0269211	0.0671862	0.1	
0.00442099	0.0829354	0.1	
0	0.045	0.1	
0.0186333	0.101613	0.0479424	
-0.075941	0.18593	0.1	
-0.0880857	0.11829	0	
-0.0278782	0.153479	0.1	
-0.0791922	0.124893	0.1	
-0.0880857	0.11829	0	
-0.0254114	0.106009	0.1	
-0.0278782	0.153479	0.1	
-0.0791922	0.124893	0.1	
0.0741079	0.088115	0.1	
0.0632975	0.0980676	0	
0.0858783	0.0607949	0.1	
0.0396544	0.04868	0.0438187	
0.194544	-0.0323862	0.1	
0.136366	-0.0453365	0.1	
0.153315	0.00689278	0.1	
0.201967	-0.00950962	0	
0.114043	0.0943971	0.1	
0.160735	0.0621263	0.1	
0.114815	0.0394603	0.1	
0.0969794	0.021072	0.0441191	
-0.0269211	0.0671862	0.1	
0	0.045	0.1	
-0.0318198	0.0318198	0.1	
-0.0436673	0.0180876	0.0496986	
0.104819	-0.00331638	0.1	
0.136366	-0.0453365	0.1	
0.0986719	-0.0360043	0.1	
0.0969794	0.021072	0.0441191	
0.0207402	-0.174187	0.1	
-0.0142517	-0.205249	0.1	
-0.0203113	-0.154489	0.1	
0.0279075	-0.16395	0	
0.114043	0.0943971	0.1	
0.0741079	0.088115	0.1	
0.0691478	0.134694	0.1	
0.0632975	0.0980676	0	
-0.0607822	-0.132192	0.1	
-0.109965	-0.155382	0.1	
-0.0529805	-0.19738	0	
-0.0566812	-0.183891	0.1	
-0.0269211	0.0671862	0.1	
-0.0182151	0.0644617	0	
0	0.045	0.1	
-0.0436673	0.0180876	0.0496986	
0.194544	-0.0323862	0.1	
0.183564	-0.0903245	0.1	
0.136366	-0.0453365	0.1	
0.190166	-0.0983881	0	
-0.0607822	-0.132192	0.1	
-0.0529805	-0.19738	0	
-0.0203113	-0.154489	0.1	
-0.0566812	-0.183891	0.1	
0.0986719	-0.0360043	0.1	
0.136366	-0.0453365	0.1	
0.0868431	-0.0680824	0.1	
0.12107	-0.0431928	0	
-0.12308	-0.143942	0	
-0.108753	-0.0943056	0.1	
-0.109965	-0.155382	0.1	
-0.0607822	-0.132192	0.1	
-0.203899	-0.0323666	0.1	
-0.181323	-0.0027565	0	
-0.253293	0.00301969	0.1	
-0.19804	0.0242816	0.1	
-0.0278782	0.153479	0.1	
-0.0758641	0.204419	0	
-0.075941	0.18593	0.1	
-0.0232097	0.208019	0.1	
-0.140177	0.0445127	0.1	
-0.13855	0.104902	0.1	
-0.0949426	0.0752698	0.1	
-0.0733988	0.0716859	0.0422482	
-0.108753	-0.0943056	0.1	
-0.0607822	-0.132192	0.1	
-0.12308	-0.143942	0	
-0.0647576	-0.0686517	0.0541732	
-0.0254114	0.106009	0.1	
-0.0791922	0.124893	0.1	
-0.0880857	0.11829	0	
-0.0733988	0.0716859	0.0422482	
0.114043	0.0943971	0.1	
0.0858783	0.0607949	0.1	
0.0632975	0.0980676	0	
0.0969794	0.021072	0.0441191	
-0.247343	0.061739	0.1	
-0.242461	0.118505	0.1	
-0.296313	0.0995627	0	
-0.29431	0.0991694	0.1	
-0.242461	0.118505	0.1	
-0.191044	0.0809942	0.1	
-0.169647	0.0846842	0	
-0.1869	0.140647	0.1	
0.0783782	0.19473	0.1	
0.0236281	0.174203	0.1	
0.0312955	0.232251	0.1	
0.0750467	0.185499	0	
-0.0791922	0.124893	0.1	
-0.075941	0.18593	0.1	
-0.0880857	0.11829	0	
-0.131315	0.16418	0.1	
0.0139627	0.124614	0.1	
-0.0278782	0.153479	0.1	
0.0236281	0.174203	0.1	
0.0186333	0.101613	0.0479424	
0.130886	-0.100339	0.1	
0.136366	-0.0453365	0.1	
0.183564	-0.0903245	0.1	
0.190166	-0.0983881	0	
0.0691478	0.134694	0.1	
0.0236281	0.174203	0.1	
0.0750467	0.185499	0	
0.0186333	0.101613	0.0479424	
0.240073	-0.0744514	0.1	
0.225509	-0.136032	0.1	
0.26859	-0.0619166	0	
0.287371	-0.120299	0.1	
0.0864603	-0.112342	0.1	
0.0868431	-0.0680824	0.1	
0.130886	-0.100339	0.1	
0.062652	-0.118801	0.041886	
-0.110394	-0.216726	0.1	
-0.12308	-0.143942	0	
-0.16441	-0.183508	0.1	
-0.109965	-0.155382	0.1	
0.251733	-0.014256	0.1	
0.240073	-0.0744514	0.1	
0.194544	-0.0323862	0.1	
0.201967	-0.00950962	0	
-0.160221	-0.122206	0.1	
-0.108753	-0.0943056	0.1	
-0.12308	-0.143942	0	
-0.142279	-0.0393203	0.0487826	
-0.248332	0.050693	0	
-0.191044	0.0809942	0.1	
-0.242461	0.118505	0.1	
-0.247343	0.061739	0.1	
0.204676	0.0233192	0.1	
0.255462	0.038247	0.1	
0.251733	-0.014256	0.1	
0.201967	-0.00950962	0	
-0.0201457	0.00856081	0.1	
0	0.045	0.1	
0.00677135	0.0163475	0.1	
-0.0436673	0.0180876	0.0496986	
-0.0269211	0.0671862	0.1	
0	0.045	0.1	
-0.0182151	0.0644617	0	
0.0186333	0.101613	0.0479424	
-0.203899	-0.0323666	0.1	
-0.19804	0.0242816	0.1	
-0.153293	-0.011499	0.1	
-0.142279	-0.0393203	0.0487826	
-0.00311199	0.32667	0.1	
-0.0730421	0.296762	0	
-0.0135764	0.270208	0.1	
-0.0572929	0.316053	0.1	
0.114043	0.0943971	0.1	
0.0691478	0.134694	0.1	
0.124146	0.156872	0.1	
0.144601	0.131477	0	
-0.00500969	-0.0120945	0.1	
-0.0318198	-0.0318198	0.1	
-0.0201457	0.00856081	0.1	
-0.0436673	0.0180876	0.0496986	
0.12107	-0.0431928	0	
0.130886	-0.100339	0.1	
0.0868431	-0.0680824	0.1	
0.062652	-0.118801	0.041886	
-0.157075	-0.0653284	0.1	
-0.108753	-0.0943056	0.1	
-0.160221	-0.122206	0.1	
-0.142279	-0.0393203	0.0487826	
-0.155635	0.172227	0	
-0.237687	0.180874	0.1	
-0.1869	0.140647	0.1	
-0.175847	0.204716	0.1	
-0.0254114	0.106009	0.1	
-0.0583523	0.0875158	0.1	
-0.0791922	0.124893	0.1	
-0.0733988	0.0716859	0.0422482	
-0.0318198	-0.0318198	0.1	
-0.0712343	-0.0265969	0.1	
-0.045	0	0.1	
-0.088703	-0.0138649	0.0491848	
0.0691478	0.134694	0.1	
0.0236281	0.174203	0.1	
0.0783782	0.19473	0.1	
0.0750467	0.185499	0	
-0.0232097	0.208019	0.1	
-0.0278782	0.153479	0.1	
-0.00652201	0.151895	0	
0.0236281	0.174203	0.1	
0.0312955	0.232251	0.1	
0.0906227	0.254757	0.1	
0.0783782	0.19473	0.1	
0.0750467	0.185499	0	
-0.0254114	0.106009	0.1	
-0.00652201	0.151895	0	
-0.0880857	0.11829	0	
-0.0278782	0.153479	0.1	
0.124146	0.156872	0.1	
0.0691478	0.134694	0.1	
0.0783782	0.19473	0.1	
0.0750467	0.185499	0	
0.130886	-0.100339	0.1	
0.0868431	-0.0680824	0.1	
0.136366	-0.0453365	0.1	
0.12107	-0.0431928	0	
0.0986719	-0.0360043	0.1	
0.12107	-0.0431928	0	
0.0868431	-0.0680824	0.1	
0.0512771	-0.0404658	0.045086	
0.0858783	0.0607949	0.1	
0.114043	0.0943971	0.1	
0.114815	0.0394603	0.1	
0.0969794	0.021072	0.0441191	
-0.110394	-0.216726	0.1	
-0.0529805	-0.19738	0	
-0.109965	-0.155382	0.1	
-0.0566812	-0.183891	0.1	
-0.1869	0.140647	0.1	
-0.13855	0.104902	0.1	
-0.155635	0.172227	0	
-0.131315	0.16418	0.1	
-0.0880857	0.11829	0	
-0.0758641	0.204419	0	
-0.075941	0.18593	0.1	
-0.0278782	0.153479	0.1	
0.153315	0.00689278	0.1	
0.114815	0.0394603	0.1	
0.160735	0.0621263	0.1	
0.0969794	0.021072	0.0441191	
0.124146	0.156872	0.1	
0.0783782	0.19473	0.1	
0.129359	0.208003	0.1	
0.0750467	0.185499	0	
0.204676	0.0233192	0.1	
0.153315	0.00689278	0.1	
0.132963	0.044259	0	
0.201967	-0.00950962	0	
-0.104461	0.000932435	0.1	
-0.140177	0.0445127	0.1	
-0.0944203	0.0353385	0.1	
-0.088703	-0.0138649	0.0491848	
-0.0254114	0.106009	0.1	
-0.0733988	0.0716859	0.0422482	
-0.00652201	0.151895	0	
0.0186333	0.101613	0.0479424	
-0.0269211	0.0671862	0.1	
-0.0318198	0.0318198	0.1	
-0.0611924	0.0535755	0.1	
-0.0436673	0.0180876	0.0496986	
-0.0142517	-0.205249	0.1	
-0.0203113	-0.154489	0.1	
-0.0529805	-0.19738	0	
-0.0566812	-0.183891	0.1	
0.114043	0.0943971	0.1	
0.168985	0.119579	0.1	
0.160735	0.0621263	0.1	
0.144601	0.131477	0	
-0.0142517	-0.205249	0.1	
-0.0529805	-0.19738	0	
-0.0203113	-0.154489	0.1	
0.0279075	-0.16395	0	
0.240073	-0.0744514	0.1	
0.183564	-0.0903245	0.1	
0.194544	-0.0323862	0.1	
0.190166	-0.0983881	0	
-0.0880857	0.11829	0	
-0.13855	0.104902	0.1	
-0.0791922	0.124893	0.1	
-0.131315	0.16418	0.1	
-0.0278782	0.153479	0.1	
-0.0254114	0.106009	0.1	
-0.00652201	0.151895	0	
0.0186333	0.101613	0.0479424	
0.0207402	-0.174187	0.1	
0.0587245	-0.143156	0.1	
0.0725059	-0.197526	0.1	
0.062652	-0.118801	0.041886	
0.104819	-0.00331638	0.1	
0.153315	0.00689278	0.1	
0.136366	-0.0453365	0.1	
0.0969794	0.021072	0.0441191	
-0.0674604	0.249371	0.1	
-0.0135764	0.270208	0.1	
-0.0232097	0.208019	0.1	
0.00604814	0.236488	0	
0.129359	0.208003	0.1	
0.0783782	0.19473	0.1	
0.0906227	0.254757	0.1	
0.0750467	0.185499	0	
0.124146	0.156872	0.1	
0.129359	0.208003	0.1	
0.179715	0.179275	0.1	
0.154944	0.223937	0	
-0.258057	-0.0572365	0.1	
-0.256491	-0.0362829	0	
-0.203899	-0.0323666	0.1	
-0.209136	-0.0909343	0.1	
0	-0.045	0.1	
0.0401753	-0.0586342	0.1	
0.00728726	-0.0832273	0.1	
-0.0200153	-0.0483211	0.048598	
-0.0583523	0.0875158	0.1	
-0.0254114	0.106009	0.1	
-0.0269211	0.0671862	0.1	
-0.0733988	0.0716859	0.0422482	
-0.140177	0.0445127	0.1	
-0.191044	0.0809942	0.1	
-0.169647	0.0846842	0	
-0.19804	0.0242816	0.1	
0.0741079	0.088115	0.1	
0.0858783	0.0607949	0.1	
0.0550025	0.059172	0.1	
0.0396544	0.04868	0.0438187	
-0.248332	0.050693	0	
-0.191044	0.0809942	0.1	
-0.247343	0.061739	0.1	
-0.19804	0.0242816	0.1	
-0.0538392	-0.0535857	0.1	
-0.0712343	-0.0265969	0.1	
-0.0318198	-0.0318198	0.1	
-0.0647576	-0.0686517	0.0541732	
-0.0415815	-0.110392	0	
-0.0607822	-0.132192	0.1	
-0.0203113	-0.154489	0.1	
0.00260765	-0.105267	0.0427151	
-0.075941	0.18593	0.1	
-0.121547	0.224354	0.1	
-0.0758641	0.204419	0	
-0.131315	0.16418	0.1	
-0.109965	-0.155382	0.1	
-0.0529805	-0.19738	0	
-0.12308	-0.143942	0	
-0.0607822	-0.132192	0.1	
0.0279075	-0.16395	0	
0.0725059	-0.197526	0.1	
0.0207402	-0.174187	0.1	
0.0204871	-0.24099	0.1	
-0.296313	0.0995627	0	
-0.247343	0.061739	0.1	
-0.29431	0.0991694	0.1	
-0.304909	0.0444641	0.1	
0	0.045	0.1	
0.0318198	0.0318198	0.1	
0.00677135	0.0163475	0.1	
0.0396544	0.04868	0.0438187	
0.153315	0.00689278	0.1	
0.204676	0.0233192	0.1	
0.194544	-0.0323862	0.1	
0.201967	-0.00950962	0	
-0.0203113	-0.154489	0.1	
-0.0415815	-0.110392	0	
-0.0529805	-0.19738	0	
-0.0607822	-0.132192	0.1	
-0.121547	0.224354	0.1	
-0.138104	0.243902	0	
-0.116127	0.293072	0.1	
-0.0674604	0.249371	0.1	
0.12107	-0.0431928	0	
0.153315	0.00689278	0.1	
0.136366	-0.0453365	0.1	
0.201967	-0.00950962	0	
-0.0201457	0.00856081	0.1	
-0.0318198	0.0318198	0.1	
0	0.045	0.1	
-0.0436673	0.0180876	0.0496986	
-0.0659287	-0.28985	0	
-0.111587	-0.287654	0.1	
-0.0496677	-0.250381	0.1	
-0.110394	-0.216726	0.1	
0.0858783	0.0607949	0.1	
0.0396544	0.04868	0.0438187	
0.0632975	0.0980676	0	
0.0969794	0.021072	0.0441191	
-0.0269211	0.0671862	0.1	
-0.0733988	0.0716859	0.0422482	
-0.0254114	0.106009	0.1	
0.0186333	0.101613	0.0479424	
-0.0201457	0.00856081	0.1	
-0.0318198	-0.0318198	0.1	
-0.045	0	0.1	
-0.0436673	0.0180876	0.0496986	
-0.108753	-0.0943056	0.1	
-0.160221	-0.122206	0.1	
-0.12308	-0.143942	0	
-0.109965	-0.155382	0.1	
-0.0203113	-0.154489	0.1	
-0.0607822	-0.132192	0.1	
-0.0251864	-0.106886	0.1	
0.00260765	-0.105267	0.0427151	
0.230865	0.135658	0.1	
0.168985	0.119579	0.1	
0.179715	0.179275	0.1	
0.237285	0.176133	0	
0.0312955	0.232251	0.1	
0.0236281	0.174203	0.1	
-0.0232097	0.208019	0.1	
0.00604814	0.236488	0	
0.387235	0.0357483	0.1	
0.45	0	0.05	
0.374822	-0.0324999	0.1	
0.384421	-0.0378621	0	
-0.0611924	0.0535755	0.1	
-0.0606984	0.0243229	0.1	
-0.0944203	0.0353385	0.1	
-0.0733988	0.0716859	0.0422482	
-0.269145	-0.181189	0.1	
-0.265692	-0.195501	0	
-0.217835	-0.151685	0.1	
-0.225546	-0.215121	0.1	
0.154944	0.223937	0	
0.124146	0.156872	0.1	
0.129359	0.208003	0.1	
0.0750467	0.185499	0	
0.160735	0.0621263	0.1	
0.204676	0.0233192	0.1	
0.132963	0.044259	0	
0.213357	0.0766959	0	
-0.0358979	0.379949	0.1	
-0.0339688	0.375665	0	
0	0.45	0.05	
0.0381609	0.387454	0	
-0.0758641	0.204419	0	
-0.0880857	0.11829	0	
-0.075941	0.18593	0.1	
-0.131315	0.16418	0.1	
-0.0278782	0.153479	0.1	
-0.00652201	0.151895	0	
-0.0758641	0.204419	0	
-0.0232097	0.208019	0.1	
-0.256491	-0.0362829	0	
-0.203899	-0.0323666	0.1	
-0.181323	-0.0027565	0	
-0.253293	0.00301969	0.1	
-0.110394	-0.216726	0.1	
-0.0529805	-0.19738	0	
-0.12308	-0.143942	0	
-0.109965	-0.155382	0.1	
0.201967	-0.00950962	0	
0.240073	-0.0744514	0.1	
0.194544	-0.0323862	0.1	
0.190166	-0.0983881	0	
-0.242461	0.118505	0.1	
-0.300257	0.152847	0.1	
-0.296313	0.0995627	0	
-0.29431	0.0991694	0.1	
-0.16441	-0.183508	0.1	
-0.12308	-0.143942	0	
-0.160221	-0.122206	0.1	
-0.109965	-0.155382	0.1	
-0.00652201	0.151895	0	
-0.0254114	0.106009	0.1	
-0.0880857	0.11829	0	
-0.0733988	0.0716859	0.0422482	
0.110168	-0.152489	0.1	
0.0864603	-0.112342	0.1	
0.130886	-0.100339	0.1	
0.062652	-0.118801	0.041886	
0	-0.045	0.1	
-0.00500969	-0.0120945	0.1	
0.0202986	-0.00819178	0.1	
0.0060848	-2.90377e-05	0.0422367	
-0.0251864	-0.106886	0.1	
0.00260765	-0.105267	0.0427151	
-0.0607822	-0.132192	0.1	
-0.0647576	-0.0686517	0.0541732	
-0.13855	0.104902	0.1	
-0.0880857	0.11829	0	
-0.155635	0.172227	0	
-0.131315	0.16418	0.1	
-0.0737761	0.00176994	0.1	
-0.0944203	0.0353385	0.1	
-0.0606984	0.0243229	0.1	
-0.088703	-0.0138649	0.0491848	
0.153315	0.00689278	0.1	
0.12107	-0.0431928	0	
0.136366	-0.0453365	0.1	
0.0969794	0.021072	0.0441191	
-0.140177	0.0445127	0.1	
-0.169647	0.0846842	0	
-0.13855	0.104902	0.1	
-0.0733988	0.0716859	0.0422482	
0.0714224	0.0228299	0.1	
0.0662467	-0.0253248	0.1	
0.045	0	0.1	
0.0969794	0.021072	0.0441191	
0.0986719	-0.0360043	0.1	
0.0662467	-0.0253248	0.1	
0.104819	-0.00331638	0.1	
0.0969794	0.021072	0.0441191	
0.0450774	0.367889	0.1	
-0.0358979	0.379949	0.1	
0	0.45	0.05	
0.0381609	0.387454	0	
-0.0997698	0.0308567	0	
-0.0944203	0.0353385	0.1	
-0.140177	0.0445127	0.1	
-0.088703	-0.0138649	0.0491848	
-0.275518	-0.12132	0	
-0.217835	-0.151685	0.1	
-0.279108	-0.122562	0.1	
-0.269145	-0.181189	0.1	
-0.140177	0.0445127	0.1	
-0.0949426	0.0752698	0.1	
-0.0944203	0.0353385	0.1	
-0.0733988	0.0716859	0.0422482	
0.136366	-0.0453365	0.1	
0.130886	-0.100339	0.1	
0.12107	-0.0431928	0	
0.190166	-0.0983881	0	
0.136366	-0.0453365	0.1	
0.12107	-0.0431928	0	
0.0986719	-0.0360043	0.1	
0.0969794	0.021072	0.0441191	
-0.217835	-0.151685	0.1	
-0.160221	-0.122206	0.1	
-0.190622	-0.0884834	0	
-0.209136	-0.0909343	0.1	
0.240073	-0.0744514	0.1	
0.26859	-0.0619166	0	
0.225509	-0.136032	0.1	
0.190166	-0.0983881	0	
0.0691478	0.134694	0.1	
0.124146	0.156872	0.1	
0.144601	0.131477	0	
0.0750467	0.185499	0	
-0.0997698	0.0308567	0	
-0.088703	-0.0138649	0.0491848	
-0.140177	0.0445127	0.1	
-0.142279	-0.0393203	0.0487826	
0.0318198	0.0318198	0.1	
0.0202986	-0.00819178	0.1	
0.00677135	0.0163475	0.1	
0.0060848	-2.90377e-05	0.0422367	
0.45	0	0.05	
0.387235	0.0357483	0.1	
0.363227	0.0380543	0	
0.384421	-0.0378621	0	
-0.275518	-0.12132	0	
-0.265692	-0.195501	0	
-0.217835	-0.151685	0.1	
-0.269145	-0.181189	0.1	
0.110168	-0.152489	0.1	
0.0922363	-0.215793	0	
0.0725059	-0.197526	0.1	
0.062652	-0.118801	0.041886	
0.0401753	-0.0586342	0.1	
0.0488551	-0.0983509	0.1	
0.00728726	-0.0832273	0.1	
0.00260765	-0.105267	0.0427151	
0.130886	-0.100339	0.1	
0.183564	-0.0903245	0.1	
0.168154	-0.150165	0.1	
0.190166	-0.0983881	0	
0.153315	0.00689278	0.1	
0.201967	-0.00950962	0	
0.12107	-0.0431928	0	
0.0969794	0.021072	0.0441191	
-0.29431	0.0991694	0.1	
-0.355442	0.107822	0.1	
-0.296313	0.0995627	0	
-0.304909	0.0444641	0.1	
0.0236281	0.174203	0.1	
0.0691478	0.134694	0.1	
0.0139627	0.124614	0.1	
0.0186333	0.101613	0.0479424	
0.255462	0.038247	0.1	
0.204676	0.0233192	0.1	
0.213357	0.0766959	0	
0.201967	-0.00950962	0	
-0.0997698	0.0308567	0	
-0.140177	0.0445127	0.1	
-0.0944203	0.0353385	0.1	
-0.0733988	0.0716859	0.0422482	
-0.253293	0.00301969	0.1	
-0.256491	-0.0362829	0	
-0.203899	-0.0323666	0.1	
-0.258057	-0.0572365	0.1	
-0.389559	0.0336032	0	
-0.45	0	0.05	
-0.379429	-0.0366192	0	
-0.372975	0.0289182	0.1	
-0.16441	-0.183508	0.1	
-0.201609	-0.173762	0	
-0.170075	-0.251953	0.1	
-0.225546	-0.215121	0.1	
0.045	0	0.1	
0.0318198	-0.0318198	0.1	
0.0202986	-0.00819178	0.1	
0.0512771	-0.0404658	0.045086	
0.0142935	-0.12453	0.1	
0.0207402	-0.174187	0.1	
-0.0203113	-0.154489	0.1	
0.00260765	-0.105267	0.0427151	
0.216596	0.0778377	0.1	
0.160735	0.0621263	0.1	
0.168985	0.119579	0.1	
0.213357	0.0766959	0	
-0.12308	-0.143942	0	
-0.0607822	-0.132192	0.1	
-0.0415815	-0.110392	0	
-0.0647576	-0.0686517	0.0541732	
0.0741079	0.088115	0.1	
0.0691478	0.134694	0.1	
0.0632975	0.0980676	0	
0.0186333	0.101613	0.0479424	
0.082636	-0.254415	0.1	
0.0725059	-0.197526	0.1	
0.0922363	-0.215793	0	
0.0204871	-0.24099	0.1	
-0.169647	0.0846842	0	
-0.181323	-0.0027565	0	
-0.140177	0.0445127	0.1	
-0.19804	0.0242816	0.1	
0.204676	0.0233192	0.1	
0.160735	0.0621263	0.1	
0.216596	0.0778377	0.1	
0.213357	0.0766959	0	
-0.0135764	0.270208	0.1	
0.0447484	0.293988	0.1	
0.0312955	0.232251	0.1	
0.00604814	0.236488	0	
0.114043	0.0943971	0.1	
0.132963	0.044259	0	
0.160735	0.0621263	0.1	
0.0969794	0.021072	0.0441191	
-0.248332	0.050693	0	
-0.247343	0.061739	0.1	
-0.253293	0.00301969	0.1	
-0.19804	0.0242816	0.1	
-0.0529805	-0.19738	0	
-0.0203113	-0.154489	0.1	
0.0279075	-0.16395	0	
0.00260765	-0.105267	0.0427151	
0.144601	0.131477	0	
0.114043	0.0943971	0.1	
0.0691478	0.134694	0.1	
0.0632975	0.0980676	0	
-0.312956	-0.0762135	0.1	
-0.275518	-0.12132	0	
-0.318623	-0.0616012	0	
-0.258057	-0.0572365	0.1	
-0.131315	0.16418	0.1	
-0.121547	0.224354	0.1	
-0.155635	0.172227	0	
-0.175847	0.204716	0.1	
0.251733	-0.014256	0.1	
0.255462	0.038247	0.1	
0.281012	0.0229437	0	
0.201967	-0.00950962	0	
-0.191044	0.0809942	0.1	
-0.169647	0.0846842	0	
-0.248332	0.050693	0	
-0.242461	0.118505	0.1	
-0.203899	-0.0323666	0.1	
-0.157075	-0.0653284	0.1	
-0.209136	-0.0909343	0.1	
-0.142279	-0.0393203	0.0487826	
-0.0232097	0.208019	0.1	
-0.0758641	0.204419	0	
-0.075941	0.18593	0.1	
-0.0674604	0.249371	0.1	
0.153315	0.00689278	0.1	
0.160735	0.0621263	0.1	
0.132963	0.044259	0	
0.0969794	0.021072	0.0441191	
0.204676	0.0233192	0.1	
0.251733	-0.014256	0.1	
0.194544	-0.0323862	0.1	
0.201967	-0.00950962	0	
0.211584	-0.20097	0.1	
0.268615	-0.174062	0.1	
0.287124	-0.235637	0.1	
0.216652	-0.249073	0	
-0.0182151	0.0644617	0	
0.0396544	0.04868	0.0438187	
0	0.045	0.1	
-0.0436673	0.0180876	0.0496986	
0.183564	-0.0903245	0.1	
0.240073	-0.0744514	0.1	
0.225509	-0.136032	0.1	
0.190166	-0.0983881	0	
0.045	0	0.1	
0.0318198	0.0318198	0.1	
0.0714224	0.0228299	0.1	
0.0396544	0.04868	0.0438187	
0.00604814	0.236488	0	
0.0312955	0.232251	0.1	
0.0236281	0.174203	0.1	
0.0750467	0.185499	0	
-0.237687	0.180874	0.1	
-0.155635	0.172227	0	
-0.207714	0.236511	0	
-0.175847	0.204716	0.1	
-0.0339688	0.375665	0	
-0.0730421	0.296762	0	
-0.00311199	0.32667	0.1	
-0.0572929	0.316053	0.1	
-0.0254114	0.106009	0.1	
0.00442099	0.0829354	0.1	
-0.0269211	0.0671862	0.1	
0.0186333	0.101613	0.0479424	
-0.0529805	-0.19738	0	
-0.0415815	-0.110392	0	
-0.0203113	-0.154489	0.1	
0.00260765	-0.105267	0.0427151	
0.160735	0.0621263	0.1	
0.114043	0.0943971	0.1	
0.144601	0.131477	0	
0.132963	0.044259	0	
-0.0949426	0.0752698	0.1	
-0.13855	0.104902	0.1	
-0.0791922	0.124893	0.1	
-0.0733988	0.0716859	0.0422482	
-0.169647	0.0846842	0	
-0.191044	0.0809942	0.1	
-0.13855	0.104902	0.1	
-0.1869	0.140647	0.1	
-0.275518	-0.12132	0	
-0.279108	-0.122562	0.1	
-0.217835	-0.151685	0.1	
-0.209136	-0.0909343	0.1	
-0.312659	-0.0214623	0.1	
-0.312956	-0.0762135	0.1	
-0.318623	-0.0616012	0	
-0.258057	-0.0572365	0.1	
0.132963	0.044259	0	
0.201967	-0.00950962	0	
0.153315	0.00689278	0.1	
0.0969794	0.021072	0.0441191	
-0.275518	-0.12132	0	
-0.312956	-0.0762135	0.1	
-0.279108	-0.122562	0.1	
-0.258057	-0.0572365	0.1	
-0.253293	0.00301969	0.1	
-0.181323	-0.0027565	0	
-0.248332	0.050693	0	
-0.19804	0.0242816	0.1	
-0.00652201	0.151895	0	
0.0750467	0.185499	0	
0.0236281	0.174203	0.1	
0.0186333	0.101613	0.0479424	
0.304312	0.234791	0.1	
0.294509	0.157311	0.1	
0.238182	0.208514	0.1	
0.297412	0.240191	0	
0.0207402	-0.174187	0.1	
0.0279075	-0.16395	0	
-0.0203113	-0.154489	0.1	
0.00260765	-0.105267	0.0427151	
0.331486	-0.177371	0.1	
0.339399	-0.183579	0	
0.287124	-0.235637	0.1	
0.268615	-0.174062	0.1	
0.12107	-0.0431928	0	
0.0868431	-0.0680824	0.1	
0.0512771	-0.0404658	0.045086	
0.062652	-0.118801	0.041886	
-0.279108	-0.122562	0.1	
-0.275518	-0.12132	0	
-0.258057	-0.0572365	0.1	
-0.209136	-0.0909343	0.1	
-0.0572929	0.316053	0.1	
-0.0339688	0.375665	0	
-0.108028	0.370407	0	
-0.10824	0.362258	0.1	
0.0405437	0.0931998	0.1	
0.0741079	0.088115	0.1	
0.0550025	0.059172	0.1	
0.0396544	0.04868	0.0438187	
0.110168	-0.152489	0.1	
0.130886	-0.100339	0.1	
0.168154	-0.150165	0.1	
0.108307	-0.130924	0	
0.045	0	0.1	
0.0202986	-0.00819178	0.1	
0.0318198	0.0318198	0.1	
0.0060848	-2.90377e-05	0.0422367	
0.044217	-0.387842	0.1	
0	-0.45	0.05	
-0.0276628	-0.367444	0.1	
0.0404591	-0.377182	0	
-0.0135764	0.270208	0.1	
-0.0730421	0.296762	0	
-0.00311199	0.32667	0.1	
0.0210919	0.316201	0	
-0.175847	0.204716	0.1	
-0.121547	0.224354	0.1	
-0.138104	0.243902	0	
-0.161049	0.262379	0.1	
-0.00311199	0.32667	0.1	
-0.0358979	0.379949	0.1	
-0.0339688	0.375665	0	
-0.0572929	0.316053	0.1	
0.0236281	0.174203	0.1	
-0.00652201	0.151895	0	
-0.0232097	0.208019	0.1	
0.00604814	0.236488	0	
0.0318198	-0.0318198	0.1	
0.0401753	-0.0586342	0.1	
0	-0.045	0.1	
0.0512771	-0.0404658	0.045086	
-0.217835	-0.151685	0.1	
-0.190622	-0.0884834	0	
-0.275518	-0.12132	0	
-0.209136	-0.0909343	0.1	
0.268615	-0.174062	0.1	
0.339399	-0.183579	0	
0.287124	-0.235637	0.1	
0.29265	-0.244884	0	
-0.0619298	-0.0870419	0.1	
-0.0251864	-0.106886	0.1	
-0.0607822	-0.132192	0.1	
-0.0647576	-0.0686517	0.0541732	
0.0858783	0.0607949	0.1	
0.0714224	0.0228299	0.1	
0.0550025	0.059172	0.1	
0.0396544	0.04868	0.0438187	
0.174426	-0.185564	0	
0.138545	-0.218367	0.1	
0.110168	-0.152489	0.1	
0.0922363	-0.215793	0	
-0.0758641	0.204419	0	
-0.0880857	0.11829	0	
-0.00652201	0.151895	0	
-0.0278782	0.153479	0.1	
0.255462	0.038247	0.1	
0.204676	0.0233192	0.1	
0.216596	0.0778377	0.1	
0.213357	0.0766959	0	
-0.190622	-0.0884834	0	
-0.160221	-0.122206	0.1	
-0.12308	-0.143942	0	
-0.142279	-0.0393203	0.0487826	
-0.169647	0.0846842	0	
-0.244028	0.149971	0	
-0.242461	0.118505	0.1	
-0.1869	0.140647	0.1	
-0.0572929	0.316053	0.1	
-0.0358979	0.379949	0.1	
-0.0339688	0.375665	0	
-0.10824	0.362258	0.1	
0.0725059	-0.197526	0.1	
0.110168	-0.152489	0.1	
0.138545	-0.218367	0.1	
0.0922363	-0.215793	0	
-0.0318198	-0.0318198	0.1	
-0.045	0	0.1	
-0.0436673	0.0180876	0.0496986	
-0.088703	-0.0138649	0.0491848	
-0.298599	-0.245054	0	
-0.265692	-0.195501	0	
-0.29175	-0.237189	0.1	
-0.225546	-0.215121	0.1	
-0.0496677	-0.250381	0.1	
-0.0529805	-0.19738	0	
-0.110394	-0.216726	0.1	
-0.0566812	-0.183891	0.1	
-0.217835	-0.151685	0.1	
-0.201609	-0.173762	0	
-0.160221	-0.122206	0.1	
-0.16441	-0.183508	0.1	
0.230865	0.135658	0.1	
0.287454	0.0808414	0.1	
0.216596	0.0778377	0.1	
0.213357	0.0766959	0	
-0.256491	-0.0362829	0	
-0.190622	-0.0884834	0	
-0.203899	-0.0323666	0.1	
-0.209136	-0.0909343	0.1	
-0.13855	0.104902	0.1	
-0.155635	0.172227	0	
-0.169647	0.0846842	0	
-0.1869	0.140647	0.1	
-0.356724	-0.11546	0.1	
-0.312956	-0.0762135	0.1	
-0.279108	-0.122562	0.1	
-0.275518	-0.12132	0	
0.0741079	0.088115	0.1	
0.0405437	0.0931998	0.1	
0.0691478	0.134694	0.1	
0.0186333	0.101613	0.0479424	
-0.296313	0.0995627	0	
-0.248332	0.050693	0	
-0.242461	0.118505	0.1	
-0.247343	0.061739	0.1	
-0.0674604	0.249371	0.1	
-0.0232097	0.208019	0.1	
-0.0758641	0.204419	0	
0.00604814	0.236488	0	
0.110168	-0.152489	0.1	
0.168154	-0.150165	0.1	
0.138545	-0.218367	0.1	
0.174426	-0.185564	0	
-0.0496677	-0.250381	0.1	
-0.0529805	-0.19738	0	
-0.0142517	-0.205249	0.1	
0.0148093	-0.246449	0	
0.0906227	0.254757	0.1	
0.0312955	0.232251	0.1	
0.0872949	0.269115	0	
0.0750467	0.185499	0	
-0.13855	0.104902	0.1	
-0.191044	0.0809942	0.1	
-0.169647	0.0846842	0	
-0.140177	0.0445127	0.1	
-0.111446	-0.0565624	0	
-0.108753	-0.0943056	0.1	
-0.12308	-0.143942	0	
-0.0647576	-0.0686517	0.0541732	
0	0.045	0.1	
0.0060848	-2.90377e-05	0.0422367	
0.00677135	0.0163475	0.1	
-0.0436673	0.0180876	0.0496986	
0.216596	0.0778377	0.1	
0.287454	0.0808414	0.1	
0.255462	0.038247	0.1	
0.213357	0.0766959	0	
-0.12308	-0.143942	0	
-0.108753	-0.0943056	0.1	
-0.111446	-0.0565624	0	
-0.142279	-0.0393203	0.0487826	
-0.269145	-0.181189	0.1	
-0.279108	-0.122562	0.1	
-0.327578	-0.175094	0	
-0.331484	-0.17939	0.1	
-0.00652201	0.151895	0	
0.0236281	0.174203	0.1	
-0.0278782	0.153479	0.1	
0.0186333	0.101613	0.0479424	
-0.0674604	0.249371	0.1	
-0.0135764	0.270208	0.1	
-0.0730421	0.296762	0	
-0.0572929	0.316053	0.1	
0	0.045	0.1	
0.0396544	0.04868	0.0438187	
0.0060848	-2.90377e-05	0.0422367	
-0.0436673	0.0180876	0.0496986	
-0.121547	0.224354	0.1	
-0.155635	0.172227	0	
-0.0758641	0.204419	0	
-0.131315	0.16418	0.1	
-0.0880857	0.11829	0	
-0.0791922	0.124893	0.1	
-0.13855	0.104902	0.1	
-0.0733988	0.0716859	0.0422482	
-0.0997698	0.0308567	0	
-0.140177	0.0445127	0.1	
-0.181323	-0.0027565	0	
-0.142279	-0.0393203	0.0487826	
0.190166	-0.0983881	0	
0.168154	-0.150165	0.1	
0.130886	-0.100339	0.1	
0.108307	-0.130924	0	
-0.0529805	-0.19738	0	
-0.0496677	-0.250381	0.1	
-0.0142517	-0.205249	0.1	
-0.0566812	-0.183891	0.1	
-0.131315	0.16418	0.1	
-0.155635	0.172227	0	
-0.1869	0.140647	0.1	
-0.175847	0.204716	0.1	
-0.0619298	-0.0870419	0.1	
-0.0607822	-0.132192	0.1	
-0.108753	-0.0943056	0.1	
-0.0647576	-0.0686517	0.0541732	
0.285475	0.347856	0.0500185	
0.245754	0.289669	0.1	
0.180378	0.336857	0.1	
0.18581	0.349201	0	
0.045	0	0.1	
0.0396544	0.04868	0.0438187	
0.0714224	0.0228299	0.1	
0.0969794	0.021072	0.0441191	
0.0148093	-0.246449	0	
-0.0142517	-0.205249	0.1	
-0.0496677	-0.250381	0.1	
0.0204871	-0.24099	0.1	
-0.121547	0.224354	0.1	
-0.0758641	0.204419	0	
-0.138104	0.243902	0	
-0.0674604	0.249371	0.1	
0.045	0	0.1	
0.0060848	-2.90377e-05	0.0422367	
0.0396544	0.04868	0.0438187	
0.0512771	-0.0404658	0.045086	
0.0447484	0.293988	0.1	
0.0906227	0.254757	0.1	
0.0312955	0.232251	0.1	
0.0872949	0.269115	0	
0.114043	0.0943971	0.1	
0.0632975	0.0980676	0	
0.132963	0.044259	0	
0.0969794	0.021072	0.0441191	
-0.0758641	0.204419	0	
-0.121547	0.224354	0.1	
-0.075941	0.18593	0.1	
-0.0674604	0.249371	0.1	
0.0750467	0.185499	0	
0.0632975	0.0980676	0	
0.0691478	0.134694	0.1	
0.0186333	0.101613	0.0479424	
-0.121547	0.224354	0.1	
-0.116127	0.293072	0.1	
-0.138104	0.243902	0	
-0.161049	0.262379	0.1	
0.261818	-0.161797	0	
0.26859	-0.0619166	0	
0.225509	-0.136032	0.1	
0.287371	-0.120299	0.1	
-0.00500969	-0.0120945	0.1	
-0.0318198	-0.0318198	0.1	
-0.0436673	0.0180876	0.0496986	
-0.0200153	-0.0483211	0.048598	
0.0587245	-0.143156	0.1	
0.110168	-0.152489	0.1	
0.0725059	-0.197526	0.1	
0.062652	-0.118801	0.041886	
-0.0730421	0.296762	0	
-0.0135764	0.270208	0.1	
-0.0674604	0.249371	0.1	
0.00604814	0.236488	0	
0	0.045	0.1	
0.0396544	0.04868	0.0438187	
-0.0182151	0.0644617	0	
0.0186333	0.101613	0.0479424	
-0.237687	0.180874	0.1	
-0.244028	0.149971	0	
-0.155635	0.172227	0	
-0.1869	0.140647	0.1	
0.446786	-0.053688	0.0499938	
0.357114	-0.107098	0.1	
0.384421	-0.0378621	0	
0.430623	-0.130628	0.049953	
0.225509	-0.136032	0.1	
0.211584	-0.20097	0.1	
0.168154	-0.150165	0.1	
0.174426	-0.185564	0	
0.0447484	0.293988	0.1	
-0.0135764	0.270208	0.1	
-0.00311199	0.32667	0.1	
0.0210919	0.316201	0	
0.369533	0.112832	0	
0.446786	0.053688	0.0500062	
0.387235	0.0357483	0.1	
0.363227	0.0380543	0	
-0.108028	0.370407	0	
-0.130628	0.430623	0.050047	
-0.212129	0.396865	0.0500166	
-0.10824	0.362258	0.1	
-0.248332	0.050693	0	
-0.169647	0.0846842	0	
-0.191044	0.0809942	0.1	
-0.19804	0.0242816	0.1	
-0.275518	-0.12132	0	
-0.279108	-0.122562	0.1	
-0.327578	-0.175094	0	
-0.269145	-0.181189	0.1	
0.238182	0.208514	0.1	
0.179715	0.179275	0.1	
0.173936	0.254382	0.1	
0.154944	0.223937	0	
0.213357	0.0766959	0	
0.287454	0.0808414	0.1	
0.255462	0.038247	0.1	
0.281012	0.0229437	0	
0.0986719	-0.0360043	0.1	
0.12107	-0.0431928	0	
0.0512771	-0.0404658	0.045086	
0.0969794	0.021072	0.0441191	
0.261818	-0.161797	0	
0.268615	-0.174062	0.1	
0.211584	-0.20097	0.1	
0.216652	-0.249073	0	
0.225509	-0.136032	0.1	
0.168154	-0.150165	0.1	
0.183564	-0.0903245	0.1	
0.190166	-0.0983881	0	
0.225509	-0.136032	0.1	
0.168154	-0.150165	0.1	
0.190166	-0.0983881	0	
0.174426	-0.185564	0	
0.144601	0.131477	0	
0.168985	0.119579	0.1	
0.160735	0.0621263	0.1	
0.213357	0.0766959	0	
-0.0232097	0.208019	0.1	
-0.0135764	0.270208	0.1	
0.0312955	0.232251	0.1	
0.00604814	0.236488	0	
0.168985	0.119579	0.1	
0.230865	0.135658	0.1	
0.216596	0.0778377	0.1	
0.213357	0.0766959	0	
0.0381609	0.387454	0	
-0.00311199	0.32667	0.1	
-0.0339688	0.375665	0	
0.0210919	0.316201	0	
-0.45	0	0.05	
-0.373197	-0.0467972	0.1	
-0.379429	-0.0366192	0	
-0.372975	0.0289182	0.1	
-0.190622	-0.0884834	0	
-0.181323	-0.0027565	0	
-0.203899	-0.0323666	0.1	
-0.142279	-0.0393203	0.0487826	
0.0872949	0.269115	0	
0.0312955	0.232251	0.1	
0.0447484	0.293988	0.1	
0.00604814	0.236488	0	
-0.253293	0.00301969	0.1	
-0.312659	-0.0214623	0.1	
-0.256491	-0.0362829	0	
-0.258057	-0.0572365	0.1	
-0.160221	-0.122206	0.1	
-0.190622	-0.0884834	0	
-0.201609	-0.173762	0	
-0.217835	-0.151685	0.1	
0.240073	-0.0744514	0.1	
0.251733	-0.014256	0.1	
0.26859	-0.0619166	0	
0.201967	-0.00950962	0	
0.12107	-0.0431928	0	
0.108307	-0.130924	0	
0.130886	-0.100339	0.1	
0.062652	-0.118801	0.041886	
-0.300257	0.152847	0.1	
-0.355442	0.107822	0.1	
-0.296313	0.0995627	0	
-0.29431	0.0991694	0.1	
0.155004	0.296903	0	
0.173936	0.254382	0.1	
0.0906227	0.254757	0.1	
0.154944	0.223937	0	
-0.181323	-0.0027565	0	
-0.19804	0.0242816	0.1	
-0.203899	-0.0323666	0.1	
-0.142279	-0.0393203	0.0487826	
-0.312659	-0.0214623	0.1	
-0.256491	-0.0362829	0	
-0.320541	0.0201981	0	
-0.253293	0.00301969	0.1	
0.130628	-0.430623	0.050047	
0.111895	-0.372646	0	
0.109857	-0.362973	0.1	
0.212129	-0.396865	0.0500047	
0.144601	0.131477	0	
0.179715	0.179275	0.1	
0.168985	0.119579	0.1	
0.237285	0.176133	0	
-0.0415815	-0.110392	0	
-0.12308	-0.143942	0	
-0.0529805	-0.19738	0	
-0.0607822	-0.132192	0.1	
0	-0.45	0.05	
-0.0383965	-0.372403	0	
-0.0276628	-0.367444	0.1	
0.0404591	-0.377182	0	
-0.0659287	-0.28985	0	
-0.133674	-0.228308	0	
-0.111587	-0.287654	0.1	
-0.110394	-0.216726	0.1	
-0.318623	-0.0616012	0	
-0.275518	-0.12132	0	
-0.312956	-0.0762135	0.1	
-0.365881	-0.111705	0	
-0.12308	-0.143942	0	
-0.133674	-0.228308	0	
-0.110394	-0.216726	0.1	
-0.16441	-0.183508	0.1	
-0.237687	0.180874	0.1	
-0.287124	0.235637	0	
-0.300257	0.152847	0.1	
-0.292926	0.235471	0.1	
-0.0182151	0.0644617	0	
-0.0436673	0.0180876	0.0496986	
-0.0269211	0.0671862	0.1	
-0.0733988	0.0716859	0.0422482	
0.0922363	-0.215793	0	
0.138545	-0.218367	0.1	
0.082636	-0.254415	0.1	
0.147007	-0.259035	0	
0	0.045	0.1	
0.00677135	0.0163475	0.1	
0.0060848	-2.90377e-05	0.0422367	
0.0396544	0.04868	0.0438187	
-0.0269211	0.0671862	0.1	
-0.0611924	0.0535755	0.1	
-0.0583523	0.0875158	0.1	
-0.0733988	0.0716859	0.0422482	
0.0148093	-0.246449	0	
0.082636	-0.254415	0.1	
0.0204871	-0.24099	0.1	
0.0511003	-0.317442	0.1	
0.0986719	-0.0360043	0.1	
0.0512771	-0.0404658	0.045086	
0.0662467	-0.0253248	0.1	
0.0969794	0.021072	0.0441191	
0.384421	-0.0378621	0	
0.374822	-0.0324999	0.1	
0.357114	-0.107098	0.1	
0.446786	-0.053688	0.0499938	
-0.212129	0.396865	0.0500166	
-0.285477	0.347855	0.049986	
-0.248262	0.29482	0	
-0.251772	0.306785	0.1	
0.168985	0.119579	0.1	
0.114043	0.0943971	0.1	
0.124146	0.156872	0.1	
0.144601	0.131477	0	
-0.160221	-0.122206	0.1	
-0.201609	-0.173762	0	
-0.12308	-0.143942	0	
-0.16441	-0.183508	0.1	
-0.248262	0.29482	0	
-0.217513	0.254621	0.1	
-0.251772	0.306785	0.1	
-0.292926	0.235471	0.1	
0.396865	-0.212129	0.0499751	
0.430623	-0.130628	0.049953	
0.339399	-0.183579	0	
0.331486	-0.177371	0.1	
0.053688	-0.446786	0.0500062	
0.111895	-0.372646	0	
0.044217	-0.387842	0.1	
0.130628	-0.430623	0.050047	
-0.0611924	0.0535755	0.1	
-0.0436673	0.0180876	0.0496986	
-0.0606984	0.0243229	0.1	
-0.0733988	0.0716859	0.0422482	
0.045	0	0.1	
0.0512771	-0.0404658	0.045086	
0.0396544	0.04868	0.0438187	
0.0969794	0.021072	0.0441191	
0.173936	0.254382	0.1	
0.129359	0.208003	0.1	
0.0906227	0.254757	0.1	
0.154944	0.223937	0	
-0.0269211	0.0671862	0.1	
-0.0436673	0.0180876	0.0496986	
-0.0611924	0.0535755	0.1	
-0.0733988	0.0716859	0.0422482	
0.111895	-0.372646	0	
0.175084	-0.3275	0	
0.109857	-0.362973	0.1	
0.212129	-0.396865	0.0500047	
-0.212128	-0.396865	0.0499723	
-0.173995	-0.331361	0.1	
-0.182092	-0.340669	0	
-0.237792	-0.287474	0.1	
-0.217513	0.254621	0.1	
-0.287124	0.235637	0	
-0.237687	0.180874	0.1	
-0.292926	0.235471	0.1	
0.446786	0.053688	0.0500062	
0.387235	0.0357483	0.1	
0.355442	0.107822	0.1	
0.369533	0.112832	0	
0.396862	0.212133	0.0500072	
0.430623	0.130628	0.050047	
0.349981	0.18562	0.1	
0.369533	0.112832	0	
0.287371	-0.120299	0.1	
0.339399	-0.183579	0	
0.348465	-0.103096	0	
0.331486	-0.177371	0.1	
-0.29175	-0.237189	0.1	
-0.298599	-0.245054	0	
-0.347846	-0.285488	0.0499977	
-0.331484	-0.17939	0.1	
-0.389559	0.0336032	0	
-0.362114	0.10176	0	
-0.446786	0.053688	0.0499938	
-0.372975	0.0289182	0.1	
0.0662467	-0.0253248	0.1	
0.0512771	-0.0404658	0.045086	
0.045	0	0.1	
0.0969794	0.021072	0.0441191	
-0.182092	-0.340669	0	
-0.285476	-0.347855	0.0499731	
-0.212128	-0.396865	0.0499723	
-0.237792	-0.287474	0.1	
-0.121547	0.224354	0.1	
-0.138104	0.243902	0	
-0.155635	0.172227	0	
-0.175847	0.204716	0.1	
0.0207402	-0.174187	0.1	
0.0725059	-0.197526	0.1	
0.0279075	-0.16395	0	
0.062652	-0.118801	0.041886	
-0.298599	-0.245054	0	
-0.347846	-0.285488	0.0499977	
-0.237792	-0.287474	0.1	
-0.29175	-0.237189	0.1	
0.044217	-0.387842	0.1	
0.0404591	-0.377182	0	
0.111895	-0.372646	0	
0.053688	-0.446786	0.0500062	
0.108307	-0.130924	0	
0.174426	-0.185564	0	
0.110168	-0.152489	0.1	
0.0922363	-0.215793	0	
0.130628	0.430623	0.049953	
0.120589	0.374273	0.1	
0.053688	0.446786	0.0499938	
0.107822	0.355442	0	
0.147007	-0.259035	0	
0.138545	-0.218367	0.1	
0.082636	-0.254415	0.1	
0.134408	-0.294741	0.1	
0.261818	-0.161797	0	
0.339399	-0.183579	0	
0.268615	-0.174062	0.1	
0.29265	-0.244884	0	
-0.138104	0.243902	0	
-0.0730421	0.296762	0	
-0.116127	0.293072	0.1	
-0.0674604	0.249371	0.1	
-0.248332	0.050693	0	
-0.247343	0.061739	0.1	
-0.304909	0.0444641	0.1	
-0.253293	0.00301969	0.1	
-0.108753	-0.0943056	0.1	
-0.0647576	-0.0686517	0.0541732	
-0.111446	-0.0565624	0	
-0.142279	-0.0393203	0.0487826	
-0.304909	0.0444641	0.1	
-0.312659	-0.0214623	0.1	
-0.320541	0.0201981	0	
-0.253293	0.00301969	0.1	
-0.275518	-0.12132	0	
-0.356724	-0.11546	0.1	
-0.312956	-0.0762135	0.1	
-0.365881	-0.111705	0	
-0.251772	0.306785	0.1	
-0.347855	0.285477	0.0500334	
-0.248262	0.29482	0	
-0.292926	0.235471	0.1	
0.045	0	0.1	
0.0060848	-2.90377e-05	0.0422367	
0.0318198	0.0318198	0.1	
0.0396544	0.04868	0.0438187	
-0.182284	0.324323	0.1	
-0.212129	0.396865	0.0500166	
-0.248262	0.29482	0	
-0.251772	0.306785	0.1	
0.110168	-0.152489	0.1	
0.168154	-0.150165	0.1	
0.174426	-0.185564	0	
0.108307	-0.130924	0	
0.0906227	0.254757	0.1	
0.117493	0.309521	0.1	
0.173936	0.254382	0.1	
0.155004	0.296903	0	
-0.0659287	-0.28985	0	
-0.0496677	-0.250381	0.1	
-0.0137107	-0.295895	0.1	
0.0148093	-0.246449	0	
0.00378559	-0.316996	0	
0.044217	-0.387842	0.1	
0.0404591	-0.377182	0	
0.0511003	-0.317442	0.1	
-0.138104	0.243902	0	
-0.207714	0.236511	0	
-0.175847	0.204716	0.1	
-0.161049	0.262379	0.1	
-0.116127	0.293072	0.1	
-0.173131	0.322508	0	
-0.138104	0.243902	0	
-0.161049	0.262379	0.1	
0.324791	-0.0252069	0	
0.26859	-0.0619166	0	
0.303447	-0.0554764	0.1	
0.251733	-0.014256	0.1	
-0.112928	-0.360216	0	
-0.130611	-0.430628	0.05	
-0.173995	-0.331361	0.1	
-0.182092	-0.340669	0	
0.245754	0.289669	0.1	
0.304312	0.234791	0.1	
0.238182	0.208514	0.1	
0.297412	0.240191	0	
-0.116127	0.293072	0.1	
-0.108028	0.370407	0	
-0.173131	0.322508	0	
-0.10824	0.362258	0.1	
0.0142935	-0.12453	0.1	
0.0587245	-0.143156	0.1	
0.0207402	-0.174187	0.1	
0.062652	-0.118801	0.041886	
-0.0201457	0.00856081	0.1	
0.00677135	0.0163475	0.1	
0.0060848	-2.90377e-05	0.0422367	
-0.0436673	0.0180876	0.0496986	
-0.190622	-0.0884834	0	
-0.203899	-0.0323666	0.1	
-0.209136	-0.0909343	0.1	
-0.142279	-0.0393203	0.0487826	
0.0142935	-0.12453	0.1	
0.062652	-0.118801	0.041886	
0.0207402	-0.174187	0.1	
0.00260765	-0.105267	0.0427151	
0.110168	-0.152489	0.1	
0.108307	-0.130924	0	
0.0922363	-0.215793	0	
0.062652	-0.118801	0.041886	
-0.285476	-0.347855	0.0499731	
-0.298599	-0.245054	0	
-0.347846	-0.285488	0.0499977	
-0.237792	-0.287474	0.1	
0.00378559	-0.316996	0	
0.044217	-0.387842	0.1	
-0.0276628	-0.367444	0.1	
0.0404591	-0.377182	0	
-0.396863	-0.212131	0.0499815	
-0.347846	-0.285488	0.0499977	
-0.298599	-0.245054	0	
-0.331484	-0.17939	0.1	
0.117493	0.309521	0.1	
0.0447484	0.293988	0.1	
0.107822	0.355442	0	
0.0872949	0.269115	0	
0.124146	0.156872	0.1	
0.179715	0.179275	0.1	
0.168985	0.119579	0.1	
0.144601	0.131477	0	
0.180378	0.336857	0.1	
0.212116	0.396871	0.049999	
0.285475	0.347856	0.0500185	
0.18581	0.349201	0	
0.339399	-0.183579	0	
0.396865	-0.212129	0.0499751	
0.331486	-0.177371	0.1	
0.347855	-0.285477	0.0499717	
-0.161049	0.262379	0.1	
-0.173131	0.322508	0	
-0.207714	0.236511	0	
-0.217513	0.254621	0.1	
-0.0880857	0.11829	0	
-0.0758641	0.204419	0	
-0.155635	0.172227	0	
-0.131315	0.16418	0.1	
0.053688	0.446786	0.0499938	
0.0450774	0.367889	0.1	
0	0.45	0.05	
0.0381609	0.387454	0	
0.111895	-0.372646	0	
0.109857	-0.362973	0.1	
0.044217	-0.387842	0.1	
0.130628	-0.430623	0.050047	
0.0906227	0.254757	0.1	
0.0872949	0.269115	0	
0.155004	0.296903	0	
0.154944	0.223937	0	
-0.161049	0.262379	0.1	
-0.207714	0.236511	0	
-0.175847	0.204716	0.1	
-0.217513	0.254621	0.1	
0.0488551	-0.0983509	0.1	
0.0401753	-0.0586342	0.1	
0.0868431	-0.0680824	0.1	
0.0512771	-0.0404658	0.045086	
0.303447	-0.0554764	0.1	
0.314556	0.0156287	0.1	
0.324791	-0.0252069	0	
0.251733	-0.014256	0.1	
0.144601	0.131477	0	
0.124146	0.156872	0.1	
0.179715	0.179275	0.1	
0.154944	0.223937	0	
-0.0383965	-0.372403	0	
-0.112928	-0.360216	0	
-0.0536856	-0.446786	0.05	
-0.104718	-0.361527	0.1	
-0.217513	0.254621	0.1	
-0.182284	0.324323	0.1	
-0.248262	0.29482	0	
-0.251772	0.306785	0.1	
0.0401753	-0.0586342	0.1	
0.0512771	-0.0404658	0.045086	
0.0488551	-0.0983509	0.1	
0.00260765	-0.105267	0.0427151	
0.0750467	0.185499	0	
0.144601	0.131477	0	
0.0691478	0.134694	0.1	
0.0632975	0.0980676	0	
0.187286	-0.334755	0.1	
0.109857	-0.362973	0.1	
0.175084	-0.3275	0	
0.212129	-0.396865	0.0500047	
-0.080591	-0.0588792	0.1	
-0.108753	-0.0943056	0.1	
-0.112529	-0.0425202	0.1	
-0.0647576	-0.0686517	0.0541732	
-0.207714	0.236511	0	
-0.237687	0.180874	0.1	
-0.175847	0.204716	0.1	
-0.217513	0.254621	0.1	
-0.0730421	0.296762	0	
-0.116127	0.293072	0.1	
-0.0572929	0.316053	0.1	
-0.10824	0.362258	0.1	
-0.256491	-0.0362829	0	
-0.312659	-0.0214623	0.1	
-0.318623	-0.0616012	0	
-0.258057	-0.0572365	0.1	
-0.237687	0.180874	0.1	
-0.287124	0.235637	0	
-0.244028	0.149971	0	
-0.300257	0.152847	0.1	
-0.161049	0.262379	0.1	
-0.182284	0.324323	0.1	
-0.173131	0.322508	0	
-0.217513	0.254621	0.1	
-0.0269211	0.0671862	0.1	
-0.0182151	0.0644617	0	
-0.0733988	0.0716859	0.0422482	
0.0186333	0.101613	0.0479424	
0.111895	-0.372646	0	
0.109857	-0.362973	0.1	
0.175084	-0.3275	0	
0.134408	-0.294741	0.1	
-0.181323	-0.0027565	0	
-0.190622	-0.0884834	0	
-0.203899	-0.0323666	0.1	
-0.256491	-0.0362829	0	
-0.327578	-0.175094	0	
-0.356724	-0.11546	0.1	
-0.279108	-0.122562	0.1	
-0.275518	-0.12132	0	
0.329177	0.174808	0	
0.396862	0.212133	0.0500072	
0.349981	0.18562	0.1	
0.369533	0.112832	0	
0.0148093	-0.246449	0	
0.082636	-0.254415	0.1	
0.0922363	-0.215793	0	
0.0204871	-0.24099	0.1	
-0.327578	-0.175094	0	
-0.396863	-0.212131	0.0499815	
-0.298599	-0.245054	0	
-0.331484	-0.17939	0.1	
-0.279108	-0.122562	0.1	
-0.356724	-0.11546	0.1	
-0.327578	-0.175094	0	
-0.331484	-0.17939	0.1	
-0.237687	0.180874	0.1	
-0.207714	0.236511	0	
-0.287124	0.235637	0	
-0.217513	0.254621	0.1	
0.0210919	0.316201	0	
0.107822	0.355442	0	
0.0447484	0.293988	0.1	
0.0872949	0.269115	0	
0.297412	0.240191	0	
0.304312	0.234791	0.1	
0.294509	0.157311	0.1	
0.329177	0.174808	0	
0.204676	0.0233192	0.1	
0.132963	0.044259	0	
0.213357	0.0766959	0	
0.201967	-0.00950962	0	
-0.256491	-0.0362829	0	
-0.318623	-0.0616012	0	
-0.275518	-0.12132	0	
-0.258057	-0.0572365	0.1	
-0.130611	-0.430628	0.05	
-0.212128	-0.396865	0.0499723	
-0.173995	-0.331361	0.1	
-0.182092	-0.340669	0	
0.0839363	-0.30145	0	
0.109857	-0.362973	0.1	
0.111895	-0.372646	0	
0.134408	-0.294741	0.1	
-0.0997698	0.0308567	0	
-0.169647	0.0846842	0	
-0.140177	0.0445127	0.1	
-0.0733988	0.0716859	0.0422482	
0.0725059	-0.197526	0.1	
0.0922363	-0.215793	0	
0.0279075	-0.16395	0	
0.062652	-0.118801	0.041886	
0.230865	0.135658	0.1	
0.294509	0.157311	0.1	
0.287454	0.0808414	0.1	
0.296534	0.101262	0	
0.107822	0.355442	0	
0.18581	0.349201	0	
0.180378	0.336857	0.1	
0.155004	0.296903	0	
0.294509	0.157311	0.1	
0.238182	0.208514	0.1	
0.297412	0.240191	0	
0.237285	0.176133	0	
0.0404591	-0.377182	0	
0.044217	-0.387842	0.1	
0	-0.45	0.05	
0.053688	-0.446786	0.0500062	
0.147007	-0.259035	0	
0.174426	-0.185564	0	
0.138545	-0.218367	0.1	
0.216652	-0.249073	0	
-0.0712343	-0.0265969	0.1	
-0.0318198	-0.0318198	0.1	
-0.0200153	-0.0483211	0.048598	
-0.088703	-0.0138649	0.0491848	
0.120589	0.374273	0.1	
0.0450774	0.367889	0.1	
0.053688	0.446786	0.0499938	
0.107822	0.355442	0	
0.0148093	-0.246449	0	
-0.0137107	-0.295895	0.1	
0.00378559	-0.316996	0	
0.0511003	-0.317442	0.1	
-0.269145	-0.181189	0.1	
-0.29175	-0.237189	0.1	
-0.265692	-0.195501	0	
-0.225546	-0.215121	0.1	
0.190166	-0.0983881	0	
0.130886	-0.100339	0.1	
0.12107	-0.0431928	0	
0.108307	-0.130924	0	
-0.173131	0.322508	0	
-0.108028	0.370407	0	
-0.212129	0.396865	0.0500166	
-0.10824	0.362258	0.1	
-0.320541	0.0201981	0	
-0.379429	-0.0366192	0	
-0.312659	-0.0214623	0.1	
-0.372975	0.0289182	0.1	
-0.446786	-0.053688	0.0499938	
-0.45	0	0.05	
-0.373197	-0.0467972	0.1	
-0.379429	-0.0366192	0	
0.0148093	-0.246449	0	
-0.0496677	-0.250381	0.1	
-0.0137107	-0.295895	0.1	
0.0204871	-0.24099	0.1	
0.240073	-0.0744514	0.1	
0.26859	-0.0619166	0	
0.303447	-0.0554764	0.1	
0.287371	-0.120299	0.1	
0.331486	-0.177371	0.1	
0.287124	-0.235637	0.1	
0.339399	-0.183579	0	
0.347855	-0.285477	0.0499717	
0.268615	-0.174062	0.1	
0.225509	-0.136032	0.1	
0.261818	-0.161797	0	
0.211584	-0.20097	0.1	
-0.00500969	-0.0120945	0.1	
-0.0201457	0.00856081	0.1	
0.0060848	-2.90377e-05	0.0422367	
-0.0436673	0.0180876	0.0496986	
-0.201609	-0.173762	0	
-0.223685	-0.271786	0	
-0.170075	-0.251953	0.1	
-0.225546	-0.215121	0.1	
0.446786	0.053688	0.0500062	
0.45	0	0.05	
0.387235	0.0357483	0.1	
0.363227	0.0380543	0	
-0.201609	-0.173762	0	
-0.170075	-0.251953	0.1	
-0.133674	-0.228308	0	
-0.16441	-0.183508	0.1	
-0.0137107	-0.295895	0.1	
0.0148093	-0.246449	0	
0.0204871	-0.24099	0.1	
0.0511003	-0.317442	0.1	
-0.351668	0.187175	0.1	
-0.287124	0.235637	0	
-0.347855	0.285477	0.0500334	
-0.292926	0.235471	0.1	
-0.0278782	0.153479	0.1	
0.0139627	0.124614	0.1	
-0.0254114	0.106009	0.1	
0.0186333	0.101613	0.0479424	
-0.0142517	-0.205249	0.1	
-0.0529805	-0.19738	0	
0.0279075	-0.16395	0	
0.0148093	-0.246449	0	
-0.244028	0.149971	0	
-0.237687	0.180874	0.1	
-0.242461	0.118505	0.1	
-0.1869	0.140647	0.1	
-0.379429	-0.0366192	0	
-0.373197	-0.0467972	0.1	
-0.312659	-0.0214623	0.1	
-0.372975	0.0289182	0.1	
-0.29175	-0.237189	0.1	
-0.223685	-0.271786	0	
-0.298599	-0.245054	0	
-0.225546	-0.215121	0.1	
-0.0615368	-0.322264	0.1	
-0.0137107	-0.295895	0.1	
-0.0276628	-0.367444	0.1	
0.00378559	-0.316996	0	
-0.112928	-0.360216	0	
-0.130611	-0.430628	0.05	
-0.0536856	-0.446786	0.05	
-0.104718	-0.361527	0.1	
-0.0659287	-0.28985	0	
-0.0137107	-0.295895	0.1	
-0.0615368	-0.322264	0.1	
0.00378559	-0.316996	0	
0.053688	0.446786	0.0499938	
0.0450774	0.367889	0.1	
0.0381609	0.387454	0	
0.107822	0.355442	0	
0.0381609	0.387454	0	
0.0450774	0.367889	0.1	
-0.00311199	0.32667	0.1	
0.0210919	0.316201	0	
0.281012	0.0229437	0	
0.296534	0.101262	0	
0.287454	0.0808414	0.1	
0.363227	0.0380543	0	
-0.13855	0.104902	0.1	
-0.169647	0.0846842	0	
-0.0880857	0.11829	0	
-0.0733988	0.0716859	0.0422482	
0.00604814	0.236488	0	
0.0872949	0.269115	0	
0.0312955	0.232251	0.1	
0.0750467	0.185499	0	
0.212116	0.396871	0.049999	
0.180378	0.336857	0.1	
0.120589	0.374273	0.1	
0.18581	0.349201	0	
-0.0276628	-0.367444	0.1	
0.044217	-0.387842	0.1	
0.00378559	-0.316996	0	
0.0511003	-0.317442	0.1	
0.281012	0.0229437	0	
0.255462	0.038247	0.1	
0.213357	0.0766959	0	
0.201967	-0.00950962	0	
0.0725059	-0.197526	0.1	
0.138545	-0.218367	0.1	
0.082636	-0.254415	0.1	
0.0922363	-0.215793	0	
-0.351668	0.187175	0.1	
-0.430623	0.130628	0.049953	
-0.32913	0.168426	0	
-0.355442	0.107822	0.1	
0.107822	0.355442	0	
0.0447484	0.293988	0.1	
0.0450774	0.367889	0.1	
0.0210919	0.316201	0	
-0.287124	0.235637	0	
-0.347855	0.285477	0.0500334	
-0.396865	0.212129	0.0500047	
-0.351668	0.187175	0.1	
-0.0201457	0.00856081	0.1	
0.00677135	0.0163475	0.1	
-0.00500969	-0.0120945	0.1	
0.0060848	-2.90377e-05	0.0422367	
-0.372975	0.0289182	0.1	
-0.362114	0.10176	0	
-0.355442	0.107822	0.1	
-0.304909	0.0444641	0.1	
-0.320541	0.0201981	0	
-0.362114	0.10176	0	
-0.372975	0.0289182	0.1	
-0.304909	0.0444641	0.1	
0.00604814	0.236488	0	
0.0236281	0.174203	0.1	
-0.00652201	0.151895	0	
0.0750467	0.185499	0	
0.082636	-0.254415	0.1	
0.0148093	-0.246449	0	
0.0839363	-0.30145	0	
0.0511003	-0.317442	0.1	
0.0450774	0.367889	0.1	
0.117493	0.309521	0.1	
0.0447484	0.293988	0.1	
0.107822	0.355442	0	
-0.0606984	0.0243229	0.1	
-0.0436673	0.0180876	0.0496986	
-0.0944203	0.0353385	0.1	
-0.0733988	0.0716859	0.0422482	
0.138545	-0.218367	0.1	
0.147007	-0.259035	0	
0.216652	-0.249073	0	
0.199452	-0.267103	0.1	
0.228237	0.281807	0	
0.238182	0.208514	0.1	
0.173936	0.254382	0.1	
0.154944	0.223937	0	
0.18581	0.349201	0	
0.180378	0.336857	0.1	
0.120589	0.374273	0.1	
0.107822	0.355442	0	
-0.320541	0.0201981	0	
-0.362114	0.10176	0	
-0.389559	0.0336032	0	
-0.372975	0.0289182	0.1	
-0.0730421	0.296762	0	
-0.0339688	0.375665	0	
-0.108028	0.370407	0	
-0.0572929	0.316053	0.1	
-0.169647	0.0846842	0	
-0.0880857	0.11829	0	
-0.155635	0.172227	0	
-0.13855	0.104902	0.1	
0.199452	-0.267103	0.1	
0.257787	-0.293807	0.1	
0.187286	-0.334755	0.1	
0.25204	-0.306462	0	
0.225509	-0.136032	0.1	
0.261818	-0.161797	0	
0.287371	-0.120299	0.1	
0.268615	-0.174062	0.1	
-0.355442	0.107822	0.1	
-0.362114	0.10176	0	
-0.296313	0.0995627	0	
-0.304909	0.0444641	0.1	
-0.265692	-0.195501	0	
-0.298599	-0.245054	0	
-0.223685	-0.271786	0	
-0.225546	-0.215121	0.1	
-0.0997698	0.0308567	0	
-0.169647	0.0846842	0	
-0.181323	-0.0027565	0	
-0.140177	0.0445127	0.1	
0.0401753	-0.0586342	0.1	
-0.0200153	-0.0483211	0.048598	
0	-0.045	0.1	
0.0512771	-0.0404658	0.045086	
0.0632975	0.0980676	0	
0.0396544	0.04868	0.0438187	
0.0741079	0.088115	0.1	
0.0186333	0.101613	0.0479424	
-0.116127	0.293072	0.1	
-0.0730421	0.296762	0	
-0.108028	0.370407	0	
-0.10824	0.362258	0.1	
-0.0944203	0.0353385	0.1	
-0.0436673	0.0180876	0.0496986	
-0.0606984	0.0243229	0.1	
-0.088703	-0.0138649	0.0491848	
0.174426	-0.185564	0	
0.211584	-0.20097	0.1	
0.138545	-0.218367	0.1	
0.216652	-0.249073	0	
-0.247343	0.061739	0.1	
-0.296313	0.0995627	0	
-0.248332	0.050693	0	
-0.304909	0.0444641	0.1	
0.212116	0.396871	0.049999	
0.120589	0.374273	0.1	
0.130628	0.430623	0.049953	
0.18581	0.349201	0	
-0.320541	0.0201981	0	
-0.296313	0.0995627	0	
-0.362114	0.10176	0	
-0.304909	0.0444641	0.1	
-0.0383965	-0.372403	0	
-0.0615368	-0.322264	0.1	
-0.112928	-0.360216	0	
-0.104718	-0.361527	0.1	
0	0.045	0.1	
0.0250698	0.0602098	0.1	
0.0318198	0.0318198	0.1	
0.0396544	0.04868	0.0438187	
0.147007	-0.259035	0	
0.082636	-0.254415	0.1	
0.0839363	-0.30145	0	
0.134408	-0.294741	0.1	
-0.327578	-0.175094	0	
-0.265692	-0.195501	0	
-0.275518	-0.12132	0	
-0.269145	-0.181189	0.1	
-0.248332	0.050693	0	
-0.256491	-0.0362829	0	
-0.181323	-0.0027565	0	
-0.253293	0.00301969	0.1	
0.285477	-0.347855	0.0499669	
0.187286	-0.334755	0.1	
0.257787	-0.293807	0.1	
0.25204	-0.306462	0	
0.0550025	0.059172	0.1	
0.0250698	0.0602098	0.1	
0.0405437	0.0931998	0.1	
0.0396544	0.04868	0.0438187	
-0.217513	0.254621	0.1	
-0.248262	0.29482	0	
-0.287124	0.235637	0	
-0.292926	0.235471	0.1	
-0.053688	0.446786	0.0500062	
-0.130628	0.430623	0.050047	
-0.108028	0.370407	0	
-0.10824	0.362258	0.1	
-0.173995	-0.331361	0.1	
-0.130611	-0.430628	0.05	
-0.112928	-0.360216	0	
-0.104718	-0.361527	0.1	
-0.248262	0.29482	0	
-0.285477	0.347855	0.049986	
-0.347855	0.285477	0.0500334	
-0.251772	0.306785	0.1	
0.109857	-0.362973	0.1	
0.0839363	-0.30145	0	
0.111895	-0.372646	0	
0.0511003	-0.317442	0.1	
0.285475	0.347856	0.0500185	
0.347853	0.285478	0.0500065	
0.245754	0.289669	0.1	
0.297412	0.240191	0	
0.0447484	0.293988	0.1	
-0.0135764	0.270208	0.1	
0.0210919	0.316201	0	
0.00604814	0.236488	0	
0.228237	0.281807	0	
0.180378	0.336857	0.1	
0.245754	0.289669	0.1	
0.18581	0.349201	0	
-0.0572929	0.316053	0.1	
-0.108028	0.370407	0	
-0.0730421	0.296762	0	
-0.10824	0.362258	0.1	
0.228237	0.281807	0	
0.173936	0.254382	0.1	
0.180378	0.336857	0.1	
0.155004	0.296903	0	
-0.355442	0.107822	0.1	
-0.446786	0.053688	0.0499938	
-0.362114	0.10176	0	
-0.372975	0.0289182	0.1	
0.0405437	0.0931998	0.1	
0.0741079	0.088115	0.1	
0.0396544	0.04868	0.0438187	
0.0186333	0.101613	0.0479424	
-0.0611924	0.0535755	0.1	
-0.0318198	0.0318198	0.1	
-0.0606984	0.0243229	0.1	
-0.0436673	0.0180876	0.0496986	
-0.0730421	0.296762	0	
-0.0339688	0.375665	0	
-0.00311199	0.32667	0.1	
0.0210919	0.316201	0	
-0.0737761	0.00176994	0.1	
-0.045	0	0.1	
-0.0712343	-0.0265969	0.1	
-0.088703	-0.0138649	0.0491848	
0.384421	-0.0378621	0	
0.45	0	0.05	
0.374822	-0.0324999	0.1	
0.446786	-0.053688	0.0499938	
0.446786	0.053688	0.0500062	
0.355442	0.107822	0.1	
0.430623	0.130628	0.050047	
0.369533	0.112832	0	
0.211584	-0.20097	0.1	
0.225509	-0.136032	0.1	
0.261818	-0.161797	0	
0.174426	-0.185564	0	
0.285477	-0.347855	0.0499669	
0.212129	-0.396865	0.0500047	
0.187286	-0.334755	0.1	
0.25204	-0.306462	0	
0.0318198	0.0318198	0.1	
0.0060848	-2.90377e-05	0.0422367	
0.00677135	0.0163475	0.1	
0.0396544	0.04868	0.0438187	
0.117493	0.309521	0.1	
0.0906227	0.254757	0.1	
0.0872949	0.269115	0	
0.155004	0.296903	0	
0.154944	0.223937	0	
0.144601	0.131477	0	
0.124146	0.156872	0.1	
0.0750467	0.185499	0	
0.347855	-0.285477	0.0499717	
0.287124	-0.235637	0.1	
0.339399	-0.183579	0	
0.29265	-0.244884	0	
-0.379429	-0.0366192	0	
-0.312659	-0.0214623	0.1	
-0.318623	-0.0616012	0	
-0.320541	0.0201981	0	
-0.217835	-0.151685	0.1	
-0.190622	-0.0884834	0	
-0.201609	-0.173762	0	
-0.275518	-0.12132	0	
-0.0944203	0.0353385	0.1	
-0.0997698	0.0308567	0	
-0.0733988	0.0716859	0.0422482	
-0.088703	-0.0138649	0.0491848	
0.26859	-0.0619166	0	
0.324791	-0.0252069	0	
0.281012	0.0229437	0	
0.251733	-0.014256	0.1	
0.0839363	-0.30145	0	
0.0922363	-0.215793	0	
0.082636	-0.254415	0.1	
0.147007	-0.259035	0	
0.216652	-0.249073	0	
0.211584	-0.20097	0.1	
0.138545	-0.218367	0.1	
0.199452	-0.267103	0.1	
0.287454	0.0808414	0.1	
0.314556	0.0156287	0.1	
0.281012	0.0229437	0	
0.363227	0.0380543	0	
-0.356724	-0.11546	0.1	
-0.396863	-0.212131	0.0499815	
-0.327578	-0.175094	0	
-0.331484	-0.17939	0.1	
0.213357	0.0766959	0	
0.230865	0.135658	0.1	
0.287454	0.0808414	0.1	
0.296534	0.101262	0	
-0.217835	-0.151685	0.1	
-0.201609	-0.173762	0	
-0.16441	-0.183508	0.1	
-0.225546	-0.215121	0.1	
-0.396865	0.212129	0.0500047	
-0.430623	0.130628	0.049953	
-0.32913	0.168426	0	
-0.351668	0.187175	0.1	
0.26859	-0.0619166	0	
0.303447	-0.0554764	0.1	
0.251733	-0.014256	0.1	
0.240073	-0.0744514	0.1	
-0.0496677	-0.250381	0.1	
-0.0137107	-0.295895	0.1	
-0.0615368	-0.322264	0.1	
-0.0659287	-0.28985	0	
-0.0276546	-0.0671169	0.1	
0.00260765	-0.105267	0.0427151	
-0.0251864	-0.106886	0.1	
-0.0647576	-0.0686517	0.0541732	
-0.0276546	-0.0671169	0.1	
0.00728726	-0.0832273	0.1	
-0.0251864	-0.106886	0.1	
0.00260765	-0.105267	0.0427151	
0.154944	0.223937	0	
0.238182	0.208514	0.1	
0.179715	0.179275	0.1	
0.237285	0.176133	0	
0.355442	0.107822	0.1	
0.349981	0.18562	0.1	
0.430623	0.130628	0.050047	
0.369533	0.112832	0	
-0.320541	0.0201981	0	
-0.248332	0.050693	0	
-0.304909	0.0444641	0.1	
-0.253293	0.00301969	0.1	
0.314556	0.0156287	0.1	
0.281012	0.0229437	0	
0.324791	-0.0252069	0	
0.251733	-0.014256	0.1	
0.201967	-0.00950962	0	
0.26859	-0.0619166	0	
0.240073	-0.0744514	0.1	
0.190166	-0.0983881	0	
-0.111587	-0.287654	0.1	
-0.173995	-0.331361	0.1	
-0.13795	-0.29702	0	
-0.104718	-0.361527	0.1	
0.287371	-0.120299	0.1	
0.348465	-0.103096	0	
0.357114	-0.107098	0.1	
0.331486	-0.177371	0.1	
-0.0496677	-0.250381	0.1	
-0.0615368	-0.322264	0.1	
-0.111587	-0.287654	0.1	
-0.0659287	-0.28985	0	
-0.0674604	0.249371	0.1	
-0.0730421	0.296762	0	
-0.116127	0.293072	0.1	
-0.0572929	0.316053	0.1	
-0.296313	0.0995627	0	
-0.244028	0.149971	0	
-0.300257	0.152847	0.1	
-0.242461	0.118505	0.1	
-0.320541	0.0201981	0	
-0.389559	0.0336032	0	
-0.379429	-0.0366192	0	
-0.372975	0.0289182	0.1	
0.111895	-0.372646	0	
0.0839363	-0.30145	0	
0.0404591	-0.377182	0	
0.0511003	-0.317442	0.1	
-0.0615368	-0.322264	0.1	
-0.0383965	-0.372403	0	
-0.0659287	-0.28985	0	
0.00378559	-0.316996	0	
-0.0383965	-0.372403	0	
-0.112928	-0.360216	0	
-0.0615368	-0.322264	0.1	
-0.0659287	-0.28985	0	
0.111895	-0.372646	0	
0.175084	-0.3275	0	
0.0839363	-0.30145	0	
0.134408	-0.294741	0.1	
0.245754	0.289669	0.1	
0.285475	0.347856	0.0500185	
0.228237	0.281807	0	
0.18581	0.349201	0	
-0.312659	-0.0214623	0.1	
-0.312956	-0.0762135	0.1	
-0.373197	-0.0467972	0.1	
-0.318623	-0.0616012	0	
0.225509	-0.136032	0.1	
0.26859	-0.0619166	0	
0.261818	-0.161797	0	
0.190166	-0.0983881	0	
-0.446786	0.053688	0.0499938	
-0.45	0	0.05	
-0.389559	0.0336032	0	
-0.372975	0.0289182	0.1	
-0.133674	-0.228308	0	
-0.0529805	-0.19738	0	
-0.12308	-0.143942	0	
-0.110394	-0.216726	0.1	
-0.32913	0.168426	0	
-0.287124	0.235637	0	
-0.396865	0.212129	0.0500047	
-0.351668	0.187175	0.1	
0.304312	0.234791	0.1	
0.396862	0.212133	0.0500072	
0.349981	0.18562	0.1	
0.329177	0.174808	0	
0.363227	0.0380543	0	
0.387235	0.0357483	0.1	
0.374822	-0.0324999	0.1	
0.384421	-0.0378621	0	
0.304312	0.234791	0.1	
0.245754	0.289669	0.1	
0.347853	0.285478	0.0500065	
0.297412	0.240191	0	
-0.053688	0.446786	0.0500062	
-0.0339688	0.375665	0	
0	0.45	0.05	
-0.0358979	0.379949	0.1	
-0.201609	-0.173762	0	
-0.217835	-0.151685	0.1	
-0.265692	-0.195501	0	
-0.225546	-0.215121	0.1	
-0.182284	0.324323	0.1	
-0.248262	0.29482	0	
-0.173131	0.322508	0	
-0.217513	0.254621	0.1	
-0.287124	0.235637	0	
-0.248262	0.29482	0	
-0.347855	0.285477	0.0500334	
-0.292926	0.235471	0.1	
-0.244028	0.149971	0	
-0.248332	0.050693	0	
-0.169647	0.0846842	0	
-0.242461	0.118505	0.1	
-0.0383965	-0.372403	0	
-0.0536856	-0.446786	0.05	
0	-0.45	0.05	
-0.0276628	-0.367444	0.1	
-0.133674	-0.228308	0	
-0.170075	-0.251953	0.1	
-0.111587	-0.287654	0.1	
-0.110394	-0.216726	0.1	
0.0922363	-0.215793	0	
0.082636	-0.254415	0.1	
0.0148093	-0.246449	0	
0.0839363	-0.30145	0	
-0.110394	-0.216726	0.1	
-0.133674	-0.228308	0	
-0.170075	-0.251953	0.1	
-0.16441	-0.183508	0.1	
-0.446786	-0.053688	0.0499938	
-0.373197	-0.0467972	0.1	
-0.365881	-0.111705	0	
-0.379429	-0.0366192	0	
0.348465	-0.103096	0	
0.261818	-0.161797	0	
0.339399	-0.183579	0	
0.287371	-0.120299	0.1	
-0.0619298	-0.0870419	0.1	
-0.0276546	-0.0671169	0.1	
-0.0251864	-0.106886	0.1	
-0.0647576	-0.0686517	0.0541732	
-0.244028	0.149971	0	
-0.155635	0.172227	0	
-0.207714	0.236511	0	
-0.237687	0.180874	0.1	
0.0632975	0.0980676	0	
0.144601	0.131477	0	
0.114043	0.0943971	0.1	
0.132963	0.044259	0	
0.00378559	-0.316996	0	
-0.0659287	-0.28985	0	
-0.0137107	-0.295895	0.1	
0.0148093	-0.246449	0	
0.120589	0.374273	0.1	
0.130628	0.430623	0.049953	
0.18581	0.349201	0	
0.107822	0.355442	0	
0.26859	-0.0619166	0	
0.348465	-0.103096	0	
0.303447	-0.0554764	0.1	
0.287371	-0.120299	0.1	
-0.173995	-0.331361	0.1	
-0.212128	-0.396865	0.0499723	
-0.250007	-0.374161	0.1	
-0.237792	-0.287474	0.1	
0.199452	-0.267103	0.1	
0.187286	-0.334755	0.1	
0.175084	-0.3275	0	
0.25204	-0.306462	0	
-0.0232097	0.208019	0.1	
-0.00652201	0.151895	0	
-0.0758641	0.204419	0	
0.00604814	0.236488	0	
-0.318623	-0.0616012	0	
-0.373197	-0.0467972	0.1	
-0.312659	-0.0214623	0.1	
-0.379429	-0.0366192	0	
0.173936	0.254382	0.1	
0.179715	0.179275	0.1	
0.129359	0.208003	0.1	
0.154944	0.223937	0	
-0.182284	0.324323	0.1	
-0.173131	0.322508	0	
-0.212129	0.396865	0.0500166	
-0.10824	0.362258	0.1	
-0.190622	-0.0884834	0	
-0.201609	-0.173762	0	
-0.12308	-0.143942	0	
-0.160221	-0.122206	0.1	
-0.248332	0.050693	0	
-0.320541	0.0201981	0	
-0.256491	-0.0362829	0	
-0.253293	0.00301969	0.1	
-0.207714	0.236511	0	
-0.173131	0.322508	0	
-0.248262	0.29482	0	
-0.217513	0.254621	0.1	
-0.430623	0.130628	0.049953	
-0.446786	0.053688	0.0499938	
-0.362114	0.10176	0	
-0.355442	0.107822	0.1	
-0.138104	0.243902	0	
-0.155635	0.172227	0	
-0.0758641	0.204419	0	
-0.121547	0.224354	0.1	
0.110168	-0.152489	0.1	
0.130886	-0.100339	0.1	
0.108307	-0.130924	0	
0.062652	-0.118801	0.041886	
0.238182	0.208514	0.1	
0.245754	0.289669	0.1	
0.297412	0.240191	0	
0.228237	0.281807	0	
0.304312	0.234791	0.1	
0.349981	0.18562	0.1	
0.294509	0.157311	0.1	
0.329177	0.174808	0	
-0.212128	-0.396865	0.0499723	
-0.285476	-0.347855	0.0499731	
-0.250007	-0.374161	0.1	
-0.237792	-0.287474	0.1	
-0.0276628	-0.367444	0.1	
-0.0383965	-0.372403	0	
-0.0615368	-0.322264	0.1	
0.00378559	-0.316996	0	
0.180378	0.336857	0.1	
0.117493	0.309521	0.1	
0.107822	0.355442	0	
0.155004	0.296903	0	
0.374822	-0.0324999	0.1	
0.363227	0.0380543	0	
0.384421	-0.0378621	0	
0.324791	-0.0252069	0	
-0.327578	-0.175094	0	
-0.396863	-0.212131	0.0499815	
-0.356724	-0.11546	0.1	
-0.365881	-0.111705	0	
-0.223685	-0.271786	0	
-0.170075	-0.251953	0.1	
-0.173995	-0.331361	0.1	
-0.13795	-0.29702	0	
-0.275518	-0.12132	0	
-0.327578	-0.175094	0	
-0.356724	-0.11546	0.1	
-0.365881	-0.111705	0	
-0.0415815	-0.110392	0	
-0.0607822	-0.132192	0.1	
0.00260765	-0.105267	0.0427151	
-0.0647576	-0.0686517	0.0541732	
0.329177	0.174808	0	
0.294509	0.157311	0.1	
0.297412	0.240191	0	
0.237285	0.176133	0	
-0.169647	0.0846842	0	
-0.248332	0.050693	0	
-0.181323	-0.0027565	0	
-0.19804	0.0242816	0.1	
0.303447	-0.0554764	0.1	
0.348465	-0.103096	0	
0.357114	-0.107098	0.1	
0.287371	-0.120299	0.1	
0.132963	0.044259	0	
0.144601	0.131477	0	
0.160735	0.0621263	0.1	
0.213357	0.0766959	0	
-0.0712343	-0.0265969	0.1	
-0.0200153	-0.0483211	0.048598	
-0.0318198	-0.0318198	0.1	
-0.0647576	-0.0686517	0.0541732	
0.00677135	0.0163475	0.1	
0.0202986	-0.00819178	0.1	
-0.00500969	-0.0120945	0.1	
0.0060848	-2.90377e-05	0.0422367	
-0.244028	0.149971	0	
-0.169647	0.0846842	0	
-0.155635	0.172227	0	
-0.1869	0.140647	0.1	
-0.173131	0.322508	0	
-0.0730421	0.296762	0	
-0.108028	0.370407	0	
-0.116127	0.293072	0.1	
0.175084	-0.3275	0	
0.187286	-0.334755	0.1	
0.212129	-0.396865	0.0500047	
0.25204	-0.306462	0	
0.296534	0.101262	0	
0.355442	0.107822	0.1	
0.287454	0.0808414	0.1	
0.363227	0.0380543	0	
0.296534	0.101262	0	
0.230865	0.135658	0.1	
0.294509	0.157311	0.1	
0.237285	0.176133	0	
0.18581	0.349201	0	
0.228237	0.281807	0	
0.180378	0.336857	0.1	
0.155004	0.296903	0	
0.187286	-0.334755	0.1	
0.175084	-0.3275	0	
0.109857	-0.362973	0.1	
0.134408	-0.294741	0.1	
0.00378559	-0.316996	0	
-0.0137107	-0.295895	0.1	
-0.0276628	-0.367444	0.1	
0.0511003	-0.317442	0.1	
-0.0496677	-0.250381	0.1	
-0.0659287	-0.28985	0	
-0.0529805	-0.19738	0	
0.0148093	-0.246449	0	
-0.0944203	0.0353385	0.1	
-0.0733988	0.0716859	0.0422482	
-0.0436673	0.0180876	0.0496986	
-0.088703	-0.0138649	0.0491848	
-0.104718	-0.361527	0.1	
-0.0536856	-0.446786	0.05	
-0.0383965	-0.372403	0	
-0.0276628	-0.367444	0.1	
0.257787	-0.293807	0.1	
0.347855	-0.285477	0.0499717	
0.25204	-0.306462	0	
0.29265	-0.244884	0	
-0.182284	0.324323	0.1	
-0.116127	0.293072	0.1	
-0.173131	0.322508	0	
-0.10824	0.362258	0.1	
-0.373197	-0.0467972	0.1	
-0.430623	-0.130628	0.049953	
-0.446786	-0.053688	0.0499938	
-0.365881	-0.111705	0	
0.045	0	0.1	
0.0662467	-0.0253248	0.1	
0.0318198	-0.0318198	0.1	
0.0512771	-0.0404658	0.045086	
0.387235	0.0357483	0.1	
0.355442	0.107822	0.1	
0.369533	0.112832	0	
0.363227	0.0380543	0	
-0.111587	-0.287654	0.1	
-0.173995	-0.331361	0.1	
-0.170075	-0.251953	0.1	
-0.13795	-0.29702	0	
0.190166	-0.0983881	0	
0.261818	-0.161797	0	
0.225509	-0.136032	0.1	
0.174426	-0.185564	0	
0.187286	-0.334755	0.1	
0.172208	-0.415746	0.1	
0.109857	-0.362973	0.1	
0.212129	-0.396865	0.0500047	
0.174426	-0.185564	0	
0.168154	-0.150165	0.1	
0.190166	-0.0983881	0	
0.108307	-0.130924	0	
0.045	0	0.1	
0.0202986	-0.00819178	0.1	
0.0060848	-2.90377e-05	0.0422367	
0.0512771	-0.0404658	0.045086	
-0.0730421	0.296762	0	
-0.138104	0.243902	0	
-0.0758641	0.204419	0	
-0.0674604	0.249371	0.1	
-0.244028	0.149971	0	
-0.296313	0.0995627	0	
-0.248332	0.050693	0	
-0.242461	0.118505	0.1	
-0.173131	0.322508	0	
-0.116127	0.293072	0.1	
-0.182284	0.324323	0.1	
-0.161049	0.262379	0.1	
-0.112529	-0.0425202	0.1	
-0.0647576	-0.0686517	0.0541732	
-0.108753	-0.0943056	0.1	
-0.142279	-0.0393203	0.0487826	
-0.217835	-0.151685	0.1	
-0.201609	-0.173762	0	
-0.265692	-0.195501	0	
-0.275518	-0.12132	0	
-0.0674604	0.249371	0.1	
-0.0758641	0.204419	0	
-0.0730421	0.296762	0	
0.00604814	0.236488	0	
-0.00500969	-0.0120945	0.1	
0.0060848	-2.90377e-05	0.0422367	
0	-0.045	0.1	
-0.0200153	-0.0483211	0.048598	
-0.285477	0.347855	0.049986	
-0.248262	0.29482	0	
-0.250007	0.374161	0	
-0.212129	0.396865	0.0500166	
-0.296313	0.0995627	0	
-0.32913	0.168426	0	
-0.355442	0.107822	0.1	
-0.300257	0.152847	0.1	
-0.223685	-0.271786	0	
-0.285476	-0.347855	0.0499731	
-0.182092	-0.340669	0	
-0.237792	-0.287474	0.1	
0.348465	-0.103096	0	
0.384421	-0.0378621	0	
0.357114	-0.107098	0.1	
0.430623	-0.130628	0.049953	
0.349981	0.18562	0.1	
0.355442	0.107822	0.1	
0.329177	0.174808	0	
0.369533	0.112832	0	
-0.396863	-0.212131	0.0499815	
-0.430623	-0.130628	0.049953	
-0.356724	-0.11546	0.1	
-0.365881	-0.111705	0	
0.430623	-0.130628	0.049953	
0.396865	-0.212129	0.0499751	
0.415746	-0.172208	0.1	
0.331486	-0.177371	0.1	
-0.32913	0.168426	0	
-0.244028	0.149971	0	
-0.287124	0.235637	0	
-0.300257	0.152847	0.1	
0.347855	-0.285477	0.0499717	
0.285477	-0.347855	0.0499669	
0.257787	-0.293807	0.1	
0.25204	-0.306462	0	
0.0922363	-0.215793	0	
0.174426	-0.185564	0	
0.138545	-0.218367	0.1	
0.147007	-0.259035	0	
-0.347846	-0.285488	0.0499977	
-0.318198	-0.318198	0.1	
-0.237792	-0.287474	0.1	
-0.29175	-0.237189	0.1	
0.374161	-0.250007	0.1	
0.331486	-0.177371	0.1	
0.396865	-0.212129	0.0499751	
0.347855	-0.285477	0.0499717	
0.180378	0.336857	0.1	
0.117493	0.309521	0.1	
0.120589	0.374273	0.1	
0.107822	0.355442	0	
0.0868431	-0.0680824	0.1	
0.0864603	-0.112342	0.1	
0.0488551	-0.0983509	0.1	
0.062652	-0.118801	0.041886	
-0.362114	0.10176	0	
-0.32913	0.168426	0	
-0.430623	0.130628	0.049953	
-0.355442	0.107822	0.1	
-0.212129	0.396865	0.0500166	
-0.248262	0.29482	0	
-0.173131	0.322508	0	
-0.182284	0.324323	0.1	
-0.13795	-0.29702	0	
-0.173995	-0.331361	0.1	
-0.112928	-0.360216	0	
-0.104718	-0.361527	0.1	
-0.223685	-0.271786	0	
-0.298599	-0.245054	0	
-0.285476	-0.347855	0.0499731	
-0.237792	-0.287474	0.1	
-0.29175	-0.237189	0.1	
-0.237792	-0.287474	0.1	
-0.223685	-0.271786	0	
-0.225546	-0.215121	0.1	
-0.207714	0.236511	0	
-0.138104	0.243902	0	
-0.173131	0.322508	0	
-0.161049	0.262379	0.1	
-0.0182151	0.0644617	0	
-0.00652201	0.151895	0	
-0.0733988	0.0716859	0.0422482	
0.0186333	0.101613	0.0479424	
0.415746	-0.172208	0.1	
0.357114	-0.107098	0.1	
0.430623	-0.130628	0.049953	
0.331486	-0.177371	0.1	
0.168154	-0.150165	0.1	
0.211584	-0.20097	0.1	
0.138545	-0.218367	0.1	
0.174426	-0.185564	0	
-0.173995	-0.331361	0.1	
-0.182092	-0.340669	0	
-0.223685	-0.271786	0	
-0.13795	-0.29702	0	
0.0868431	-0.0680824	0.1	
0.0488551	-0.0983509	0.1	
0.0512771	-0.0404658	0.045086	
0.062652	-0.118801	0.041886	
0.130628	-0.430623	0.050047	
0.109857	-0.362973	0.1	
0.172208	-0.415746	0.1	
0.212129	-0.396865	0.0500047	
0.245754	0.289669	0.1	
0.238182	0.208514	0.1	
0.173936	0.254382	0.1	
0.228237	0.281807	0	
0.173936	0.254382	0.1	
0.180378	0.336857	0.1	
0.245754	0.289669	0.1	
0.228237	0.281807	0	
-0.212129	0.396865	0.0500166	
-0.130628	0.430623	0.050047	
-0.172208	0.415746	0.1	
-0.10824	0.362258	0.1	
-0.318198	-0.318198	0.1	
-0.285476	-0.347855	0.0499731	
-0.347846	-0.285488	0.0499977	
-0.237792	-0.287474	0.1	
-0.256491	-0.0362829	0	
-0.318623	-0.0616012	0	
-0.312659	-0.0214623	0.1	
-0.320541	0.0201981	0	
0.396862	0.212133	0.0500072	
0.304312	0.234791	0.1	
0.297412	0.240191	0	
0.329177	0.174808	0	
0.281012	0.0229437	0	
0.26859	-0.0619166	0	
0.251733	-0.014256	0.1	
0.201967	-0.00950962	0	
0.173936	0.254382	0.1	
0.117493	0.309521	0.1	
0.180378	0.336857	0.1	
0.155004	0.296903	0	
0.0450774	0.367889	0.1	
0.0447484	0.293988	0.1	
-0.00311199	0.32667	0.1	
0.0210919	0.316201	0	
-0.29175	-0.237189	0.1	
-0.347846	-0.285488	0.0499977	
-0.374161	-0.250007	0.1	
-0.331484	-0.17939	0.1	
0.0210919	0.316201	0	
-0.0135764	0.270208	0.1	
-0.0730421	0.296762	0	
0.00604814	0.236488	0	
-0.223685	-0.271786	0	
-0.173995	-0.331361	0.1	
-0.170075	-0.251953	0.1	
-0.237792	-0.287474	0.1	
0.132963	0.044259	0	
0.12107	-0.0431928	0	
0.201967	-0.00950962	0	
0.0969794	0.021072	0.0441191	
-0.248262	0.29482	0	
-0.287124	0.235637	0	
-0.207714	0.236511	0	
-0.217513	0.254621	0.1	
-0.130628	0.430623	0.050047	
-0.172208	0.415746	0	
-0.108028	0.370407	0	
-0.212129	0.396865	0.0500166	
0.396862	0.212133	0.0500072	
0.304312	0.234791	0.1	
0.347853	0.285478	0.0500065	
0.297412	0.240191	0	
-0.0251864	-0.106886	0.1	
0.0142935	-0.12453	0.1	
-0.0203113	-0.154489	0.1	
0.00260765	-0.105267	0.0427151	
-0.182092	-0.340669	0	
-0.173995	-0.331361	0.1	
-0.112928	-0.360216	0	
-0.13795	-0.29702	0	
0.287454	0.0808414	0.1	
0.314556	0.0156287	0.1	
0.255462	0.038247	0.1	
0.281012	0.0229437	0	
0.0714224	0.0228299	0.1	
0.104819	-0.00331638	0.1	
0.0662467	-0.0253248	0.1	
0.0969794	0.021072	0.0441191	
0.355442	0.107822	0.1	
0.314556	0.0156287	0.1	
0.287454	0.0808414	0.1	
0.363227	0.0380543	0	
0.0839363	-0.30145	0	
0.0148093	-0.246449	0	
0.00378559	-0.316996	0	
0.0511003	-0.317442	0.1	
-0.244028	0.149971	0	
-0.237687	0.180874	0.1	
-0.300257	0.152847	0.1	
-0.242461	0.118505	0.1	
0.281012	0.0229437	0	
0.314556	0.0156287	0.1	
0.255462	0.038247	0.1	
0.251733	-0.014256	0.1	
-0.396863	-0.212131	0.0499815	
-0.374161	-0.250007	0.1	
-0.347846	-0.285488	0.0499977	
-0.331484	-0.17939	0.1	
0.349981	0.18562	0.1	
0.355442	0.107822	0.1	
0.294509	0.157311	0.1	
0.329177	0.174808	0	
0.0714224	0.0228299	0.1	
0.0318198	0.0318198	0.1	
0.0550025	0.059172	0.1	
0.0396544	0.04868	0.0438187	
0.396862	0.212133	0.0500072	
0.415746	0.172208	0	
0.430623	0.130628	0.050047	
0.369533	0.112832	0	
-0.365881	-0.111705	0	
-0.373197	-0.0467972	0.1	
-0.318623	-0.0616012	0	
-0.379429	-0.0366192	0	
0.130628	-0.430623	0.050047	
0.172208	-0.415746	0	
0.111895	-0.372646	0	
0.212129	-0.396865	0.0500047	
-0.104718	-0.361527	0.1	
-0.0383965	-0.372403	0	
-0.0615368	-0.322264	0.1	
-0.0276628	-0.367444	0.1	
-0.173995	-0.331361	0.1	
-0.212128	-0.396865	0.0499723	
-0.130611	-0.430628	0.05	
-0.172208	-0.415746	0.1	
-0.112928	-0.360216	0	
-0.172208	-0.415746	0	
-0.130611	-0.430628	0.05	
-0.182092	-0.340669	0	
0.287454	0.0808414	0.1	
0.213357	0.0766959	0	
0.296534	0.101262	0	
0.281012	0.0229437	0	
-0.138104	0.243902	0	
-0.207714	0.236511	0	
-0.155635	0.172227	0	
-0.175847	0.204716	0.1	
0.147007	-0.259035	0	
0.138545	-0.218367	0.1	
0.134408	-0.294741	0.1	
0.199452	-0.267103	0.1	
-0.0436673	0.0180876	0.0496986	
-0.0200153	-0.0483211	0.048598	
-0.0318198	-0.0318198	0.1	
-0.088703	-0.0138649	0.0491848	
-0.244028	0.149971	0	
-0.207714	0.236511	0	
-0.287124	0.235637	0	
-0.237687	0.180874	0.1	
0.446786	-0.053688	0.0499938	
0.384421	-0.0378621	0	
0.441353	-0.0877906	0	
0.430623	-0.130628	0.049953	
0.250007	0.374161	0.1	
0.180378	0.336857	0.1	
0.212116	0.396871	0.049999	
0.285475	0.347856	0.0500185	
0.0450774	0.367889	0.1	
0.0381609	0.387454	0	
0.107822	0.355442	0	
0.0210919	0.316201	0	
0.25204	-0.306462	0	
0.216652	-0.249073	0	
0.257787	-0.293807	0.1	
0.29265	-0.244884	0	
0.180378	0.336857	0.1	
0.250007	0.374161	0.1	
0.245754	0.289669	0.1	
0.285475	0.347856	0.0500185	
0.355442	0.107822	0.1	
0.296534	0.101262	0	
0.369533	0.112832	0	
0.363227	0.0380543	0	
0.154944	0.223937	0	
0.228237	0.281807	0	
0.238182	0.208514	0.1	
0.237285	0.176133	0	
-0.0276628	-0.367444	0.1	
-0.0383965	-0.372403	0	
0.00378559	-0.316996	0	
0.0404591	-0.377182	0	
0.287124	-0.235637	0.1	
0.331486	-0.177371	0.1	
0.374161	-0.250007	0.1	
0.347855	-0.285477	0.0499717	
-0.347846	-0.285488	0.0499977	
-0.298599	-0.245054	0	
-0.374161	-0.250007	0	
-0.396863	-0.212131	0.0499815	
0.00728726	-0.0832273	0.1	
-0.0276546	-0.0671169	0.1	
0	-0.045	0.1	
-0.0200153	-0.0483211	0.048598	
-0.112928	-0.360216	0	
-0.0536856	-0.446786	0.05	
-0.0877906	-0.441353	0	
-0.0383965	-0.372403	0	
-0.0536856	-0.446786	0.05	
-0.0877906	-0.441353	0	
-0.130611	-0.430628	0.05	
-0.112928	-0.360216	0	
0.175084	-0.3275	0	
0.147007	-0.259035	0	
0.134408	-0.294741	0.1	
0.199452	-0.267103	0.1	
-0.00500969	-0.0120945	0.1	
0	-0.045	0.1	
-0.0318198	-0.0318198	0.1	
-0.0200153	-0.0483211	0.048598	
0.245754	0.289669	0.1	
0.285475	0.347856	0.0500185	
0.297412	0.240191	0	
0.228237	0.281807	0	
-0.32913	0.168426	0	
-0.351668	0.187175	0.1	
-0.355442	0.107822	0.1	
-0.300257	0.152847	0.1	
0.053688	0.446786	0.0499938	
0.0877906	0.441353	0.1	
0.120589	0.374273	0.1	
0.130628	0.430623	0.049953	
-0.212128	-0.396865	0.0499723	
-0.130611	-0.430628	0.05	
-0.172208	-0.415746	0	
-0.182092	-0.340669	0	
-0.130611	-0.430628	0.05	
-0.173995	-0.331361	0.1	
-0.172208	-0.415746	0.1	
-0.104718	-0.361527	0.1	
-0.0730421	0.296762	0	
-0.173131	0.322508	0	
-0.138104	0.243902	0	
-0.116127	0.293072	0.1	
-0.133674	-0.228308	0	
-0.111587	-0.287654	0.1	
-0.170075	-0.251953	0.1	
-0.13795	-0.29702	0	
-0.223685	-0.271786	0	
-0.182092	-0.340669	0	
-0.173995	-0.331361	0.1	
-0.237792	-0.287474	0.1	
0.120589	0.374273	0.1	
0.117493	0.309521	0.1	
0.0450774	0.367889	0.1	
0.107822	0.355442	0	
-0.133674	-0.228308	0	
-0.223685	-0.271786	0	
-0.170075	-0.251953	0.1	
-0.201609	-0.173762	0	
0.0447484	0.293988	0.1	
0.0210919	0.316201	0	
0.0872949	0.269115	0	
0.00604814	0.236488	0	
-0.00500969	-0.0120945	0.1	
-0.0436673	0.0180876	0.0496986	
0.0060848	-2.90377e-05	0.0422367	
-0.0200153	-0.0483211	0.048598	
-0.237792	-0.287474	0.1	
-0.223685	-0.271786	0	
-0.298599	-0.245054	0	
-0.29175	-0.237189	0.1	
-0.182284	0.324323	0.1	
-0.212129	0.396865	0.0500166	
-0.172208	0.415746	0.1	
-0.10824	0.362258	0.1	
0.0662467	-0.0253248	0.1	
0.0986719	-0.0360043	0.1	
0.0868431	-0.0680824	0.1	
0.0512771	-0.0404658	0.045086	
-0.296313	0.0995627	0	
-0.32913	0.168426	0	
-0.362114	0.10176	0	
-0.355442	0.107822	0.1	
-0.347855	0.285477	0.0500334	
-0.374161	0.250007	0	
-0.287124	0.235637	0	
-0.396865	0.212129	0.0500047	
0.296534	0.101262	0	
0.294509	0.157311	0.1	
0.355442	0.107822	0.1	
0.329177	0.174808	0	
-0.111446	-0.0565624	0	
-0.190622	-0.0884834	0	
-0.12308	-0.143942	0	
-0.142279	-0.0393203	0.0487826	
-0.441353	0.0877906	0.1	
-0.446786	0.053688	0.0499938	
-0.430623	0.130628	0.049953	
-0.355442	0.107822	0.1	
0.329177	0.174808	0	
0.355442	0.107822	0.1	
0.296534	0.101262	0	
0.369533	0.112832	0	
-0.396863	-0.212131	0.0499815	
-0.298599	-0.245054	0	
-0.374161	-0.250007	0	
-0.327578	-0.175094	0	
0.0207402	-0.174187	0.1	
0.062652	-0.118801	0.041886	
0.0279075	-0.16395	0	
0.00260765	-0.105267	0.0427151	
0.0447484	0.293988	0.1	
0.117493	0.309521	0.1	
0.0906227	0.254757	0.1	
0.0872949	0.269115	0	
0.363227	0.0380543	0	
0.374822	-0.0324999	0.1	
0.314556	0.0156287	0.1	
0.324791	-0.0252069	0	
0.175084	-0.3275	0	
0.147007	-0.259035	0	
0.0839363	-0.30145	0	
0.134408	-0.294741	0.1	
-0.430623	0.130628	0.049953	
-0.32913	0.168426	0	
-0.415746	0.172208	0	
-0.396865	0.212129	0.0500047	
0.355442	0.107822	0.1	
0.387235	0.0357483	0.1	
0.314556	0.0156287	0.1	
0.363227	0.0380543	0	
0.430623	-0.130628	0.049953	
0.339399	-0.183579	0	
0.415746	-0.172208	0	
0.396865	-0.212129	0.0499751	
-0.133674	-0.228308	0	
-0.12308	-0.143942	0	
-0.201609	-0.173762	0	
-0.16441	-0.183508	0.1	
-0.373197	-0.0467972	0.1	
-0.356724	-0.11546	0.1	
-0.430623	-0.130628	0.049953	
-0.365881	-0.111705	0	
0.396865	-0.212129	0.0499751	
0.339399	-0.183579	0	
0.374161	-0.250007	0	
0.347855	-0.285477	0.0499717	
0.446786	-0.053688	0.0499938	
0.441353	-0.0877906	0.1	
0.357114	-0.107098	0.1	
0.430623	-0.130628	0.049953	
0.318198	0.318198	0	
0.347853	0.285478	0.0500065	
0.285475	0.347856	0.0500185	
0.297412	0.240191	0	
-0.13795	-0.29702	0	
-0.133674	-0.228308	0	
-0.111587	-0.287654	0.1	
-0.0659287	-0.28985	0	
0.387235	0.0357483	0.1	
0.355442	0.107822	0.1	
0.441353	0.0877906	0.1	
0.446786	0.053688	0.0500062	
0.287124	-0.235637	0.1	
0.257787	-0.293807	0.1	
0.216652	-0.249073	0	
0.29265	-0.244884	0	
0.0450774	0.367889	0.1	
0.0877906	0.441353	0.1	
0.120589	0.374273	0.1	
0.053688	0.446786	0.0499938	
0.0714224	0.0228299	0.1	
0.0396544	0.04868	0.0438187	
0.0858783	0.0607949	0.1	
0.0969794	0.021072	0.0441191	
0.314556	0.0156287	0.1	
0.387235	0.0357483	0.1	
0.374822	-0.0324999	0.1	
0.363227	0.0380543	0	
0.415746	0.172208	0	
0.396862	0.212133	0.0500072	
0.329177	0.174808	0	
0.369533	0.112832	0	
-0.237792	-0.287474	0.1	
-0.170075	-0.251953	0.1	
-0.223685	-0.271786	0	
-0.225546	-0.215121	0.1	
-0.372975	0.0289182	0.1	
-0.312659	-0.0214623	0.1	
-0.320541	0.0201981	0	
-0.304909	0.0444641	0.1	
0.348465	-0.103096	0	
0.26859	-0.0619166	0	
0.261818	-0.161797	0	
0.287371	-0.120299	0.1	
0.238182	0.208514	0.1	
0.294509	0.157311	0.1	
0.230865	0.135658	0.1	
0.237285	0.176133	0	
-0.0358979	0.379949	0.1	
-0.0877906	0.441353	0.1	
-0.053688	0.446786	0.0500062	
-0.10824	0.362258	0.1	
0.441353	-0.0877906	0.1	
0.357114	-0.107098	0.1	
0.374822	-0.0324999	0.1	
0.446786	-0.053688	0.0499938	
0.294509	0.157311	0.1	
0.355442	0.107822	0.1	
0.287454	0.0808414	0.1	
0.296534	0.101262	0	
0.0511003	-0.317442	0.1	
0.0839363	-0.30145	0	
0.082636	-0.254415	0.1	
0.134408	-0.294741	0.1	
0.179715	0.179275	0.1	
0.144601	0.131477	0	
0.154944	0.223937	0	
0.237285	0.176133	0	
0.109857	-0.362973	0.1	
0.0839363	-0.30145	0	
0.0511003	-0.317442	0.1	
0.134408	-0.294741	0.1	
0.172208	-0.415746	0	
0.175084	-0.3275	0	
0.111895	-0.372646	0	
0.212129	-0.396865	0.0500047	
-0.248262	0.29482	0	
-0.173131	0.322508	0	
-0.250007	0.374161	0	
-0.212129	0.396865	0.0500166	
-0.351668	0.187175	0.1	
-0.347855	0.285477	0.0500334	
-0.374161	0.250007	0.1	
-0.292926	0.235471	0.1	
0.296534	0.101262	0	
0.213357	0.0766959	0	
0.230865	0.135658	0.1	
0.237285	0.176133	0	
0.228237	0.281807	0	
0.297412	0.240191	0	
0.238182	0.208514	0.1	
0.237285	0.176133	0	
0.324791	-0.0252069	0	
0.374822	-0.0324999	0.1	
0.314556	0.0156287	0.1	
0.303447	-0.0554764	0.1	
0.199452	-0.267103	0.1	
0.175084	-0.3275	0	
0.216652	-0.249073	0	
0.25204	-0.306462	0	
-0.396865	0.212129	0.0500047	
-0.347855	0.285477	0.0500334	
-0.374161	0.250007	0.1	
-0.351668	0.187175	0.1	
0.238182	0.208514	0.1	
0.230865	0.135658	0.1	
0.179715	0.179275	0.1	
0.237285	0.176133	0	
-0.355442	0.107822	0.1	
-0.441353	0.0877906	0.1	
-0.446786	0.053688	0.0499938	
-0.372975	0.0289182	0.1	
-0.430623	-0.130628	0.049953	
-0.356724	-0.11546	0.1	
-0.415746	-0.172208	0.1	
-0.396863	-0.212131	0.0499815	
-0.396863	-0.212131	0.0499815	
-0.415746	-0.172208	0	
-0.430623	-0.130628	0.049953	
-0.365881	-0.111705	0	
0.250007	-0.374161	0	
0.212129	-0.396865	0.0500047	
0.285477	-0.347855	0.0499669	
0.25204	-0.306462	0	
-0.0276546	-0.0671169	0.1	
-0.0200153	-0.0483211	0.048598	
0.00728726	-0.0832273	0.1	
0.00260765	-0.105267	0.0427151	
0.0872949	0.269115	0	
0.107822	0.355442	0	
0.117493	0.309521	0.1	
0.155004	0.296903	0	
0.0488551	-0.0983509	0.1	
0.0512771	-0.0404658	0.045086	
0.062652	-0.118801	0.041886	
0.00260765	-0.105267	0.0427151	
0.287124	-0.235637	0.1	
0.211584	-0.20097	0.1	
0.216652	-0.249073	0	
0.199452	-0.267103	0.1	
0.00728726	-0.0832273	0.1	
0.0488551	-0.0983509	0.1	
0.0142935	-0.12453	0.1	
0.00260765	-0.105267	0.0427151	
-0.0529805	-0.19738	0	
0.0279075	-0.16395	0	
-0.0415815	-0.110392	0	
0.00260765	-0.105267	0.0427151	
0.216652	-0.249073	0	
0.257787	-0.293807	0.1	
0.287124	-0.235637	0.1	
0.199452	-0.267103	0.1	
0.347853	0.285478	0.0500065	
0.245754	0.289669	0.1	
0.318198	0.318198	0.1	
0.285475	0.347856	0.0500185	
-0.223685	-0.271786	0	
-0.201609	-0.173762	0	
-0.265692	-0.195501	0	
-0.225546	-0.215121	0.1	
0.347855	-0.285477	0.0499717	
0.339399	-0.183579	0	
0.374161	-0.250007	0	
0.29265	-0.244884	0	
0.0404591	-0.377182	0	
0.0839363	-0.30145	0	
0.00378559	-0.316996	0	
0.0511003	-0.317442	0.1	
0.347853	0.285478	0.0500065	
0.374161	0.250007	0	
0.396862	0.212133	0.0500072	
0.297412	0.240191	0	
-0.318198	0.318198	0	
-0.248262	0.29482	0	
-0.285477	0.347855	0.049986	
-0.347855	0.285477	0.0500334	
-0.0877906	0.441353	0.1	
-0.130628	0.430623	0.050047	
-0.053688	0.446786	0.0500062	
-0.10824	0.362258	0.1	
0.155004	0.296903	0	
0.228237	0.281807	0	
0.173936	0.254382	0.1	
0.154944	0.223937	0	
0.348465	-0.103096	0	
0.324791	-0.0252069	0	
0.26859	-0.0619166	0	
0.303447	-0.0554764	0.1	
-0.0276546	-0.0671169	0.1	
-0.0200153	-0.0483211	0.048598	
0.00260765	-0.105267	0.0427151	
-0.0647576	-0.0686517	0.0541732	
0.329177	0.174808	0	
0.296534	0.101262	0	
0.294509	0.157311	0.1	
0.237285	0.176133	0	
0.212116	0.396871	0.049999	
0.130628	0.430623	0.049953	
0.172208	0.415746	0	
0.18581	0.349201	0	
0.318198	-0.318198	0	
0.285477	-0.347855	0.0499669	
0.347855	-0.285477	0.0499717	
0.25204	-0.306462	0	
0.430623	0.130628	0.050047	
0.349981	0.18562	0.1	
0.415746	0.172208	0.1	
0.396862	0.212133	0.0500072	
0.044217	-0.387842	0.1	
0.0877906	-0.441353	0.1	
0.053688	-0.446786	0.0500062	
0.130628	-0.430623	0.050047	
0.134408	-0.294741	0.1	
0.187286	-0.334755	0.1	
0.175084	-0.3275	0	
0.199452	-0.267103	0.1	
-0.396863	-0.212131	0.0499815	
-0.356724	-0.11546	0.1	
-0.415746	-0.172208	0.1	
-0.331484	-0.17939	0.1	
-0.374161	0.250007	0	
-0.32913	0.168426	0	
-0.287124	0.235637	0	
-0.396865	0.212129	0.0500047	
-0.0358979	0.379949	0.1	
0	0.45	0.05	
0	0.45	0.1	
0.0450774	0.367889	0.1	
-0.296313	0.0995627	0	
-0.320541	0.0201981	0	
-0.248332	0.050693	0	
-0.304909	0.0444641	0.1	
-0.251772	0.306785	0.1	
-0.318198	0.318198	0.1	
-0.347855	0.285477	0.0500334	
-0.292926	0.235471	0.1	
-0.212129	0.396865	0.0500166	
-0.250007	0.374161	0.1	
-0.285477	0.347855	0.049986	
-0.251772	0.306785	0.1	
-0.347855	0.285477	0.0500334	
-0.285477	0.347855	0.049986	
-0.318198	0.318198	0.1	
-0.251772	0.306785	0.1	
-0.415746	0.172208	0.1	
-0.430623	0.130628	0.049953	
-0.396865	0.212129	0.0500047	
-0.351668	0.187175	0.1	
0.347855	-0.285477	0.0499717	
0.257787	-0.293807	0.1	
0.287124	-0.235637	0.1	
0.29265	-0.244884	0	
-0.0383965	-0.372403	0	
0	-0.45	0.05	
0	-0.45	0	
0.0404591	-0.377182	0	
-0.415746	-0.172208	0	
-0.396863	-0.212131	0.0499815	
-0.327578	-0.175094	0	
-0.365881	-0.111705	0	
-0.172208	0.415746	0	
-0.173131	0.322508	0	
-0.108028	0.370407	0	
-0.212129	0.396865	0.0500166	
-0.0583523	0.0875158	0.1	
-0.0949426	0.0752698	0.1	
-0.0791922	0.124893	0.1	
-0.0733988	0.0716859	0.0422482	
0.25204	-0.306462	0	
0.347855	-0.285477	0.0499717	
0.318198	-0.318198	0	
0.29265	-0.244884	0	
0.153315	0.00689278	0.1	
0.104819	-0.00331638	0.1	
0.114815	0.0394603	0.1	
0.0969794	0.021072	0.0441191	
0.285475	0.347856	0.0500185	
0.212116	0.396871	0.049999	
0.250007	0.374161	0	
0.18581	0.349201	0	
0.45	0	0	
0.45	0	0.05	
0.363227	0.0380543	0	
0.384421	-0.0378621	0	
-0.296313	0.0995627	0	
-0.244028	0.149971	0	
-0.32913	0.168426	0	
-0.300257	0.152847	0.1	
-0.351668	0.187175	0.1	
-0.415746	0.172208	0.1	
-0.430623	0.130628	0.049953	
-0.355442	0.107822	0.1	
0.199452	-0.267103	0.1	
0.216652	-0.249073	0	
0.257787	-0.293807	0.1	
0.25204	-0.306462	0	
-0.104461	0.000932435	0.1	
-0.0944203	0.0353385	0.1	
-0.0737761	0.00176994	0.1	
-0.088703	-0.0138649	0.0491848	
0.430623	0.130628	0.050047	
0.441353	0.0877906	0.1	
0.355442	0.107822	0.1	
0.446786	0.053688	0.0500062	
0.446786	0.053688	0.0500062	
0.430623	0.130628	0.050047	
0.441353	0.0877906	0	
0.369533	0.112832	0	
0.0550025	0.059172	0.1	
0.0318198	0.0318198	0.1	
0.0250698	0.0602098	0.1	
0.0396544	0.04868	0.0438187	
0.187286	-0.334755	0.1	
0.212129	-0.396865	0.0500047	
0.285477	-0.347855	0.0499669	
0.250007	-0.374161	0.1	
0.175084	-0.3275	0	
0.216652	-0.249073	0	
0.147007	-0.259035	0	
0.199452	-0.267103	0.1	
0.261818	-0.161797	0	
0.211584	-0.20097	0.1	
0.174426	-0.185564	0	
0.216652	-0.249073	0	
-0.441353	-0.0877906	0.1	
-0.373197	-0.0467972	0.1	
-0.430623	-0.130628	0.049953	
-0.446786	-0.053688	0.0499938	
-0.365881	-0.111705	0	
-0.441353	-0.0877906	0	
-0.446786	-0.053688	0.0499938	
-0.379429	-0.0366192	0	
-0.32913	0.168426	0	
-0.415746	0.172208	0	
-0.362114	0.10176	0	
-0.430623	0.130628	0.049953	
0.0691478	0.134694	0.1	
0.0405437	0.0931998	0.1	
0.0139627	0.124614	0.1	
0.0186333	0.101613	0.0479424	
0.245754	0.289669	0.1	
0.318198	0.318198	0.1	
0.304312	0.234791	0.1	
0.347853	0.285478	0.0500065	
-0.133674	-0.228308	0	
-0.170075	-0.251953	0.1	
-0.223685	-0.271786	0	
-0.13795	-0.29702	0	
0.0877906	-0.441353	0.1	
0.044217	-0.387842	0.1	
0.109857	-0.362973	0.1	
0.130628	-0.430623	0.050047	
0.212129	-0.396865	0.0500047	
0.250007	-0.374161	0	
0.175084	-0.3275	0	
0.25204	-0.306462	0	
-0.157075	-0.0653284	0.1	
-0.112529	-0.0425202	0.1	
-0.108753	-0.0943056	0.1	
-0.142279	-0.0393203	0.0487826	
-0.318198	-0.318198	0	
-0.298599	-0.245054	0	
-0.347846	-0.285488	0.0499977	
-0.285476	-0.347855	0.0499731	
-0.0944203	0.0353385	0.1	
-0.0949426	0.0752698	0.1	
-0.0611924	0.0535755	0.1	
-0.0733988	0.0716859	0.0422482	
0.0405437	0.0931998	0.1	
0.0250698	0.0602098	0.1	
0.00442099	0.0829354	0.1	
0.0186333	0.101613	0.0479424	
-0.0182151	0.0644617	0	
-0.00652201	0.151895	0	
-0.0880857	0.11829	0	
-0.0733988	0.0716859	0.0422482	
-0.250007	0.374161	0.1	
-0.212129	0.396865	0.0500166	
-0.182284	0.324323	0.1	
-0.251772	0.306785	0.1	
-0.250007	-0.374161	0	
-0.285476	-0.347855	0.0499731	
-0.212128	-0.396865	0.0499723	
-0.182092	-0.340669	0	
-0.0712343	-0.0265969	0.1	
-0.088703	-0.0138649	0.0491848	
-0.0200153	-0.0483211	0.048598	
-0.0647576	-0.0686517	0.0541732	
0.285477	-0.347855	0.0499669	
0.257787	-0.293807	0.1	
0.187286	-0.334755	0.1	
0.250007	-0.374161	0.1	
0.441353	0.0877906	0	
0.446786	0.053688	0.0500062	
0.369533	0.112832	0	
0.363227	0.0380543	0	
0.130628	0.430623	0.049953	
0.172208	0.415746	0.1	
0.120589	0.374273	0.1	
0.212116	0.396871	0.049999	
0.053688	-0.446786	0.0500062	
0.0877906	-0.441353	0	
0.111895	-0.372646	0	
0.130628	-0.430623	0.050047	
0.0750467	0.185499	0	
-0.00652201	0.151895	0	
0.0632975	0.0980676	0	
0.0186333	0.101613	0.0479424	
-0.0276628	-0.367444	0.1	
0	-0.45	0.1	
0	-0.45	0.05	
0.044217	-0.387842	0.1	
0.374161	0.250007	0	
0.396862	0.212133	0.0500072	
0.297412	0.240191	0	
0.329177	0.174808	0	
-0.446786	-0.053688	0.0499938	
-0.430623	-0.130628	0.049953	
-0.441353	-0.0877906	0	
-0.365881	-0.111705	0	
0.45	0	0	
0.45	0	0.05	
0.446786	0.053688	0.0500062	
0.363227	0.0380543	0	
0.0060848	-2.90377e-05	0.0422367	
-0.0200153	-0.0483211	0.048598	
0.0398215	-0.0765894	0	
0.0512771	-0.0404658	0.045086	
-0.362114	0.10176	0	
-0.441353	0.0877906	0	
-0.389559	0.0336032	0	
-0.446786	0.053688	0.0499938	
0.18581	0.349201	0	
0.130628	0.430623	0.049953	
0.172208	0.415746	0	
0.107822	0.355442	0	
-0.0415815	-0.110392	0	
-0.111446	-0.0565624	0	
-0.12308	-0.143942	0	
-0.0647576	-0.0686517	0.0541732	
-0.373197	-0.0467972	0.1	
-0.45	0	0.05	
-0.45	0	0.1	
-0.372975	0.0289182	0.1	
0.111895	-0.372646	0	
0.0404591	-0.377182	0	
0.0877906	-0.441353	0	
0.053688	-0.446786	0.0500062	
-0.0538392	-0.0535857	0.1	
-0.080591	-0.0588792	0.1	
-0.0712343	-0.0265969	0.1	
-0.0647576	-0.0686517	0.0541732	
-0.112529	-0.0425202	0.1	
-0.088703	-0.0138649	0.0491848	
-0.080591	-0.0588792	0.1	
-0.0647576	-0.0686517	0.0541732	
0.180378	0.336857	0.1	
0.120589	0.374273	0.1	
0.172208	0.415746	0.1	
0.212116	0.396871	0.049999	
-0.045	0	0.1	
-0.0606984	0.0243229	0.1	
-0.0318198	0.0318198	0.1	
-0.0436673	0.0180876	0.0496986	
-0.0182151	0.0644617	0	
0.0060848	-2.90377e-05	0.0422367	
0.0396544	0.04868	0.0438187	
-0.0436673	0.0180876	0.0496986	
0.0450774	0.367889	0.1	
0	0.45	0.05	
0	0.45	0.1	
0.053688	0.446786	0.0499938	
0.415746	-0.172208	0	
0.348465	-0.103096	0	
0.339399	-0.183579	0	
0.430623	-0.130628	0.049953	
0.396862	0.212133	0.0500072	
0.349981	0.18562	0.1	
0.374161	0.250007	0.1	
0.304312	0.234791	0.1	
0.0587245	-0.143156	0.1	
0.0864603	-0.112342	0.1	
0.110168	-0.152489	0.1	
0.062652	-0.118801	0.041886	
0.0587245	-0.143156	0.1	
0.0142935	-0.12453	0.1	
0.0488551	-0.0983509	0.1	
0.062652	-0.118801	0.041886	
0.0405437	0.0931998	0.1	
0.0396544	0.04868	0.0438187	
0.0250698	0.0602098	0.1	
0.0186333	0.101613	0.0479424	
-0.0536856	-0.446786	0.05	
-0.130611	-0.430628	0.05	
-0.0877906	-0.441353	0.1	
-0.104718	-0.361527	0.1	
0	0.45	0	
0	0.45	0.05	
-0.0339688	0.375665	0	
0.0381609	0.387454	0	
-0.379429	-0.0366192	0	
-0.45	0	0	
-0.45	0	0.05	
-0.389559	0.0336032	0	
0.297412	0.240191	0	
0.285475	0.347856	0.0500185	
0.318198	0.318198	0	
0.228237	0.281807	0	
0.348465	-0.103096	0	
0.441353	-0.0877906	0	
0.384421	-0.0378621	0	
0.430623	-0.130628	0.049953	
-0.0712343	-0.0265969	0.1	
-0.080591	-0.0588792	0.1	
-0.112529	-0.0425202	0.1	
-0.088703	-0.0138649	0.0491848	
-0.373197	-0.0467972	0.1	
-0.45	0	0.1	
-0.45	0	0.05	
-0.446786	-0.053688	0.0499938	
0.374161	0.250007	0.1	
0.396862	0.212133	0.0500072	
0.304312	0.234791	0.1	
0.347853	0.285478	0.0500065	
0.12107	-0.0431928	0	
0.0512771	-0.0404658	0.045086	
0.0398215	-0.0765894	0	
0.062652	-0.118801	0.041886	
-0.248262	0.29482	0	
-0.318198	0.318198	0	
-0.287124	0.235637	0	
-0.347855	0.285477	0.0500334	
0.314556	0.0156287	0.1	
0.281012	0.0229437	0	
0.363227	0.0380543	0	
0.324791	-0.0252069	0	
-0.130628	0.430623	0.050047	
-0.108028	0.370407	0	
-0.0877906	0.441353	0	
-0.053688	0.446786	0.0500062	
0.415746	0.172208	0.1	
0.355442	0.107822	0.1	
0.349981	0.18562	0.1	
0.430623	0.130628	0.050047	
-0.446786	0.053688	0.0499938	
-0.362114	0.10176	0	
-0.441353	0.0877906	0	
-0.430623	0.130628	0.049953	
-0.0536856	-0.446786	0.05	
0	-0.45	0.05	
0	-0.45	0	
-0.0383965	-0.372403	0	
-0.108028	0.370407	0	
-0.0339688	0.375665	0	
-0.0877906	0.441353	0	
-0.053688	0.446786	0.0500062	
-0.112529	-0.0425202	0.1	
-0.088703	-0.0138649	0.0491848	
-0.0647576	-0.0686517	0.0541732	
-0.142279	-0.0393203	0.0487826	
0.374822	-0.0324999	0.1	
0.45	0	0.1	
0.45	0	0.05	
0.387235	0.0357483	0.1	
-0.0536856	-0.446786	0.05	
0	-0.45	0.1	
0	-0.45	0.05	
-0.0276628	-0.367444	0.1	
0.0868431	-0.0680824	0.1	
0.0401753	-0.0586342	0.1	
0.0662467	-0.0253248	0.1	
0.0512771	-0.0404658	0.045086	
0.228237	0.281807	0	
0.285475	0.347856	0.0500185	
0.250007	0.374161	0	
0.18581	0.349201	0	
-0.441353	-0.0877906	0.1	
-0.373197	-0.0467972	0.1	
-0.356724	-0.11546	0.1	
-0.430623	-0.130628	0.049953	
0.108307	-0.130924	0	
0.0279075	-0.16395	0	
0.0922363	-0.215793	0	
0.062652	-0.118801	0.041886	
-0.318198	-0.318198	0	
-0.298599	-0.245054	0	
-0.285476	-0.347855	0.0499731	
-0.223685	-0.271786	0	
-0.045	0	0.1	
-0.0318198	0.0318198	0.1	
-0.0201457	0.00856081	0.1	
-0.0436673	0.0180876	0.0496986	
-0.104718	-0.361527	0.1	
-0.0877906	-0.441353	0.1	
-0.0536856	-0.446786	0.05	
-0.0276628	-0.367444	0.1	
-0.153293	-0.011499	0.1	
-0.157075	-0.0653284	0.1	
-0.203899	-0.0323666	0.1	
-0.142279	-0.0393203	0.0487826	
0.0516213	0.0106253	0	
0.0060848	-2.90377e-05	0.0422367	
0.0398215	-0.0765894	0	
0.0512771	-0.0404658	0.045086	
-0.250007	-0.374161	0	
-0.285476	-0.347855	0.0499731	
-0.182092	-0.340669	0	
-0.223685	-0.271786	0	
0.0488551	-0.0983509	0.1	
0.062652	-0.118801	0.041886	
0.0142935	-0.12453	0.1	
0.00260765	-0.105267	0.0427151	
0.257787	-0.293807	0.1	
0.318198	-0.318198	0.1	
0.285477	-0.347855	0.0499669	
0.347855	-0.285477	0.0499717	
-0.0538392	-0.0535857	0.1	
-0.0276546	-0.0671169	0.1	
-0.0619298	-0.0870419	0.1	
-0.0647576	-0.0686517	0.0541732	
0.114815	0.0394603	0.1	
0.0714224	0.0228299	0.1	
0.0858783	0.0607949	0.1	
0.0969794	0.021072	0.0441191	
0.374822	-0.0324999	0.1	
0.45	0	0.05	
0.45	0	0.1	
0.446786	-0.053688	0.0499938	
0.0398215	-0.0765894	0	
-0.0200153	-0.0483211	0.048598	
-0.0415815	-0.110392	0	
0.00260765	-0.105267	0.0427151	
0.0404591	-0.377182	0	
0	-0.45	0.05	
0	-0.45	0	
0.053688	-0.446786	0.0500062	
-0.0611924	0.0535755	0.1	
-0.0949426	0.0752698	0.1	
-0.0583523	0.0875158	0.1	
-0.0733988	0.0716859	0.0422482	
-0.446786	0.053688	0.0499938	
-0.45	0	0.1	
-0.45	0	0.05	
-0.372975	0.0289182	0.1	
0.0142935	-0.12453	0.1	
-0.0251864	-0.106886	0.1	
0.00728726	-0.0832273	0.1	
0.00260765	-0.105267	0.0427151	
-0.153293	-0.011499	0.1	
-0.104461	0.000932435	0.1	
-0.112529	-0.0425202	0.1	
-0.142279	-0.0393203	0.0487826	
0.0398215	-0.0765894	0	
0.0060848	-2.90377e-05	0.0422367	
-0.0299174	-0.0229457	0	
-0.0200153	-0.0483211	0.048598	
-0.0339688	0.375665	0	
0	0.45	0.05	
0	0.45	0	
-0.053688	0.446786	0.0500062	
0.0516213	0.0106253	0	
0.0632975	0.0980676	0	
0.0396544	0.04868	0.0438187	
0.0969794	0.021072	0.0441191	
-0.45	0	0	
-0.45	0	0.05	
-0.446786	-0.053688	0.0499938	
-0.379429	-0.0366192	0	
0.0318198	-0.0318198	0.1	
0.0662467	-0.0253248	0.1	
0.0401753	-0.0586342	0.1	
0.0512771	-0.0404658	0.045086	
0.0516213	0.0106253	0	
0.0396544	0.04868	0.0438187	
0.0060848	-2.90377e-05	0.0422367	
0.0512771	-0.0404658	0.045086	
0	-0.045	0.1	
-0.0276546	-0.0671169	0.1	
-0.0318198	-0.0318198	0.1	
-0.0200153	-0.0483211	0.048598	
-0.080591	-0.0588792	0.1	
-0.088703	-0.0138649	0.0491848	
-0.0712343	-0.0265969	0.1	
-0.0647576	-0.0686517	0.0541732	
-0.080591	-0.0588792	0.1	
-0.0619298	-0.0870419	0.1	
-0.108753	-0.0943056	0.1	
-0.0647576	-0.0686517	0.0541732	
-0.0997698	0.0308567	0	
-0.0299174	-0.0229457	0	
-0.0182151	0.0644617	0	
-0.0436673	0.0180876	0.0496986	
-0.0299174	-0.0229457	0	
0.0516213	0.0106253	0	
-0.0182151	0.0644617	0	
0.0060848	-2.90377e-05	0.0422367	
-0.0182151	0.0644617	0	
0.0516213	0.0106253	0	
0.0632975	0.0980676	0	
0.0396544	0.04868	0.0438187	
0.0396544	0.04868	0.0438187	
0.0512771	-0.0404658	0.045086	
0.0516213	0.0106253	0	
0.0969794	0.021072	0.0441191	
0.12107	-0.0431928	0	
0.0398215	-0.0765894	0	
0.108307	-0.130924	0	
0.062652	-0.118801	0.041886	
-0.0415815	-0.110392	0	
-0.0299174	-0.0229457	0	
-0.111446	-0.0565624	0	
-0.0647576	-0.0686517	0.0541732	
-0.0415815	-0.110392	0	
0.0398215	-0.0765894	0	
-0.0299174	-0.0229457	0	
-0.0200153	-0.0483211	0.048598	
-0.0299174	-0.0229457	0	
0.0398215	-0.0765894	0	
0.0516213	0.0106253	0	
0.0060848	-2.90377e-05	0.0422367	
-0.111446	-0.0565624	0	
-0.088703	-0.0138649	0.0491848	
-0.0997698	0.0308567	0	
-0.142279	-0.0393203	0.0487826	
-0.0880857	0.11829	0	
-0.0997698	0.0308567	0	
-0.0182151	0.0644617	0	
-0.0733988	0.0716859	0.0422482	
0.044217	-0.387842	0.1	
0	-0.45	0.1	
0	-0.45	0.05	
0.053688	-0.446786	0.0500062	
-0.169647	0.0846842	0	
-0.0997698	0.0308567	0	
-0.0880857	0.11829	0	
-0.0733988	0.0716859	0.0422482	
-0.053688	0.446786	0.0500062	
0	0.45	0.05	
0	0.45	0.1	
-0.0358979	0.379949	0.1	
-0.111446	-0.0565624	0	
-0.0997698	0.0308567	0	
-0.181323	-0.0027565	0	
-0.142279	-0.0393203	0.0487826	
-0.0182151	0.0644617	0	
0.0632975	0.0980676	0	
-0.00652201	0.151895	0	
0.0186333	0.101613	0.0479424	
-0.111446	-0.0565624	0	
-0.0299174	-0.0229457	0	
-0.0997698	0.0308567	0	
-0.088703	-0.0138649	0.0491848	
0.0139627	0.124614	0.1	
0.00442099	0.0829354	0.1	
-0.0254114	0.106009	0.1	
0.0186333	0.101613	0.0479424	
0.0398215	-0.0765894	0	
-0.0415815	-0.110392	0	
0.0279075	-0.16395	0	
0.00260765	-0.105267	0.0427151	
-0.0415815	-0.110392	0	
-0.0200153	-0.0483211	0.048598	
-0.0299174	-0.0229457	0	
-0.0647576	-0.0686517	0.0541732	
-0.0436673	0.0180876	0.0496986	
-0.0733988	0.0716859	0.0422482	
-0.0997698	0.0308567	0	
-0.088703	-0.0138649	0.0491848	
0.0516213	0.0106253	0	
0.132963	0.044259	0	
0.0632975	0.0980676	0	
0.0969794	0.021072	0.0441191	
0.318198	-0.318198	0.1	
0.257787	-0.293807	0.1	
0.287124	-0.235637	0.1	
0.347855	-0.285477	0.0499717	
0.0488551	-0.0983509	0.1	
0.0864603	-0.112342	0.1	
0.0587245	-0.143156	0.1	
0.062652	-0.118801	0.041886	
0.0398215	-0.0765894	0	
0.12107	-0.0431928	0	
0.0516213	0.0106253	0	
0.0512771	-0.0404658	0.045086	
-0.104461	0.000932435	0.1	
-0.088703	-0.0138649	0.0491848	
-0.112529	-0.0425202	0.1	
-0.142279	-0.0393203	0.0487826	
0.0516213	0.0106253	0	
0.12107	-0.0431928	0	
0.132963	0.044259	0	
0.0969794	0.021072	0.0441191	
0	0.45	0.05	
0	0.45	0	
0.053688	0.446786	0.0499938	
0.0381609	0.387454	0	
-0.111446	-0.0565624	0	
-0.0299174	-0.0229457	0	
-0.088703	-0.0138649	0.0491848	
-0.0647576	-0.0686517	0.0541732	
0.108307	-0.130924	0	
0.0398215	-0.0765894	0	
0.0279075	-0.16395	0	
0.062652	-0.118801	0.041886	
0.0516213	0.0106253	0	
0.0512771	-0.0404658	0.045086	
0.12107	-0.0431928	0	
0.0969794	0.021072	0.0441191	
-0.0299174	-0.0229457	0	
0.0060848	-2.90377e-05	0.0422367	
-0.0182151	0.0644617	0	
-0.0436673	0.0180876	0.0496986	
0.45	0	0	
0.45	0	0.05	
0.384421	-0.0378621	0	
0.446786	-0.053688	0.0499938	
-0.0997698	0.0308567	0	
-0.0436673	0.0180876	0.0496986	
-0.0182151	0.0644617	0	
-0.0733988	0.0716859	0.0422482	
0.387235	0.0357483	0.1	
0.45	0	0.1	
0.45	0	0.05	
0.446786	0.053688	0.0500062	
-0.0299174	-0.0229457	0	
-0.0436673	0.0180876	0.0496986	
-0.0997698	0.0308567	0	
-0.088703	-0.0138649	0.0491848	
-0.0182151	0.0644617	0	
0.0060848	-2.90377e-05	0.0422367	
0.0516213	0.0106253	0	
0.0396544	0.04868	0.0438187	
0.446786	0.053688	0.0500062	
0.441353	0.0877906	0	
0.45	0	0	
0.363227	0.0380543	0	
0.114815	0.0394603	0.1	
0.104819	-0.00331638	0.1	
0.0714224	0.0228299	0.1	
0.0969794	0.021072	0.0441191	
-0.389559	0.0336032	0	
-0.45	0	0	
-0.45	0	0.05	
-0.446786	0.053688	0.0499938	
-0.0536856	-0.446786	0.05	
0	-0.45	0	
-0.0877906	-0.441353	0	
-0.0383965	-0.372403	0	
-0.0877906	-0.441353	0.1	
0	-0.45	0.1	
-0.0536856	-0.446786	0.05	
-0.0276628	-0.367444	0.1	
-0.0200153	-0.0483211	0.048598	
-0.088703	-0.0138649	0.0491848	
-0.0299174	-0.0229457	0	
-0.0647576	-0.0686517	0.0541732	
-0.0299174	-0.0229457	0	
-0.0200153	-0.0483211	0.048598	
-0.0436673	0.0180876	0.0496986	
-0.088703	-0.0138649	0.0491848	
-0.181323	-0.0027565	0	
-0.190622	-0.0884834	0	
-0.111446	-0.0565624	0	
-0.142279	-0.0393203	0.0487826	
0	0.45	0.1	
0.0877906	0.441353	0.1	
0.0450774	0.367889	0.1	
0.053688	0.446786	0.0499938	
-0.104461	0.000932435	0.1	
-0.0712343	-0.0265969	0.1	
-0.112529	-0.0425202	0.1	
-0.088703	-0.0138649	0.0491848	
-0.0182151	0.0644617	0	
0.0396544	0.04868	0.0438187	
0.0632975	0.0980676	0	
0.0186333	0.101613	0.0479424	
0.0398215	-0.0765894	0	
0.0512771	-0.0404658	0.045086	
-0.0200153	-0.0483211	0.048598	
0.00260765	-0.105267	0.0427151	
0.441353	-0.0877906	0.1	
0.374822	-0.0324999	0.1	
0.45	0	0.1	
0.446786	-0.053688	0.0499938	
-0.441353	0.0877906	0.1	
-0.45	0	0.1	
-0.446786	0.053688	0.0499938	
-0.372975	0.0289182	0.1	
-0.396863	-0.212131	0.0499815	
-0.374161	-0.250007	0	
-0.415746	-0.172208	0	
-0.327578	-0.175094	0	
-0.0415815	-0.110392	0	
0.00260765	-0.105267	0.0427151	
-0.0200153	-0.0483211	0.048598	
-0.0647576	-0.0686517	0.0541732	
-0.373197	-0.0467972	0.1	
-0.441353	-0.0877906	0.1	
-0.45	0	0.1	
-0.446786	-0.053688	0.0499938	
-0.0339688	0.375665	0	
0	0.45	0	
-0.0877906	0.441353	0	
-0.053688	0.446786	0.0500062	
-0.415746	0.172208	0.1	
-0.441353	0.0877906	0.1	
-0.430623	0.130628	0.049953	
-0.355442	0.107822	0.1	
0.430623	-0.130628	0.049953	
0.441353	-0.0877906	0.1	
0.357114	-0.107098	0.1	
0.415746	-0.172208	0.1	
-0.285476	-0.347855	0.0499731	
-0.250007	-0.374161	0	
-0.318198	-0.318198	0	
-0.223685	-0.271786	0	
-0.318198	-0.318198	0.1	
-0.250007	-0.374161	0.1	
-0.285476	-0.347855	0.0499731	
-0.237792	-0.287474	0.1	
-0.111446	-0.0565624	0	
-0.0647576	-0.0686517	0.0541732	
-0.088703	-0.0138649	0.0491848	
-0.142279	-0.0393203	0.0487826	
-0.446786	-0.053688	0.0499938	
-0.441353	-0.0877906	0	
-0.45	0	0	
-0.379429	-0.0366192	0	
0.374161	-0.250007	0.1	
0.318198	-0.318198	0.1	
0.287124	-0.235637	0.1	
0.347855	-0.285477	0.0499717	
-0.374161	0.250007	0	
-0.415746	0.172208	0	
-0.32913	0.168426	0	
-0.396865	0.212129	0.0500047	
-0.173995	-0.331361	0.1	
-0.250007	-0.374161	0.1	
-0.212128	-0.396865	0.0499723	
-0.172208	-0.415746	0.1	
-0.0737761	0.00176994	0.1	
-0.0712343	-0.0265969	0.1	
-0.104461	0.000932435	0.1	
-0.088703	-0.0138649	0.0491848	
0.0405437	0.0931998	0.1	
0.00442099	0.0829354	0.1	
0.0139627	0.124614	0.1	
0.0186333	0.101613	0.0479424	
0	-0.45	0	
0.0877906	-0.441353	0	
0.0404591	-0.377182	0	
0.053688	-0.446786	0.0500062	
0.396865	-0.212129	0.0499751	
0.415746	-0.172208	0.1	
0.331486	-0.177371	0.1	
0.374161	-0.250007	0.1	
0.172208	-0.415746	0	
0.250007	-0.374161	0	
0.175084	-0.3275	0	
0.212129	-0.396865	0.0500047	
0.396862	0.212133	0.0500072	
0.374161	0.250007	0	
0.415746	0.172208	0	
0.329177	0.174808	0	
0.0877906	0.441353	0	
0.172208	0.415746	0	
0.130628	0.430623	0.049953	
0.107822	0.355442	0	
-0.112529	-0.0425202	0.1	
-0.157075	-0.0653284	0.1	
-0.153293	-0.011499	0.1	
-0.142279	-0.0393203	0.0487826	
-0.318198	-0.318198	0.1	
-0.347846	-0.285488	0.0499977	
-0.374161	-0.250007	0.1	
-0.29175	-0.237189	0.1	
-0.172208	0.415746	0.1	
-0.250007	0.374161	0.1	
-0.212129	0.396865	0.0500166	
-0.182284	0.324323	0.1	
0.0398215	-0.0765894	0	
0.062652	-0.118801	0.041886	
0.0512771	-0.0404658	0.045086	
0.00260765	-0.105267	0.0427151	
-0.318198	0.318198	0.1	
-0.374161	0.250007	0.1	
-0.347855	0.285477	0.0500334	
-0.292926	0.235471	0.1	
-0.356724	-0.11546	0.1	
-0.415746	-0.172208	0.1	
-0.441353	-0.0877906	0.1	
-0.430623	-0.130628	0.049953	
-0.396863	-0.212131	0.0499815	
-0.415746	-0.172208	0.1	
-0.374161	-0.250007	0.1	
-0.331484	-0.17939	0.1	
-0.0877906	-0.441353	0	
-0.172208	-0.415746	0	
-0.130611	-0.430628	0.05	
-0.112928	-0.360216	0	
0.348465	-0.103096	0	
0.415746	-0.172208	0	
0.441353	-0.0877906	0	
0.430623	-0.130628	0.049953	
-0.053688	0.446786	0.0500062	
0	0.45	0.1	
-0.0877906	0.441353	0.1	
-0.0358979	0.379949	0.1	
0.250007	0.374161	0	
0.318198	0.318198	0	
0.285475	0.347856	0.0500185	
0.228237	0.281807	0	
-0.173131	0.322508	0	
-0.172208	0.415746	0	
-0.250007	0.374161	0	
-0.212129	0.396865	0.0500166	
0.0877906	-0.441353	0.1	
0.109857	-0.362973	0.1	
0.172208	-0.415746	0.1	
0.130628	-0.430623	0.050047	
-0.318198	0.318198	0	
-0.374161	0.250007	0	
-0.287124	0.235637	0	
-0.347855	0.285477	0.0500334	
0.415746	0.172208	0.1	
0.441353	0.0877906	0.1	
0.355442	0.107822	0.1	
0.430623	0.130628	0.050047	
-0.362114	0.10176	0	
-0.415746	0.172208	0	
-0.441353	0.0877906	0	
-0.430623	0.130628	0.049953	
0.0398215	-0.0765894	0	
0.0279075	-0.16395	0	
0.062652	-0.118801	0.041886	
0.00260765	-0.105267	0.0427151	
-0.0877906	0.441353	0.1	
-0.172208	0.415746	0.1	
-0.130628	0.430623	0.050047	
-0.10824	0.362258	0.1	
0.053688	0.446786	0.0499938	
0	0.45	0	
0.0877906	0.441353	0	
0.0381609	0.387454	0	
0.245754	0.289669	0.1	
0.250007	0.374161	0.1	
0.318198	0.318198	0.1	
0.285475	0.347856	0.0500185	
-0.389559	0.0336032	0	
-0.441353	0.0877906	0	
-0.45	0	0	
-0.446786	0.053688	0.0499938	
0	-0.45	0.1	
0.044217	-0.387842	0.1	
0.0877906	-0.441353	0.1	
0.053688	-0.446786	0.0500062	
0.387235	0.0357483	0.1	
0.441353	0.0877906	0.1	
0.45	0	0.1	
0.446786	0.053688	0.0500062	
-0.0877906	-0.441353	0.1	
-0.130611	-0.430628	0.05	
-0.172208	-0.415746	0.1	
-0.104718	-0.361527	0.1	
-0.0619298	-0.0870419	0.1	
-0.080591	-0.0588792	0.1	
-0.0538392	-0.0535857	0.1	
-0.0647576	-0.0686517	0.0541732	
0.180378	0.336857	0.1	
0.172208	0.415746	0.1	
0.250007	0.374161	0.1	
0.212116	0.396871	0.049999	
0.212129	-0.396865	0.0500047	
0.187286	-0.334755	0.1	
0.172208	-0.415746	0.1	
0.250007	-0.374161	0.1	
0.304312	0.234791	0.1	
0.318198	0.318198	0.1	
0.374161	0.250007	0.1	
0.347853	0.285478	0.0500065	
0.347855	-0.285477	0.0499717	
0.374161	-0.250007	0	
0.318198	-0.318198	0	
0.29265	-0.244884	0	
0.415746	0.172208	0	
0.441353	0.0877906	0	
0.430623	0.130628	0.050047	
0.369533	0.112832	0	
0.384421	-0.0378621	0	
0.441353	-0.0877906	0	
0.45	0	0	
0.446786	-0.053688	0.0499938	
-0.248262	0.29482	0	
-0.250007	0.374161	0	
-0.318198	0.318198	0	
-0.285477	0.347855	0.049986	
0.0877906	-0.441353	0	
0.172208	-0.415746	0	
0.111895	-0.372646	0	
0.130628	-0.430623	0.050047	
-0.415746	-0.172208	0	
-0.441353	-0.0877906	0	
-0.430623	-0.130628	0.049953	
-0.365881	-0.111705	0	
0.0060848	-2.90377e-05	0.0422367	
-0.0436673	0.0180876	0.0496986	
-0.0299174	-0.0229457	0	
-0.0200153	-0.0483211	0.048598	
-0.0877906	0.441353	0	
-0.172208	0.415746	0	
-0.108028	0.370407	0	
-0.130628	0.430623	0.050047	
0.318198	-0.318198	0.1	
0.257787	-0.293807	0.1	
0.285477	-0.347855	0.0499669	
0.250007	-0.374161	0.1	
0.120589	0.374273	0.1	
0.0877906	0.441353	0.1	
0.172208	0.415746	0.1	
0.130628	0.430623	0.049953	
0.339399	-0.183579	0	
0.374161	-0.250007	0	
0.415746	-0.172208	0	
0.396865	-0.212129	0.0499751	
0.347853	0.285478	0.0500065	
0.318198	0.318198	0	
0.374161	0.250007	0	
0.297412	0.240191	0	
0.374161	0.250007	0.1	
0.415746	0.172208	0.1	
0.349981	0.18562	0.1	
0.396862	0.212133	0.0500072	
0.285477	-0.347855	0.0499669	
0.318198	-0.318198	0	
0.250007	-0.374161	0	
0.25204	-0.306462	0	
-0.396865	0.212129	0.0500047	
-0.374161	0.250007	0.1	
-0.415746	0.172208	0.1	
-0.351668	0.187175	0.1	
-0.298599	-0.245054	0	
-0.374161	-0.250007	0	
-0.318198	-0.318198	0	
-0.347846	-0.285488	0.0499977	
-0.212128	-0.396865	0.0499723	
-0.172208	-0.415746	0	
-0.250007	-0.374161	0	
-0.182092	-0.340669	0	
-0.285477	0.347855	0.049986	
-0.250007	0.374161	0.1	
-0.318198	0.318198	0.1	
-0.251772	0.306785	0.1	
0.172208	0.415746	0	
0.250007	0.374161	0	
0.212116	0.396871	0.049999	
0.18581	0.349201	0	
0.201967	-0.00950962	0	
0.136366	-0.0453365	0.1	
0.190166	-0.0983881	0	
0.194544	-0.0323862	0.1	
0.201967	-0.00950962	0	
0.190166	-0.0983881	0	
0.136366	-0.0453365	0.1	
0.12107	-0.0431928	0	
-0.256491	-0.0362829	0	
-0.209136	-0.0909343	0.1	
-0.275518	-0.12132	0	
-0.190622	-0.0884834	0	
-0.275518	-0.12132	0	
-0.209136	-0.0909343	0.1	
-0.256491	-0.0362829	0	
-0.258057	-0.0572365	0.1	
-0.110394	-0.216726	0.1	
-0.0659287	-0.28985	0	
-0.0529805	-0.19738	0	
-0.0496677	-0.250381	0.1	
-0.110394	-0.216726	0.1	
-0.0529805	-0.19738	0	
-0.0659287	-0.28985	0	
-0.133674	-0.228308	0	
0.0279075	-0.16395	0	
0.0204871	-0.24099	0.1	
-0.0142517	-0.205249	0.1	
0.0148093	-0.246449	0	
-0.0142517	-0.205249	0.1	
0.0204871	-0.24099	0.1	
0.0279075	-0.16395	0	
0.0207402	-0.174187	0.1	
-0.142279	-0.0393203	0.0487826	
-0.104461	0.000932435	0.1	
-0.140177	0.0445127	0.1	
-0.153293	-0.011499	0.1	
-0.142279	-0.0393203	0.0487826	
-0.140177	0.0445127	0.1	
-0.104461	0.000932435	0.1	
-0.088703	-0.0138649	0.0491848	
-0.142279	-0.0393203	0.0487826	
-0.19804	0.0242816	0.1	
-0.140177	0.0445127	0.1	
-0.181323	-0.0027565	0	
-0.142279	-0.0393203	0.0487826	
-0.140177	0.0445127	0.1	
-0.19804	0.0242816	0.1	
-0.153293	-0.011499	0.1	
0.29265	-0.244884	0	
0.268615	-0.174062	0.1	
0.216652	-0.249073	0	
0.287124	-0.235637	0.1	
0.29265	-0.244884	0	
0.216652	-0.249073	0	
0.268615	-0.174062	0.1	
0.261818	-0.161797	0	
0.237285	0.176133	0	
0.168985	0.119579	0.1	
0.213357	0.0766959	0	
0.230865	0.135658	0.1	
0.237285	0.176133	0	
0.213357	0.0766959	0	
0.168985	0.119579	0.1	
0.144601	0.131477	0	
0.0922363	-0.215793	0	
0.0204871	-0.24099	0.1	
0.0279075	-0.16395	0	
0.0148093	-0.246449	0	
0.0279075	-0.16395	0	
0.0204871	-0.24099	0.1	
0.0922363	-0.215793	0	
0.0725059	-0.197526	0.1	
0.0186333	0.101613	0.0479424	
0.0250698	0.0602098	0.1	
0	0.045	0.1	
0.0396544	0.04868	0.0438187	
0.0186333	0.101613	0.0479424	
0	0.045	0.1	
0.0250698	0.0602098	0.1	
0.00442099	0.0829354	0.1	
-0.0318198	-0.0318198	0.1	
-0.0647576	-0.0686517	0.0541732	
-0.0276546	-0.0671169	0.1	
-0.0538392	-0.0535857	0.1	
-0.0276546	-0.0671169	0.1	
-0.0647576	-0.0686517	0.0541732	
-0.0318198	-0.0318198	0.1	
-0.0200153	-0.0483211	0.048598	
0.044217	-0.387842	0.1	
0.111895	-0.372646	0	
0.0511003	-0.317442	0.1	
0.109857	-0.362973	0.1	
0.0511003	-0.317442	0.1	
0.111895	-0.372646	0	
0.044217	-0.387842	0.1	
0.0404591	-0.377182	0	
0.0906227	0.254757	0.1	
0.154944	0.223937	0	
0.0750467	0.185499	0	
0.0872949	0.269115	0	
0.0750467	0.185499	0	
0.154944	0.223937	0	
0.0906227	0.254757	0.1	
0.129359	0.208003	0.1	
0.0060848	-2.90377e-05	0.0422367	
0.0512771	-0.0404658	0.045086	
0	-0.045	0.1	
-0.0200153	-0.0483211	0.048598	
-0.0606984	0.0243229	0.1	
-0.088703	-0.0138649	0.0491848	
-0.045	0	0.1	
-0.0737761	0.00176994	0.1	
-0.045	0	0.1	
-0.088703	-0.0138649	0.0491848	
-0.0606984	0.0243229	0.1	
-0.0436673	0.0180876	0.0496986	
0.00260765	-0.105267	0.0427151	
0.0401753	-0.0586342	0.1	
-0.0200153	-0.0483211	0.048598	
0.00728726	-0.0832273	0.1	
0.00260765	-0.105267	0.0427151	
-0.0200153	-0.0483211	0.048598	
0.0401753	-0.0586342	0.1	
0.0512771	-0.0404658	0.045086	
-0.0358979	0.379949	0.1	
0.0381609	0.387454	0	
-0.00311199	0.32667	0.1	
-0.0339688	0.375665	0	
-0.00311199	0.32667	0.1	
0.0381609	0.387454	0	
-0.0358979	0.379949	0.1	
0.0450774	0.367889	0.1	
-0.10824	0.362258	0.1	
-0.0339688	0.375665	0	
-0.053688	0.446786	0.0500062	
-0.0358979	0.379949	0.1	
-0.10824	0.362258	0.1	
-0.053688	0.446786	0.0500062	
-0.0339688	0.375665	0	
-0.108028	0.370407	0	
-0.312956	-0.0762135	0.1	
-0.365881	-0.111705	0	
-0.373197	-0.0467972	0.1	
-0.318623	-0.0616012	0	
-0.373197	-0.0467972	0.1	
-0.365881	-0.111705	0	
-0.312956	-0.0762135	0.1	
-0.356724	-0.11546	0.1	
-0.209136	-0.0909343	0.1	
-0.142279	-0.0393203	0.0487826	
-0.160221	-0.122206	0.1	
-0.190622	-0.0884834	0	
-0.160221	-0.122206	0.1	
-0.142279	-0.0393203	0.0487826	
-0.209136	-0.0909343	0.1	
-0.157075	-0.0653284	0.1	
0.339399	-0.183579	0	
0.268615	-0.174062	0.1	
0.287371	-0.120299	0.1	
0.261818	-0.161797	0	
0.287371	-0.120299	0.1	
0.268615	-0.174062	0.1	
0.339399	-0.183579	0	
0.331486	-0.177371	0.1	
0.107822	0.355442	0	
0.053688	0.446786	0.0499938	
0.0877906	0.441353	0	
0.0381609	0.387454	0	
0.107822	0.355442	0	
0.0877906	0.441353	0	
0.053688	0.446786	0.0499938	
0.130628	0.430623	0.049953	
-0.104718	-0.361527	0.1	
-0.13795	-0.29702	0	
-0.0615368	-0.322264	0.1	
-0.112928	-0.360216	0	
-0.104718	-0.361527	0.1	
-0.0615368	-0.322264	0.1	
-0.13795	-0.29702	0	
-0.111587	-0.287654	0.1	
-0.0659287	-0.28985	0	
-0.0615368	-0.322264	0.1	
-0.13795	-0.29702	0	
-0.112928	-0.360216	0	
-0.0659287	-0.28985	0	
-0.13795	-0.29702	0	
-0.0615368	-0.322264	0.1	
-0.111587	-0.287654	0.1	
-0.269145	-0.181189	0.1	
-0.331484	-0.17939	0.1	
-0.265692	-0.195501	0	
-0.29175	-0.237189	0.1	
-0.269145	-0.181189	0.1	
-0.265692	-0.195501	0	
-0.331484	-0.17939	0.1	
-0.327578	-0.175094	0	
-0.298599	-0.245054	0	
-0.265692	-0.195501	0	
-0.331484	-0.17939	0.1	
-0.29175	-0.237189	0.1	
-0.298599	-0.245054	0	
-0.331484	-0.17939	0.1	
-0.265692	-0.195501	0	
-0.327578	-0.175094	0	
-0.351668	0.187175	0.1	
-0.287124	0.235637	0	
-0.300257	0.152847	0.1	
-0.32913	0.168426	0	
-0.300257	0.152847	0.1	
-0.287124	0.235637	0	
-0.351668	0.187175	0.1	
-0.292926	0.235471	0.1	
0.331486	-0.177371	0.1	
0.348465	-0.103096	0	
0.430623	-0.130628	0.049953	
0.339399	-0.183579	0	
0.331486	-0.177371	0.1	
0.430623	-0.130628	0.049953	
0.348465	-0.103096	0	
0.357114	-0.107098	0.1	
0.0512771	-0.0404658	0.045086	
0.0202986	-0.00819178	0.1	
0	-0.045	0.1	
0.0318198	-0.0318198	0.1	
0.0512771	-0.0404658	0.045086	
0	-0.045	0.1	
0.0202986	-0.00819178	0.1	
0.0060848	-2.90377e-05	0.0422367	
0.357114	-0.107098	0.1	
0.384421	-0.0378621	0	
0.324791	-0.0252069	0	
0.374822	-0.0324999	0.1	
0.324791	-0.0252069	0	
0.384421	-0.0378621	0	
0.357114	-0.107098	0.1	
0.348465	-0.103096	0	
0.324791	-0.0252069	0	
0.303447	-0.0554764	0.1	
0.357114	-0.107098	0.1	
0.374822	-0.0324999	0.1	
0.357114	-0.107098	0.1	
0.303447	-0.0554764	0.1	
0.324791	-0.0252069	0	
0.348465	-0.103096	0	
0.0632975	0.0980676	0.2	
0.114043	0.0943971	0.1	
0.0858783	0.0607949	0.1	
0.0741079	0.088115	0.1	
0.132963	0.044259	0.2	
0.204676	0.0233192	0.1	
0.153315	0.00689278	0.1	
0.160735	0.0621263	0.1	
0	0.045	0.1	
0.00442099	0.0829354	0.1	
-0.0269211	0.0671862	0.1	
0.0186333	0.101613	0.152058	
-0.0791922	0.124893	0.1	
-0.0278782	0.153479	0.1	
-0.075941	0.18593	0.1	
-0.0880857	0.11829	0.2	
-0.0254114	0.106009	0.1	
-0.0278782	0.153479	0.1	
-0.0791922	0.124893	0.1	
-0.0880857	0.11829	0.2	
0.0858783	0.0607949	0.1	
0.0632975	0.0980676	0.2	
0.0741079	0.088115	0.1	
0.0396544	0.04868	0.156181	
0.160735	0.0621263	0.1	
0.114043	0.0943971	0.1	
0.114815	0.0394603	0.1	
0.0969794	0.021072	0.155881	
0	0.045	0.1	
-0.0269211	0.0671862	0.1	
-0.0318198	0.0318198	0.1	
-0.0436673	0.0180876	0.150301	
0.0986719	-0.0360043	0.1	
0.136366	-0.0453365	0.1	
0.104819	-0.00331638	0.1	
0.0969794	0.021072	0.155881	
0.0279075	-0.16395	0.2	
-0.0142517	-0.205249	0.1	
-0.0203113	-0.154489	0.1	
0.0207402	-0.174187	0.1	
0.0741079	0.088115	0.1	
0.0632975	0.0980676	0.2	
0.114043	0.0943971	0.1	
0.0691478	0.134694	0.1	
-0.0566812	-0.183891	0.1	
-0.0607822	-0.132192	0.1	
-0.109965	-0.155382	0.1	
-0.0529805	-0.19738	0.2	
0	0.045	0.1	
-0.0182151	0.0644617	0.2	
-0.0269211	0.0671862	0.1	
-0.0436673	0.0180876	0.150301	
0.183564	-0.0903245	0.1	
0.136366	-0.0453365	0.1	
0.190166	-0.0983881	0.2	
0.194544	-0.0323862	0.1	
-0.0203113	-0.154489	0.1	
-0.0607822	-0.132192	0.1	
-0.0566812	-0.183891	0.1	
-0.0529805	-0.19738	0.2	
0.136366	-0.0453365	0.1	
0.0868431	-0.0680824	0.1	
0.12107	-0.0431928	0.2	
0.0986719	-0.0360043	0.1	
-0.108753	-0.0943056	0.1	
-0.109965	-0.155382	0.1	
-0.0607822	-0.132192	0.1	
-0.12308	-0.143942	0.2	
-0.19804	0.0242816	0.1	
-0.253293	0.00301969	0.1	
-0.203899	-0.0323666	0.1	
-0.181323	-0.0027565	0.2	
-0.075941	0.18593	0.1	
-0.0278782	0.153479	0.1	
-0.0232097	0.208019	0.1	
-0.0758641	0.204419	0.2	
-0.13855	0.104902	0.1	
-0.140177	0.0445127	0.1	
-0.0949426	0.0752698	0.1	
-0.0733988	0.0716859	0.157752	
-0.12308	-0.143942	0.2	
-0.0607822	-0.132192	0.1	
-0.108753	-0.0943056	0.1	
-0.0647576	-0.0686517	0.145827	
-0.0254114	0.106009	0.1	
-0.0880857	0.11829	0.2	
-0.0791922	0.124893	0.1	
-0.0733988	0.0716859	0.157752	
0.0632975	0.0980676	0.2	
0.0858783	0.0607949	0.1	
0.114043	0.0943971	0.1	
0.0969794	0.021072	0.155881	
-0.29431	0.0991694	0.1	
-0.247343	0.061739	0.1	
-0.242461	0.118505	0.1	
-0.296313	0.0995627	0.2	
-0.1869	0.140647	0.1	
-0.242461	0.118505	0.1	
-0.191044	0.0809942	0.1	
-0.169647	0.0846842	0.2	
0.0236281	0.174203	0.1	
0.0750467	0.185499	0.2	
0.0783782	0.19473	0.1	
0.0312955	0.232251	0.1	
-0.131315	0.16418	0.1	
-0.0791922	0.124893	0.1	
-0.075941	0.18593	0.1	
-0.0880857	0.11829	0.2	
0.0139627	0.124614	0.1	
0.0236281	0.174203	0.1	
-0.0278782	0.153479	0.1	
0.0186333	0.101613	0.152058	
0.183564	-0.0903245	0.1	
0.190166	-0.0983881	0.2	
0.136366	-0.0453365	0.1	
0.130886	-0.100339	0.1	
0.0236281	0.174203	0.1	
0.0691478	0.134694	0.1	
0.0750467	0.185499	0.2	
0.0186333	0.101613	0.152058	
0.240073	-0.0744514	0.1	
0.26859	-0.0619166	0.2	
0.225509	-0.136032	0.1	
0.287371	-0.120299	0.1	
0.0864603	-0.112342	0.1	
0.130886	-0.100339	0.1	
0.0868431	-0.0680824	0.1	
0.062652	-0.118801	0.158114	
-0.109965	-0.155382	0.1	
-0.16441	-0.183508	0.1	
-0.110394	-0.216726	0.1	
-0.12308	-0.143942	0.2	
0.240073	-0.0744514	0.1	
0.201967	-0.00950962	0.2	
0.251733	-0.014256	0.1	
0.194544	-0.0323862	0.1	
-0.12308	-0.143942	0.2	
-0.108753	-0.0943056	0.1	
-0.160221	-0.122206	0.1	
-0.142279	-0.0393203	0.151217	
-0.191044	0.0809942	0.1	
-0.242461	0.118505	0.1	
-0.247343	0.061739	0.1	
-0.248332	0.050693	0.2	
0.204676	0.0233192	0.1	
0.255462	0.038247	0.1	
0.201967	-0.00950962	0.2	
0.251733	-0.014256	0.1	
-0.0201457	0.00856081	0.1	
0.00677135	0.0163475	0.1	
0	0.045	0.1	
-0.0436673	0.0180876	0.150301	
-0.0182151	0.0644617	0.2	
0	0.045	0.1	
-0.0269211	0.0671862	0.1	
0.0186333	0.101613	0.152058	
-0.203899	-0.0323666	0.1	
-0.153293	-0.011499	0.1	
-0.19804	0.0242816	0.1	
-0.142279	-0.0393203	0.151217	
-0.0572929	0.316053	0.1	
-0.0135764	0.270208	0.1	
-0.00311199	0.32667	0.1	
-0.0730421	0.296762	0.2	
0.144601	0.131477	0.2	
0.114043	0.0943971	0.1	
0.0691478	0.134694	0.1	
0.124146	0.156872	0.1	
-0.0318198	-0.0318198	0.1	
-0.00500969	-0.0120945	0.1	
-0.0201457	0.00856081	0.1	
-0.0436673	0.0180876	0.150301	
0.0868431	-0.0680824	0.1	
0.130886	-0.100339	0.1	
0.12107	-0.0431928	0.2	
0.062652	-0.118801	0.158114	
-0.108753	-0.0943056	0.1	
-0.157075	-0.0653284	0.1	
-0.160221	-0.122206	0.1	
-0.142279	-0.0393203	0.151217	
-0.175847	0.204716	0.1	
-0.237687	0.180874	0.1	
-0.1869	0.140647	0.1	
-0.155635	0.172227	0.2	
-0.0583523	0.0875158	0.1	
-0.0254114	0.106009	0.1	
-0.0791922	0.124893	0.1	
-0.0733988	0.0716859	0.157752	
-0.0712343	-0.0265969	0.1	
-0.0318198	-0.0318198	0.1	
-0.045	0	0.1	
-0.088703	-0.0138649	0.150815	
0.0236281	0.174203	0.1	
0.0783782	0.19473	0.1	
0.0750467	0.185499	0.2	
0.0691478	0.134694	0.1	
-0.0278782	0.153479	0.1	
-0.0232097	0.208019	0.1	
-0.00652201	0.151895	0.2	
0.0236281	0.174203	0.1	
0.0906227	0.254757	0.1	
0.0783782	0.19473	0.1	
0.0750467	0.185499	0.2	
0.0312955	0.232251	0.1	
-0.0254114	0.106009	0.1	
-0.0278782	0.153479	0.1	
-0.0880857	0.11829	0.2	
-0.00652201	0.151895	0.2	
0.0691478	0.134694	0.1	
0.0783782	0.19473	0.1	
0.0750467	0.185499	0.2	
0.124146	0.156872	0.1	
0.12107	-0.0431928	0.2	
0.0868431	-0.0680824	0.1	
0.136366	-0.0453365	0.1	
0.130886	-0.100339	0.1	
0.0986719	-0.0360043	0.1	
0.0868431	-0.0680824	0.1	
0.12107	-0.0431928	0.2	
0.0512771	-0.0404658	0.154914	
0.114043	0.0943971	0.1	
0.0858783	0.0607949	0.1	
0.114815	0.0394603	0.1	
0.0969794	0.021072	0.155881	
-0.0566812	-0.183891	0.1	
-0.109965	-0.155382	0.1	
-0.110394	-0.216726	0.1	
-0.0529805	-0.19738	0.2	
-0.131315	0.16418	0.1	
-0.1869	0.140647	0.1	
-0.13855	0.104902	0.1	
-0.155635	0.172227	0.2	
-0.0758641	0.204419	0.2	
-0.075941	0.18593	0.1	
-0.0278782	0.153479	0.1	
-0.0880857	0.11829	0.2	
0.114815	0.0394603	0.1	
0.153315	0.00689278	0.1	
0.160735	0.0621263	0.1	
0.0969794	0.021072	0.155881	
0.0783782	0.19473	0.1	
0.129359	0.208003	0.1	
0.0750467	0.185499	0.2	
0.124146	0.156872	0.1	
0.201967	-0.00950962	0.2	
0.132963	0.044259	0.2	
0.204676	0.0233192	0.1	
0.153315	0.00689278	0.1	
-0.140177	0.0445127	0.1	
-0.104461	0.000932435	0.1	
-0.0944203	0.0353385	0.1	
-0.088703	-0.0138649	0.150815	
-0.00652201	0.151895	0.2	
-0.0733988	0.0716859	0.157752	
-0.0254114	0.106009	0.1	
0.0186333	0.101613	0.152058	
-0.0318198	0.0318198	0.1	
-0.0269211	0.0671862	0.1	
-0.0611924	0.0535755	0.1	
-0.0436673	0.0180876	0.150301	
-0.0566812	-0.183891	0.1	
-0.0142517	-0.205249	0.1	
-0.0203113	-0.154489	0.1	
-0.0529805	-0.19738	0.2	
0.160735	0.0621263	0.1	
0.144601	0.131477	0.2	
0.168985	0.119579	0.1	
0.114043	0.0943971	0.1	
-0.0529805	-0.19738	0.2	
-0.0142517	-0.205249	0.1	
-0.0203113	-0.154489	0.1	
0.0279075	-0.16395	0.2	
0.183564	-0.0903245	0.1	
0.190166	-0.0983881	0.2	
0.240073	-0.0744514	0.1	
0.194544	-0.0323862	0.1	
-0.13855	0.104902	0.1	
-0.0791922	0.124893	0.1	
-0.131315	0.16418	0.1	
-0.0880857	0.11829	0.2	
-0.0254114	0.106009	0.1	
-0.0278782	0.153479	0.1	
-0.00652201	0.151895	0.2	
0.0186333	0.101613	0.152058	
0.0207402	-0.174187	0.1	
0.0725059	-0.197526	0.1	
0.0587245	-0.143156	0.1	
0.062652	-0.118801	0.158114	
0.153315	0.00689278	0.1	
0.104819	-0.00331638	0.1	
0.136366	-0.0453365	0.1	
0.0969794	0.021072	0.155881	
-0.0232097	0.208019	0.1	
-0.0135764	0.270208	0.1	
-0.0674604	0.249371	0.1	
0.00604814	0.236488	0.2	
0.0750467	0.185499	0.2	
0.129359	0.208003	0.1	
0.0783782	0.19473	0.1	
0.0906227	0.254757	0.1	
0.129359	0.208003	0.1	
0.179715	0.179275	0.1	
0.154944	0.223937	0.2	
0.124146	0.156872	0.1	
0.0401753	-0.0586342	0.1	
0	-0.045	0.1	
0.00728726	-0.0832273	0.1	
-0.0200153	-0.0483211	0.151402	
-0.0254114	0.106009	0.1	
-0.0583523	0.0875158	0.1	
-0.0269211	0.0671862	0.1	
-0.0733988	0.0716859	0.157752	
-0.19804	0.0242816	0.1	
-0.140177	0.0445127	0.1	
-0.191044	0.0809942	0.1	
-0.169647	0.0846842	0.2	
0.0858783	0.0607949	0.1	
0.0741079	0.088115	0.1	
0.0550025	0.059172	0.1	
0.0396544	0.04868	0.156181	
-0.191044	0.0809942	0.1	
-0.247343	0.061739	0.1	
-0.19804	0.0242816	0.1	
-0.248332	0.050693	0.2	
-0.0712343	-0.0265969	0.1	
-0.0538392	-0.0535857	0.1	
-0.0318198	-0.0318198	0.1	
-0.0647576	-0.0686517	0.145827	
-0.0203113	-0.154489	0.1	
-0.0607822	-0.132192	0.1	
-0.0415815	-0.110392	0.2	
0.00260765	-0.105267	0.157285	
-0.131315	0.16418	0.1	
-0.075941	0.18593	0.1	
-0.121547	0.224354	0.1	
-0.0758641	0.204419	0.2	
-0.0529805	-0.19738	0.2	
-0.0607822	-0.132192	0.1	
-0.109965	-0.155382	0.1	
-0.12308	-0.143942	0.2	
0.0279075	-0.16395	0.2	
0.0207402	-0.174187	0.1	
0.0725059	-0.197526	0.1	
0.0204871	-0.24099	0.1	
-0.247343	0.061739	0.1	
-0.29431	0.0991694	0.1	
-0.304909	0.0444641	0.1	
-0.296313	0.0995627	0.2	
0.0318198	0.0318198	0.1	
0	0.045	0.1	
0.00677135	0.0163475	0.1	
0.0396544	0.04868	0.156181	
0.153315	0.00689278	0.1	
0.204676	0.0233192	0.1	
0.201967	-0.00950962	0.2	
0.194544	-0.0323862	0.1	
-0.0529805	-0.19738	0.2	
-0.0203113	-0.154489	0.1	
-0.0607822	-0.132192	0.1	
-0.0415815	-0.110392	0.2	
0.12107	-0.0431928	0.2	
0.190166	-0.0983881	0.2	
0.136366	-0.0453365	0.1	
0.194544	-0.0323862	0.1	
-0.116127	0.293072	0.1	
-0.121547	0.224354	0.1	
-0.0674604	0.249371	0.1	
-0.138104	0.243902	0.2	
-0.0318198	0.0318198	0.1	
-0.0201457	0.00856081	0.1	
0	0.045	0.1	
-0.0436673	0.0180876	0.150301	
-0.111587	-0.287654	0.1	
-0.0496677	-0.250381	0.1	
-0.110394	-0.216726	0.1	
-0.0659287	-0.28985	0.2	
0.0632975	0.0980676	0.2	
0.0396544	0.04868	0.156181	
0.0858783	0.0607949	0.1	
0.0969794	0.021072	0.155881	
-0.0254114	0.106009	0.1	
-0.0733988	0.0716859	0.157752	
-0.0269211	0.0671862	0.1	
0.0186333	0.101613	0.152058	
-0.0201457	0.00856081	0.1	
-0.045	0	0.1	
-0.0318198	-0.0318198	0.1	
-0.0436673	0.0180876	0.150301	
-0.109965	-0.155382	0.1	
-0.108753	-0.0943056	0.1	
-0.160221	-0.122206	0.1	
-0.12308	-0.143942	0.2	
-0.0203113	-0.154489	0.1	
-0.0251864	-0.106886	0.1	
-0.0607822	-0.132192	0.1	
0.00260765	-0.105267	0.157285	
0.0236281	0.174203	0.1	
-0.0232097	0.208019	0.1	
0.00604814	0.236488	0.2	
0.0312955	0.232251	0.1	
0.384421	-0.0378621	0.2	
0.45	0	0.15	
0.374822	-0.0324999	0.1	
0.387235	0.0357483	0.1	
-0.0606984	0.0243229	0.1	
-0.0611924	0.0535755	0.1	
-0.0944203	0.0353385	0.1	
-0.0733988	0.0716859	0.157752	
-0.217835	-0.151685	0.1	
-0.265692	-0.195501	0.2	
-0.269145	-0.181189	0.1	
-0.225546	-0.215121	0.1	
0.129359	0.208003	0.1	
0.154944	0.223937	0.2	
0.0750467	0.185499	0.2	
0.124146	0.156872	0.1	
0.204676	0.0233192	0.1	
0.132963	0.044259	0.2	
0.213357	0.0766959	0.2	
0.160735	0.0621263	0.1	
-0.0758641	0.204419	0.2	
-0.131315	0.16418	0.1	
-0.075941	0.18593	0.1	
-0.0880857	0.11829	0.2	
-0.0278782	0.153479	0.1	
-0.0232097	0.208019	0.1	
-0.0758641	0.204419	0.2	
-0.00652201	0.151895	0.2	
-0.256491	-0.0362829	0.2	
-0.203899	-0.0323666	0.1	
-0.253293	0.00301969	0.1	
-0.181323	-0.0027565	0.2	
-0.0529805	-0.19738	0.2	
-0.109965	-0.155382	0.1	
-0.110394	-0.216726	0.1	
-0.12308	-0.143942	0.2	
0.190166	-0.0983881	0.2	
0.201967	-0.00950962	0.2	
0.240073	-0.0744514	0.1	
0.194544	-0.0323862	0.1	
-0.29431	0.0991694	0.1	
-0.242461	0.118505	0.1	
-0.300257	0.152847	0.1	
-0.296313	0.0995627	0.2	
-0.160221	-0.122206	0.1	
-0.16441	-0.183508	0.1	
-0.109965	-0.155382	0.1	
-0.12308	-0.143942	0.2	
-0.00652201	0.151895	0.2	
-0.0880857	0.11829	0.2	
-0.0254114	0.106009	0.1	
-0.0733988	0.0716859	0.157752	
0.0864603	-0.112342	0.1	
0.110168	-0.152489	0.1	
0.130886	-0.100339	0.1	
0.062652	-0.118801	0.158114	
0	-0.045	0.1	
0.0202986	-0.00819178	0.1	
-0.00500969	-0.0120945	0.1	
0.0060848	-2.90377e-05	0.157763	
-0.0251864	-0.106886	0.1	
-0.0607822	-0.132192	0.1	
0.00260765	-0.105267	0.157285	
-0.0647576	-0.0686517	0.145827	
-0.155635	0.172227	0.2	
-0.13855	0.104902	0.1	
-0.131315	0.16418	0.1	
-0.0880857	0.11829	0.2	
-0.0944203	0.0353385	0.1	
-0.0737761	0.00176994	0.1	
-0.0606984	0.0243229	0.1	
-0.088703	-0.0138649	0.150815	
0.153315	0.00689278	0.1	
0.136366	-0.0453365	0.1	
0.12107	-0.0431928	0.2	
0.0969794	0.021072	0.155881	
-0.13855	0.104902	0.1	
-0.169647	0.0846842	0.2	
-0.140177	0.0445127	0.1	
-0.0733988	0.0716859	0.157752	
0.0714224	0.0228299	0.1	
0.045	0	0.1	
0.0662467	-0.0253248	0.1	
0.0969794	0.021072	0.155881	
0.0986719	-0.0360043	0.1	
0.104819	-0.00331638	0.1	
0.0662467	-0.0253248	0.1	
0.0969794	0.021072	0.155881	
-0.140177	0.0445127	0.1	
-0.0944203	0.0353385	0.1	
-0.0997698	0.0308567	0.2	
-0.088703	-0.0138649	0.150815	
-0.275518	-0.12132	0.2	
-0.279108	-0.122562	0.1	
-0.217835	-0.151685	0.1	
-0.269145	-0.181189	0.1	
-0.140177	0.0445127	0.1	
-0.0944203	0.0353385	0.1	
-0.0949426	0.0752698	0.1	
-0.0733988	0.0716859	0.157752	
0.190166	-0.0983881	0.2	
0.12107	-0.0431928	0.2	
0.136366	-0.0453365	0.1	
0.130886	-0.100339	0.1	
0.0986719	-0.0360043	0.1	
0.12107	-0.0431928	0.2	
0.136366	-0.0453365	0.1	
0.0969794	0.021072	0.155881	
-0.217835	-0.151685	0.1	
-0.160221	-0.122206	0.1	
-0.209136	-0.0909343	0.1	
-0.190622	-0.0884834	0.2	
0.26859	-0.0619166	0.2	
0.225509	-0.136032	0.1	
0.190166	-0.0983881	0.2	
0.240073	-0.0744514	0.1	
0.0691478	0.134694	0.1	
0.0750467	0.185499	0.2	
0.144601	0.131477	0.2	
0.124146	0.156872	0.1	
-0.0997698	0.0308567	0.2	
-0.140177	0.0445127	0.1	
-0.088703	-0.0138649	0.150815	
-0.142279	-0.0393203	0.151217	
0.00677135	0.0163475	0.1	
0.0202986	-0.00819178	0.1	
0.0318198	0.0318198	0.1	
0.0060848	-2.90377e-05	0.157763	
0.45	0	0.15	
0.384421	-0.0378621	0.2	
0.363227	0.0380543	0.2	
0.387235	0.0357483	0.1	
-0.265692	-0.195501	0.2	
-0.275518	-0.12132	0.2	
-0.217835	-0.151685	0.1	
-0.269145	-0.181189	0.1	
0.0922363	-0.215793	0.2	
0.110168	-0.152489	0.1	
0.0725059	-0.197526	0.1	
0.062652	-0.118801	0.158114	
0.0401753	-0.0586342	0.1	
0.00728726	-0.0832273	0.1	
0.0488551	-0.0983509	0.1	
0.00260765	-0.105267	0.157285	
0.183564	-0.0903245	0.1	
0.168154	-0.150165	0.1	
0.190166	-0.0983881	0.2	
0.130886	-0.100339	0.1	
0.201967	-0.00950962	0.2	
0.153315	0.00689278	0.1	
0.12107	-0.0431928	0.2	
0.0969794	0.021072	0.155881	
-0.304909	0.0444641	0.1	
-0.29431	0.0991694	0.1	
-0.355442	0.107822	0.1	
-0.296313	0.0995627	0.2	
0.0139627	0.124614	0.1	
0.0691478	0.134694	0.1	
0.0236281	0.174203	0.1	
0.0186333	0.101613	0.152058	
0.255462	0.038247	0.1	
0.201967	-0.00950962	0.2	
0.213357	0.0766959	0.2	
0.204676	0.0233192	0.1	
-0.140177	0.0445127	0.1	
-0.0997698	0.0308567	0.2	
-0.0944203	0.0353385	0.1	
-0.0733988	0.0716859	0.157752	
-0.256491	-0.0362829	0.2	
-0.253293	0.00301969	0.1	
-0.203899	-0.0323666	0.1	
-0.258057	-0.0572365	0.1	
-0.379429	-0.0366192	0.2	
-0.389559	0.0336032	0.2	
-0.372975	0.0289182	0.1	
-0.45	0	0.15	
-0.170075	-0.251953	0.1	
-0.16441	-0.183508	0.1	
-0.225546	-0.215121	0.1	
-0.201609	-0.173762	0.2	
0.0202986	-0.00819178	0.1	
0.0318198	-0.0318198	0.1	
0.045	0	0.1	
0.0512771	-0.0404658	0.154914	
0.0207402	-0.174187	0.1	
0.0142935	-0.12453	0.1	
-0.0203113	-0.154489	0.1	
0.00260765	-0.105267	0.157285	
0.160735	0.0621263	0.1	
0.168985	0.119579	0.1	
0.213357	0.0766959	0.2	
0.216596	0.0778377	0.1	
-0.12308	-0.143942	0.2	
-0.0415815	-0.110392	0.2	
-0.0607822	-0.132192	0.1	
-0.0647576	-0.0686517	0.145827	
0.0632975	0.0980676	0.2	
0.0691478	0.134694	0.1	
0.0741079	0.088115	0.1	
0.0186333	0.101613	0.152058	
0.0725059	-0.197526	0.1	
0.082636	-0.254415	0.1	
0.0922363	-0.215793	0.2	
0.0204871	-0.24099	0.1	
-0.169647	0.0846842	0.2	
-0.19804	0.0242816	0.1	
-0.140177	0.0445127	0.1	
-0.181323	-0.0027565	0.2	
0.213357	0.0766959	0.2	
0.204676	0.0233192	0.1	
0.160735	0.0621263	0.1	
0.216596	0.0778377	0.1	
0.0447484	0.293988	0.1	
0.00604814	0.236488	0.2	
-0.0135764	0.270208	0.1	
0.0312955	0.232251	0.1	
0.160735	0.0621263	0.1	
0.132963	0.044259	0.2	
0.114043	0.0943971	0.1	
0.0969794	0.021072	0.155881	
-0.247343	0.061739	0.1	
-0.253293	0.00301969	0.1	
-0.19804	0.0242816	0.1	
-0.248332	0.050693	0.2	
-0.0529805	-0.19738	0.2	
0.0279075	-0.16395	0.2	
-0.0203113	-0.154489	0.1	
0.00260765	-0.105267	0.157285	
0.114043	0.0943971	0.1	
0.0632975	0.0980676	0.2	
0.144601	0.131477	0.2	
0.0691478	0.134694	0.1	
-0.275518	-0.12132	0.2	
-0.312956	-0.0762135	0.1	
-0.318623	-0.0616012	0.2	
-0.258057	-0.0572365	0.1	
-0.175847	0.204716	0.1	
-0.131315	0.16418	0.1	
-0.121547	0.224354	0.1	
-0.155635	0.172227	0.2	
0.255462	0.038247	0.1	
0.281012	0.0229437	0.2	
0.201967	-0.00950962	0.2	
0.251733	-0.014256	0.1	
-0.242461	0.118505	0.1	
-0.191044	0.0809942	0.1	
-0.169647	0.0846842	0.2	
-0.248332	0.050693	0.2	
-0.203899	-0.0323666	0.1	
-0.209136	-0.0909343	0.1	
-0.157075	-0.0653284	0.1	
-0.142279	-0.0393203	0.151217	
-0.075941	0.18593	0.1	
-0.0232097	0.208019	0.1	
-0.0674604	0.249371	0.1	
-0.0758641	0.204419	0.2	
0.132963	0.044259	0.2	
0.160735	0.0621263	0.1	
0.153315	0.00689278	0.1	
0.0969794	0.021072	0.155881	
0.201967	-0.00950962	0.2	
0.204676	0.0233192	0.1	
0.251733	-0.014256	0.1	
0.194544	-0.0323862	0.1	
0.268615	-0.174062	0.1	
0.287124	-0.235637	0.1	
0.216652	-0.249073	0.2	
0.211584	-0.20097	0.1	
0	0.045	0.1	
0.0396544	0.04868	0.156181	
-0.0182151	0.0644617	0.2	
-0.0436673	0.0180876	0.150301	
0.240073	-0.0744514	0.1	
0.225509	-0.136032	0.1	
0.190166	-0.0983881	0.2	
0.183564	-0.0903245	0.1	
0.045	0	0.1	
0.0714224	0.0228299	0.1	
0.0318198	0.0318198	0.1	
0.0396544	0.04868	0.156181	
0.00604814	0.236488	0.2	
0.0750467	0.185499	0.2	
0.0236281	0.174203	0.1	
0.0312955	0.232251	0.1	
-0.237687	0.180874	0.1	
-0.175847	0.204716	0.1	
-0.207714	0.236511	0.2	
-0.155635	0.172227	0.2	
-0.0339688	0.375665	0.2	
-0.0572929	0.316053	0.1	
-0.00311199	0.32667	0.1	
-0.0730421	0.296762	0.2	
-0.0269211	0.0671862	0.1	
0.00442099	0.0829354	0.1	
-0.0254114	0.106009	0.1	
0.0186333	0.101613	0.152058	
-0.209136	-0.0909343	0.1	
-0.258057	-0.0572365	0.1	
-0.275518	-0.12132	0.2	
-0.190622	-0.0884834	0.2	
-0.0415815	-0.110392	0.2	
-0.0529805	-0.19738	0.2	
-0.0203113	-0.154489	0.1	
0.00260765	-0.105267	0.157285	
0.160735	0.0621263	0.1	
0.132963	0.044259	0.2	
0.144601	0.131477	0.2	
0.114043	0.0943971	0.1	
-0.13855	0.104902	0.1	
-0.0949426	0.0752698	0.1	
-0.0791922	0.124893	0.1	
-0.0733988	0.0716859	0.157752	
-0.191044	0.0809942	0.1	
-0.13855	0.104902	0.1	
-0.1869	0.140647	0.1	
-0.169647	0.0846842	0.2	
-0.217835	-0.151685	0.1	
-0.279108	-0.122562	0.1	
-0.275518	-0.12132	0.2	
-0.209136	-0.0909343	0.1	
-0.312956	-0.0762135	0.1	
-0.312659	-0.0214623	0.1	
-0.318623	-0.0616012	0.2	
-0.258057	-0.0572365	0.1	
0.132963	0.044259	0.2	
0.153315	0.00689278	0.1	
0.201967	-0.00950962	0.2	
0.0969794	0.021072	0.155881	
-0.279108	-0.122562	0.1	
-0.312956	-0.0762135	0.1	
-0.275518	-0.12132	0.2	
-0.258057	-0.0572365	0.1	
-0.253293	0.00301969	0.1	
-0.19804	0.0242816	0.1	
-0.248332	0.050693	0.2	
-0.181323	-0.0027565	0.2	
0.0236281	0.174203	0.1	
0.0750467	0.185499	0.2	
-0.00652201	0.151895	0.2	
0.0186333	0.101613	0.152058	
0.238182	0.208514	0.1	
0.297412	0.240191	0.2	
0.294509	0.157311	0.1	
0.304312	0.234791	0.1	
0.0207402	-0.174187	0.1	
-0.0203113	-0.154489	0.1	
0.0279075	-0.16395	0.2	
0.00260765	-0.105267	0.157285	
0.331486	-0.177371	0.1	
0.287124	-0.235637	0.1	
0.339399	-0.183579	0.2	
0.268615	-0.174062	0.1	
0.12107	-0.0431928	0.2	
0.0512771	-0.0404658	0.154914	
0.0868431	-0.0680824	0.1	
0.062652	-0.118801	0.158114	
-0.258057	-0.0572365	0.1	
-0.275518	-0.12132	0.2	
-0.279108	-0.122562	0.1	
-0.209136	-0.0909343	0.1	
-0.0572929	0.316053	0.1	
-0.10824	0.362258	0.1	
-0.108028	0.370407	0.2	
-0.0339688	0.375665	0.2	
0.0741079	0.088115	0.1	
0.0405437	0.0931998	0.1	
0.0550025	0.059172	0.1	
0.0396544	0.04868	0.156181	
0.130886	-0.100339	0.1	
0.168154	-0.150165	0.1	
0.108307	-0.130924	0.2	
0.110168	-0.152489	0.1	
0.0318198	0.0318198	0.1	
0.0202986	-0.00819178	0.1	
0.045	0	0.1	
0.0060848	-2.90377e-05	0.157763	
-0.0276628	-0.367444	0.1	
0.0404591	-0.377182	0.2	
0	-0.45	0.15	
0.044217	-0.387842	0.1	
-0.0730421	0.296762	0.2	
-0.0135764	0.270208	0.1	
-0.00311199	0.32667	0.1	
0.0210919	0.316201	0.2	
-0.161049	0.262379	0.1	
-0.175847	0.204716	0.1	
-0.121547	0.224354	0.1	
-0.138104	0.243902	0.2	
-0.0572929	0.316053	0.1	
-0.00311199	0.32667	0.1	
-0.0358979	0.379949	0.1	
-0.0339688	0.375665	0.2	
0.00604814	0.236488	0.2	
-0.00652201	0.151895	0.2	
-0.0232097	0.208019	0.1	
0.0236281	0.174203	0.1	
0	-0.045	0.1	
0.0401753	-0.0586342	0.1	
0.0318198	-0.0318198	0.1	
0.0512771	-0.0404658	0.154914	
-0.209136	-0.0909343	0.1	
-0.275518	-0.12132	0.2	
-0.217835	-0.151685	0.1	
-0.190622	-0.0884834	0.2	
0.287124	-0.235637	0.1	
0.29265	-0.244884	0.2	
0.339399	-0.183579	0.2	
0.268615	-0.174062	0.1	
-0.0607822	-0.132192	0.1	
-0.0251864	-0.106886	0.1	
-0.0619298	-0.0870419	0.1	
-0.0647576	-0.0686517	0.145827	
0.0714224	0.0228299	0.1	
0.0858783	0.0607949	0.1	
0.0550025	0.059172	0.1	
0.0396544	0.04868	0.156181	
0.138545	-0.218367	0.1	
0.0922363	-0.215793	0.2	
0.174426	-0.185564	0.2	
0.110168	-0.152489	0.1	
-0.0880857	0.11829	0.2	
-0.0278782	0.153479	0.1	
-0.0758641	0.204419	0.2	
-0.00652201	0.151895	0.2	
0.204676	0.0233192	0.1	
0.213357	0.0766959	0.2	
0.255462	0.038247	0.1	
0.216596	0.0778377	0.1	
-0.190622	-0.0884834	0.2	
-0.12308	-0.143942	0.2	
-0.160221	-0.122206	0.1	
-0.142279	-0.0393203	0.151217	
-0.1869	0.140647	0.1	
-0.242461	0.118505	0.1	
-0.169647	0.0846842	0.2	
-0.244028	0.149971	0.2	
-0.10824	0.362258	0.1	
-0.0572929	0.316053	0.1	
-0.0358979	0.379949	0.1	
-0.0339688	0.375665	0.2	
0.110168	-0.152489	0.1	
0.138545	-0.218367	0.1	
0.0922363	-0.215793	0.2	
0.0725059	-0.197526	0.1	
-0.0318198	-0.0318198	0.1	
-0.0436673	0.0180876	0.150301	
-0.045	0	0.1	
-0.088703	-0.0138649	0.150815	
-0.29175	-0.237189	0.1	
-0.265692	-0.195501	0.2	
-0.298599	-0.245054	0.2	
-0.225546	-0.215121	0.1	
-0.0566812	-0.183891	0.1	
-0.110394	-0.216726	0.1	
-0.0496677	-0.250381	0.1	
-0.0529805	-0.19738	0.2	
0.0381609	0.387454	0.2	
-0.00311199	0.32667	0.1	
-0.0339688	0.375665	0.2	
0.0450774	0.367889	0.1	
-0.16441	-0.183508	0.1	
-0.160221	-0.122206	0.1	
-0.217835	-0.151685	0.1	
-0.201609	-0.173762	0.2	
0.213357	0.0766959	0.2	
0.230865	0.135658	0.1	
0.287454	0.0808414	0.1	
0.216596	0.0778377	0.1	
-0.155635	0.172227	0.2	
-0.1869	0.140647	0.1	
-0.13855	0.104902	0.1	
-0.169647	0.0846842	0.2	
-0.279108	-0.122562	0.1	
-0.312956	-0.0762135	0.1	
-0.356724	-0.11546	0.1	
-0.275518	-0.12132	0.2	
0.0741079	0.088115	0.1	
0.0691478	0.134694	0.1	
0.0405437	0.0931998	0.1	
0.0186333	0.101613	0.152058	
-0.248332	0.050693	0.2	
-0.242461	0.118505	0.1	
-0.247343	0.061739	0.1	
-0.296313	0.0995627	0.2	
-0.0758641	0.204419	0.2	
-0.0232097	0.208019	0.1	
-0.0674604	0.249371	0.1	
0.00604814	0.236488	0.2	
0.168154	-0.150165	0.1	
0.138545	-0.218367	0.1	
0.174426	-0.185564	0.2	
0.110168	-0.152489	0.1	
-0.0496677	-0.250381	0.1	
-0.0142517	-0.205249	0.1	
-0.0529805	-0.19738	0.2	
0.0148093	-0.246449	0.2	
0.0750467	0.185499	0.2	
0.0872949	0.269115	0.2	
0.0906227	0.254757	0.1	
0.0312955	0.232251	0.1	
-0.140177	0.0445127	0.1	
-0.13855	0.104902	0.1	
-0.191044	0.0809942	0.1	
-0.169647	0.0846842	0.2	
-0.108753	-0.0943056	0.1	
-0.111446	-0.0565624	0.2	
-0.12308	-0.143942	0.2	
-0.0647576	-0.0686517	0.145827	
0.00677135	0.0163475	0.1	
0.0060848	-2.90377e-05	0.157763	
0	0.045	0.1	
-0.0436673	0.0180876	0.150301	
0.287454	0.0808414	0.1	
0.255462	0.038247	0.1	
0.213357	0.0766959	0.2	
0.216596	0.0778377	0.1	
-0.12308	-0.143942	0.2	
-0.111446	-0.0565624	0.2	
-0.108753	-0.0943056	0.1	
-0.142279	-0.0393203	0.151217	
-0.269145	-0.181189	0.1	
-0.327578	-0.175094	0.2	
-0.279108	-0.122562	0.1	
-0.331484	-0.17939	0.1	
-0.0278782	0.153479	0.1	
0.0236281	0.174203	0.1	
-0.00652201	0.151895	0.2	
0.0186333	0.101613	0.152058	
-0.0572929	0.316053	0.1	
-0.0674604	0.249371	0.1	
-0.0135764	0.270208	0.1	
-0.0730421	0.296762	0.2	
0	0.045	0.1	
0.0060848	-2.90377e-05	0.157763	
0.0396544	0.04868	0.156181	
-0.0436673	0.0180876	0.150301	
-0.155635	0.172227	0.2	
-0.131315	0.16418	0.1	
-0.121547	0.224354	0.1	
-0.0758641	0.204419	0.2	
-0.13855	0.104902	0.1	
-0.0791922	0.124893	0.1	
-0.0880857	0.11829	0.2	
-0.0733988	0.0716859	0.157752	
-0.0997698	0.0308567	0.2	
-0.181323	-0.0027565	0.2	
-0.140177	0.0445127	0.1	
-0.142279	-0.0393203	0.151217	
0.168154	-0.150165	0.1	
0.108307	-0.130924	0.2	
0.190166	-0.0983881	0.2	
0.130886	-0.100339	0.1	
-0.0566812	-0.183891	0.1	
-0.0496677	-0.250381	0.1	
-0.0142517	-0.205249	0.1	
-0.0529805	-0.19738	0.2	
-0.1869	0.140647	0.1	
-0.131315	0.16418	0.1	
-0.175847	0.204716	0.1	
-0.155635	0.172227	0.2	
-0.0607822	-0.132192	0.1	
-0.0619298	-0.0870419	0.1	
-0.108753	-0.0943056	0.1	
-0.0647576	-0.0686517	0.145827	
0.180378	0.336857	0.1	
0.285477	0.347855	0.149953	
0.18581	0.349201	0.2	
0.245754	0.289669	0.1	
0.0714224	0.0228299	0.1	
0.0396544	0.04868	0.156181	
0.045	0	0.1	
0.0969794	0.021072	0.155881	
-0.0496677	-0.250381	0.1	
-0.0142517	-0.205249	0.1	
0.0148093	-0.246449	0.2	
0.0204871	-0.24099	0.1	
-0.138104	0.243902	0.2	
-0.121547	0.224354	0.1	
-0.0674604	0.249371	0.1	
-0.0758641	0.204419	0.2	
0.045	0	0.1	
0.0396544	0.04868	0.156181	
0.0060848	-2.90377e-05	0.157763	
0.0512771	-0.0404658	0.154914	
0.0872949	0.269115	0.2	
0.0447484	0.293988	0.1	
0.0906227	0.254757	0.1	
0.0312955	0.232251	0.1	
0.132963	0.044259	0.2	
0.0632975	0.0980676	0.2	
0.114043	0.0943971	0.1	
0.0969794	0.021072	0.155881	
-0.121547	0.224354	0.1	
-0.075941	0.18593	0.1	
-0.0674604	0.249371	0.1	
-0.0758641	0.204419	0.2	
0.0750467	0.185499	0.2	
0.0691478	0.134694	0.1	
0.0632975	0.0980676	0.2	
0.0186333	0.101613	0.152058	
-0.161049	0.262379	0.1	
-0.121547	0.224354	0.1	
-0.116127	0.293072	0.1	
-0.138104	0.243902	0.2	
0.26859	-0.0619166	0.2	
0.261818	-0.161797	0.2	
0.225509	-0.136032	0.1	
0.287371	-0.120299	0.1	
-0.0318198	-0.0318198	0.1	
-0.00500969	-0.0120945	0.1	
-0.0436673	0.0180876	0.150301	
-0.0200153	-0.0483211	0.151402	
0.110168	-0.152489	0.1	
0.0587245	-0.143156	0.1	
0.0725059	-0.197526	0.1	
0.062652	-0.118801	0.158114	
-0.0730421	0.296762	0.2	
-0.0674604	0.249371	0.1	
-0.0135764	0.270208	0.1	
0.00604814	0.236488	0.2	
-0.0182151	0.0644617	0.2	
0.0396544	0.04868	0.156181	
0	0.045	0.1	
0.0186333	0.101613	0.152058	
-0.237687	0.180874	0.1	
-0.1869	0.140647	0.1	
-0.155635	0.172227	0.2	
-0.244028	0.149971	0.2	
-0.00311199	0.32667	0.1	
-0.0358979	0.379949	0.1	
-0.0339688	0.375665	0.2	
0.0450774	0.367889	0.1	
0.430623	-0.130628	0.149953	
0.446786	-0.053688	0.149994	
0.357114	-0.107098	0.1	
0.384421	-0.0378621	0.2	
0.174426	-0.185564	0.2	
0.225509	-0.136032	0.1	
0.211584	-0.20097	0.1	
0.168154	-0.150165	0.1	
0.0210919	0.316201	0.2	
-0.0135764	0.270208	0.1	
-0.00311199	0.32667	0.1	
0.0447484	0.293988	0.1	
0.363227	0.0380543	0.2	
0.369533	0.112832	0.2	
0.446786	0.053688	0.149994	
0.387235	0.0357483	0.1	
-0.10824	0.362258	0.1	
-0.130628	0.430623	0.150047	
-0.212133	0.396862	0.150011	
-0.108028	0.370407	0.2	
-0.169647	0.0846842	0.2	
-0.191044	0.0809942	0.1	
-0.19804	0.0242816	0.1	
-0.248332	0.050693	0.2	
-0.279108	-0.122562	0.1	
-0.275518	-0.12132	0.2	
-0.327578	-0.175094	0.2	
-0.269145	-0.181189	0.1	
0.190166	-0.0983881	0.2	
0.12107	-0.0431928	0.2	
0.201967	-0.00950962	0.2	
0.194544	-0.0323862	0.1	
0.179715	0.179275	0.1	
0.173936	0.254382	0.1	
0.154944	0.223937	0.2	
0.238182	0.208514	0.1	
0.255462	0.038247	0.1	
0.213357	0.0766959	0.2	
0.281012	0.0229437	0.2	
0.287454	0.0808414	0.1	
0.12107	-0.0431928	0.2	
0.0986719	-0.0360043	0.1	
0.0512771	-0.0404658	0.154914	
0.0969794	0.021072	0.155881	
0.268615	-0.174062	0.1	
0.216652	-0.249073	0.2	
0.261818	-0.161797	0.2	
0.211584	-0.20097	0.1	
0.168154	-0.150165	0.1	
0.190166	-0.0983881	0.2	
0.225509	-0.136032	0.1	
0.183564	-0.0903245	0.1	
0.174426	-0.185564	0.2	
0.190166	-0.0983881	0.2	
0.225509	-0.136032	0.1	
0.168154	-0.150165	0.1	
0.168985	0.119579	0.1	
0.144601	0.131477	0.2	
0.213357	0.0766959	0.2	
0.230865	0.135658	0.1	
0.213357	0.0766959	0.2	
0.144601	0.131477	0.2	
0.168985	0.119579	0.1	
0.160735	0.0621263	0.1	
-0.0232097	0.208019	0.1	
-0.0135764	0.270208	0.1	
0.00604814	0.236488	0.2	
0.0312955	0.232251	0.1	
0.230865	0.135658	0.1	
0.213357	0.0766959	0.2	
0.168985	0.119579	0.1	
0.216596	0.0778377	0.1	
-0.256491	-0.0362829	0.2	
-0.275518	-0.12132	0.2	
-0.258057	-0.0572365	0.1	
-0.190622	-0.0884834	0.2	
0.0210919	0.316201	0.2	
-0.00311199	0.32667	0.1	
-0.0339688	0.375665	0.2	
0.0381609	0.387454	0.2	
-0.379429	-0.0366192	0.2	
-0.372975	0.0289182	0.1	
-0.373197	-0.0467972	0.1	
-0.45	0	0.15	
-0.181323	-0.0027565	0.2	
-0.190622	-0.0884834	0.2	
-0.203899	-0.0323666	0.1	
-0.142279	-0.0393203	0.151217	
0.0447484	0.293988	0.1	
0.0872949	0.269115	0.2	
0.00604814	0.236488	0.2	
0.0312955	0.232251	0.1	
-0.256491	-0.0362829	0.2	
-0.312659	-0.0214623	0.1	
-0.253293	0.00301969	0.1	
-0.258057	-0.0572365	0.1	
-0.160221	-0.122206	0.1	
-0.217835	-0.151685	0.1	
-0.201609	-0.173762	0.2	
-0.190622	-0.0884834	0.2	
0.251733	-0.014256	0.1	
0.26859	-0.0619166	0.2	
0.201967	-0.00950962	0.2	
0.240073	-0.0744514	0.1	
0.12107	-0.0431928	0.2	
0.130886	-0.100339	0.1	
0.108307	-0.130924	0.2	
0.062652	-0.118801	0.158114	
-0.29431	0.0991694	0.1	
-0.300257	0.152847	0.1	
-0.355442	0.107822	0.1	
-0.296313	0.0995627	0.2	
0.173936	0.254382	0.1	
0.154944	0.223937	0.2	
0.155004	0.296903	0.2	
0.0906227	0.254757	0.1	
-0.203899	-0.0323666	0.1	
-0.19804	0.0242816	0.1	
-0.181323	-0.0027565	0.2	
-0.142279	-0.0393203	0.151217	
-0.320541	0.0201981	0.2	
-0.312659	-0.0214623	0.1	
-0.253293	0.00301969	0.1	
-0.256491	-0.0362829	0.2	
0.212129	-0.396865	0.149953	
0.130628	-0.430623	0.149953	
0.111895	-0.372646	0.2	
0.109857	-0.362973	0.1	
-0.12308	-0.143942	0.2	
-0.0529805	-0.19738	0.2	
-0.0607822	-0.132192	0.1	
-0.0415815	-0.110392	0.2	
0.0404591	-0.377182	0.2	
-0.0383965	-0.372403	0.2	
-0.0276628	-0.367444	0.1	
0	-0.45	0.15	
-0.133674	-0.228308	0.2	
-0.111587	-0.287654	0.1	
-0.110394	-0.216726	0.1	
-0.0659287	-0.28985	0.2	
-0.133674	-0.228308	0.2	
-0.110394	-0.216726	0.1	
-0.16441	-0.183508	0.1	
-0.12308	-0.143942	0.2	
-0.292926	0.235471	0.1	
-0.300257	0.152847	0.1	
-0.237687	0.180874	0.1	
-0.287124	0.235637	0.2	
-0.0269211	0.0671862	0.1	
-0.0436673	0.0180876	0.150301	
-0.0182151	0.0644617	0.2	
-0.0733988	0.0716859	0.157752	
0.0922363	-0.215793	0.2	
0.147007	-0.259035	0.2	
0.082636	-0.254415	0.1	
0.138545	-0.218367	0.1	
0	0.045	0.1	
0.0060848	-2.90377e-05	0.157763	
0.00677135	0.0163475	0.1	
0.0396544	0.04868	0.156181	
-0.0269211	0.0671862	0.1	
-0.0583523	0.0875158	0.1	
-0.0611924	0.0535755	0.1	
-0.0733988	0.0716859	0.157752	
0.0204871	-0.24099	0.1	
0.082636	-0.254415	0.1	
0.0148093	-0.246449	0.2	
0.0511003	-0.317442	0.1	
0.0986719	-0.0360043	0.1	
0.0662467	-0.0253248	0.1	
0.0512771	-0.0404658	0.154914	
0.0969794	0.021072	0.155881	
0.446786	-0.053688	0.149994	
0.374822	-0.0324999	0.1	
0.357114	-0.107098	0.1	
0.384421	-0.0378621	0.2	
-0.285477	0.347854	0.150033	
-0.251772	0.306785	0.1	
-0.212133	0.396862	0.150011	
-0.248262	0.29482	0.2	
0.114043	0.0943971	0.1	
0.144601	0.131477	0.2	
0.168985	0.119579	0.1	
0.124146	0.156872	0.1	
-0.16441	-0.183508	0.1	
-0.160221	-0.122206	0.1	
-0.201609	-0.173762	0.2	
-0.12308	-0.143942	0.2	
-0.292926	0.235471	0.1	
-0.217513	0.254621	0.1	
-0.251772	0.306785	0.1	
-0.248262	0.29482	0.2	
0.339399	-0.183579	0.2	
0.430623	-0.130628	0.149953	
0.396865	-0.212129	0.149953	
0.331486	-0.177371	0.1	
0.111895	-0.372646	0.2	
0.130628	-0.430623	0.149953	
0.053688	-0.446786	0.149994	
0.044217	-0.387842	0.1	
-0.0606984	0.0243229	0.1	
-0.0436673	0.0180876	0.150301	
-0.0611924	0.0535755	0.1	
-0.0733988	0.0716859	0.157752	
0.0396544	0.04868	0.156181	
0.0512771	-0.0404658	0.154914	
0.045	0	0.1	
0.0969794	0.021072	0.155881	
0.129359	0.208003	0.1	
0.154944	0.223937	0.2	
0.173936	0.254382	0.1	
0.0906227	0.254757	0.1	
-0.0269211	0.0671862	0.1	
-0.0611924	0.0535755	0.1	
-0.0436673	0.0180876	0.150301	
-0.0733988	0.0716859	0.157752	
0.212129	-0.396865	0.149953	
0.111895	-0.372646	0.2	
0.175084	-0.3275	0.2	
0.109857	-0.362973	0.1	
-0.173995	-0.331361	0.1	
-0.237792	-0.287474	0.1	
-0.212128	-0.396865	0.149972	
-0.182092	-0.340669	0.2	
-0.237687	0.180874	0.1	
-0.217513	0.254621	0.1	
-0.292926	0.235471	0.1	
-0.287124	0.235637	0.2	
0.355442	0.107822	0.1	
0.446786	0.053688	0.149994	
0.369533	0.112832	0.2	
0.387235	0.0357483	0.1	
0.430623	0.130628	0.149953	
0.369533	0.112832	0.2	
0.396865	0.212129	0.149953	
0.349981	0.18562	0.1	
0.287371	-0.120299	0.1	
0.348465	-0.103096	0.2	
0.339399	-0.183579	0.2	
0.331486	-0.177371	0.1	
-0.446786	0.0536856	0.15	
-0.372975	0.0289182	0.1	
-0.362114	0.10176	0.2	
-0.389559	0.0336032	0.2	
-0.29175	-0.237189	0.1	
-0.347855	-0.285477	0.149967	
-0.298599	-0.245054	0.2	
-0.331484	-0.17939	0.1	
0.045	0	0.1	
0.0512771	-0.0404658	0.154914	
0.0662467	-0.0253248	0.1	
0.0969794	0.021072	0.155881	
-0.212128	-0.396865	0.149972	
-0.237792	-0.287474	0.1	
-0.285477	-0.347855	0.149972	
-0.182092	-0.340669	0.2	
-0.138104	0.243902	0.2	
-0.175847	0.204716	0.1	
-0.121547	0.224354	0.1	
-0.155635	0.172227	0.2	
-0.237792	-0.287474	0.1	
-0.347855	-0.285477	0.149967	
-0.298599	-0.245054	0.2	
-0.29175	-0.237189	0.1	
0.0279075	-0.16395	0.2	
0.0725059	-0.197526	0.1	
0.0207402	-0.174187	0.1	
0.062652	-0.118801	0.158114	
0.053688	-0.446786	0.149994	
0.0404591	-0.377182	0.2	
0.111895	-0.372646	0.2	
0.044217	-0.387842	0.1	
0.0922363	-0.215793	0.2	
0.108307	-0.130924	0.2	
0.174426	-0.185564	0.2	
0.110168	-0.152489	0.1	
0.130628	0.430623	0.149953	
0.120589	0.374273	0.1	
0.107822	0.355442	0.2	
0.053688	0.446786	0.149994	
0.138545	-0.218367	0.1	
0.147007	-0.259035	0.2	
0.082636	-0.254415	0.1	
0.134408	-0.294741	0.1	
0.261818	-0.161797	0.2	
0.339399	-0.183579	0.2	
0.29265	-0.244884	0.2	
0.268615	-0.174062	0.1	
-0.0730421	0.296762	0.2	
-0.116127	0.293072	0.1	
-0.0674604	0.249371	0.1	
-0.138104	0.243902	0.2	
-0.247343	0.061739	0.1	
-0.304909	0.0444641	0.1	
-0.253293	0.00301969	0.1	
-0.248332	0.050693	0.2	
-0.108753	-0.0943056	0.1	
-0.111446	-0.0565624	0.2	
-0.0647576	-0.0686517	0.145827	
-0.142279	-0.0393203	0.151217	
-0.253293	0.00301969	0.1	
-0.304909	0.0444641	0.1	
-0.312659	-0.0214623	0.1	
-0.320541	0.0201981	0.2	
-0.347855	0.285477	0.150034	
-0.292926	0.235471	0.1	
-0.251772	0.306785	0.1	
-0.248262	0.29482	0.2	
0.045	0	0.1	
0.0318198	0.0318198	0.1	
0.0060848	-2.90377e-05	0.157763	
0.0396544	0.04868	0.156181	
-0.182284	0.324323	0.1	
-0.212133	0.396862	0.150011	
-0.251772	0.306785	0.1	
-0.248262	0.29482	0.2	
0.168154	-0.150165	0.1	
0.174426	-0.185564	0.2	
0.108307	-0.130924	0.2	
0.110168	-0.152489	0.1	
0.117493	0.309521	0.1	
0.173936	0.254382	0.1	
0.155004	0.296903	0.2	
0.0906227	0.254757	0.1	
-0.0659287	-0.28985	0.2	
-0.0137107	-0.295895	0.1	
-0.0496677	-0.250381	0.1	
0.0148093	-0.246449	0.2	
0.044217	-0.387842	0.1	
0.00378559	-0.316996	0.2	
0.0404591	-0.377182	0.2	
0.0511003	-0.317442	0.1	
-0.161049	0.262379	0.1	
-0.175847	0.204716	0.1	
-0.138104	0.243902	0.2	
-0.207714	0.236511	0.2	
-0.173131	0.322508	0.2	
-0.161049	0.262379	0.1	
-0.116127	0.293072	0.1	
-0.138104	0.243902	0.2	
0.26859	-0.0619166	0.2	
0.324791	-0.0252069	0.2	
0.303447	-0.0554764	0.1	
0.251733	-0.014256	0.1	
-0.173995	-0.331361	0.1	
-0.130611	-0.430628	0.15	
-0.112928	-0.360216	0.2	
-0.182092	-0.340669	0.2	
0.304312	0.234791	0.1	
0.238182	0.208514	0.1	
0.297412	0.240191	0.2	
0.245754	0.289669	0.1	
-0.108028	0.370407	0.2	
-0.10824	0.362258	0.1	
-0.116127	0.293072	0.1	
-0.173131	0.322508	0.2	
0.0587245	-0.143156	0.1	
0.0142935	-0.12453	0.1	
0.0207402	-0.174187	0.1	
0.062652	-0.118801	0.158114	
-0.0201457	0.00856081	0.1	
0.0060848	-2.90377e-05	0.157763	
0.00677135	0.0163475	0.1	
-0.0436673	0.0180876	0.150301	
-0.203899	-0.0323666	0.1	
-0.190622	-0.0884834	0.2	
-0.209136	-0.0909343	0.1	
-0.142279	-0.0393203	0.151217	
0.0207402	-0.174187	0.1	
0.062652	-0.118801	0.158114	
0.0142935	-0.12453	0.1	
0.00260765	-0.105267	0.157285	
-0.285477	-0.347855	0.149972	
-0.347855	-0.285477	0.149967	
-0.298599	-0.245054	0.2	
-0.237792	-0.287474	0.1	
0.0922363	-0.215793	0.2	
0.108307	-0.130924	0.2	
0.110168	-0.152489	0.1	
0.062652	-0.118801	0.158114	
-0.0276628	-0.367444	0.1	
0.00378559	-0.316996	0.2	
0.0404591	-0.377182	0.2	
0.044217	-0.387842	0.1	
-0.396865	-0.212129	0.149995	
-0.298599	-0.245054	0.2	
-0.347855	-0.285477	0.149967	
-0.331484	-0.17939	0.1	
0.0447484	0.293988	0.1	
0.107822	0.355442	0.2	
0.0872949	0.269115	0.2	
0.117493	0.309521	0.1	
0.168985	0.119579	0.1	
0.144601	0.131477	0.2	
0.179715	0.179275	0.1	
0.124146	0.156872	0.1	
0.212129	0.396865	0.149953	
0.285477	0.347855	0.149953	
0.18581	0.349201	0.2	
0.180378	0.336857	0.1	
0.339399	-0.183579	0.2	
0.396865	-0.212129	0.149953	
0.347855	-0.285477	0.149953	
0.331486	-0.177371	0.1	
-0.217513	0.254621	0.1	
-0.161049	0.262379	0.1	
-0.173131	0.322508	0.2	
-0.207714	0.236511	0.2	
-0.0758641	0.204419	0.2	
-0.155635	0.172227	0.2	
-0.131315	0.16418	0.1	
-0.0880857	0.11829	0.2	
0.053688	0.446786	0.149994	
0.0381609	0.387454	0.2	
0	0.45	0.15	
0.0450774	0.367889	0.1	
0.130628	-0.430623	0.149953	
0.111895	-0.372646	0.2	
0.109857	-0.362973	0.1	
0.044217	-0.387842	0.1	
0.0872949	0.269115	0.2	
0.155004	0.296903	0.2	
0.154944	0.223937	0.2	
0.0906227	0.254757	0.1	
-0.175847	0.204716	0.1	
-0.161049	0.262379	0.1	
-0.217513	0.254621	0.1	
-0.207714	0.236511	0.2	
0.0868431	-0.0680824	0.1	
0.0401753	-0.0586342	0.1	
0.0488551	-0.0983509	0.1	
0.0512771	-0.0404658	0.154914	
0.324791	-0.0252069	0.2	
0.314556	0.0156287	0.1	
0.303447	-0.0554764	0.1	
0.251733	-0.014256	0.1	
0.144601	0.131477	0.2	
0.154944	0.223937	0.2	
0.179715	0.179275	0.1	
0.124146	0.156872	0.1	
-0.112928	-0.360216	0.2	
-0.0536856	-0.446786	0.15	
-0.104718	-0.361527	0.1	
-0.0383965	-0.372403	0.2	
-0.251772	0.306785	0.1	
-0.217513	0.254621	0.1	
-0.182284	0.324323	0.1	
-0.248262	0.29482	0.2	
0.0401753	-0.0586342	0.1	
0.0488551	-0.0983509	0.1	
0.0512771	-0.0404658	0.154914	
0.00260765	-0.105267	0.157285	
0.0632975	0.0980676	0.2	
0.0750467	0.185499	0.2	
0.144601	0.131477	0.2	
0.0691478	0.134694	0.1	
0.175084	-0.3275	0.2	
0.212129	-0.396865	0.149953	
0.109857	-0.362973	0.1	
0.187286	-0.334755	0.1	
-0.108753	-0.0943056	0.1	
-0.080591	-0.0588792	0.1	
-0.112529	-0.0425202	0.1	
-0.0647576	-0.0686517	0.145827	
-0.217513	0.254621	0.1	
-0.237687	0.180874	0.1	
-0.175847	0.204716	0.1	
-0.207714	0.236511	0.2	
-0.116127	0.293072	0.1	
-0.0572929	0.316053	0.1	
-0.10824	0.362258	0.1	
-0.0730421	0.296762	0.2	
-0.256491	-0.0362829	0.2	
-0.318623	-0.0616012	0.2	
-0.312659	-0.0214623	0.1	
-0.258057	-0.0572365	0.1	
-0.300257	0.152847	0.1	
-0.237687	0.180874	0.1	
-0.287124	0.235637	0.2	
-0.244028	0.149971	0.2	
-0.217513	0.254621	0.1	
-0.161049	0.262379	0.1	
-0.182284	0.324323	0.1	
-0.173131	0.322508	0.2	
-0.0269211	0.0671862	0.1	
-0.0733988	0.0716859	0.157752	
-0.0182151	0.0644617	0.2	
0.0186333	0.101613	0.152058	
0.109857	-0.362973	0.1	
0.111895	-0.372646	0.2	
0.175084	-0.3275	0.2	
0.134408	-0.294741	0.1	
-0.181323	-0.0027565	0.2	
-0.256491	-0.0362829	0.2	
-0.203899	-0.0323666	0.1	
-0.190622	-0.0884834	0.2	
-0.275518	-0.12132	0.2	
-0.356724	-0.11546	0.1	
-0.279108	-0.122562	0.1	
-0.327578	-0.175094	0.2	
0.396865	0.212129	0.149953	
0.369533	0.112832	0.2	
0.329177	0.174808	0.2	
0.349981	0.18562	0.1	
0.082636	-0.254415	0.1	
0.0148093	-0.246449	0.2	
0.0922363	-0.215793	0.2	
0.0204871	-0.24099	0.1	
-0.327578	-0.175094	0.2	
-0.298599	-0.245054	0.2	
-0.396865	-0.212129	0.149995	
-0.331484	-0.17939	0.1	
-0.312956	-0.0762135	0.1	
-0.373197	-0.0467972	0.1	
-0.356724	-0.11546	0.1	
-0.318623	-0.0616012	0.2	
-0.327578	-0.175094	0.2	
-0.356724	-0.11546	0.1	
-0.279108	-0.122562	0.1	
-0.331484	-0.17939	0.1	
-0.237687	0.180874	0.1	
-0.217513	0.254621	0.1	
-0.287124	0.235637	0.2	
-0.207714	0.236511	0.2	
0.0872949	0.269115	0.2	
0.0210919	0.316201	0.2	
0.107822	0.355442	0.2	
0.0447484	0.293988	0.1	
0.294509	0.157311	0.1	
0.297412	0.240191	0.2	
0.329177	0.174808	0.2	
0.304312	0.234791	0.1	
0.201967	-0.00950962	0.2	
0.132963	0.044259	0.2	
0.213357	0.0766959	0.2	
0.204676	0.0233192	0.1	
-0.318623	-0.0616012	0.2	
-0.256491	-0.0362829	0.2	
-0.275518	-0.12132	0.2	
-0.258057	-0.0572365	0.1	
-0.130611	-0.430628	0.15	
-0.173995	-0.331361	0.1	
-0.212128	-0.396865	0.149972	
-0.182092	-0.340669	0.2	
0.109857	-0.362973	0.1	
0.0839363	-0.30145	0.2	
0.111895	-0.372646	0.2	
0.134408	-0.294741	0.1	
-0.0997698	0.0308567	0.2	
-0.140177	0.0445127	0.1	
-0.169647	0.0846842	0.2	
-0.0733988	0.0716859	0.157752	
0.0279075	-0.16395	0.2	
0.0922363	-0.215793	0.2	
0.0725059	-0.197526	0.1	
0.062652	-0.118801	0.158114	
0.294509	0.157311	0.1	
0.296534	0.101262	0.2	
0.230865	0.135658	0.1	
0.287454	0.0808414	0.1	
0.155004	0.296903	0.2	
0.107822	0.355442	0.2	
0.18581	0.349201	0.2	
0.180378	0.336857	0.1	
0.294509	0.157311	0.1	
0.237285	0.176133	0.2	
0.297412	0.240191	0.2	
0.238182	0.208514	0.1	
0.053688	-0.446786	0.149994	
0	-0.45	0.15	
0.0404591	-0.377182	0.2	
0.044217	-0.387842	0.1	
0.216652	-0.249073	0.2	
0.147007	-0.259035	0.2	
0.174426	-0.185564	0.2	
0.138545	-0.218367	0.1	
-0.0712343	-0.0265969	0.1	
-0.0200153	-0.0483211	0.151402	
-0.0318198	-0.0318198	0.1	
-0.088703	-0.0138649	0.150815	
0.053688	0.446786	0.149994	
0.120589	0.374273	0.1	
0.107822	0.355442	0.2	
0.0450774	0.367889	0.1	
-0.0137107	-0.295895	0.1	
0.0148093	-0.246449	0.2	
0.00378559	-0.316996	0.2	
0.0511003	-0.317442	0.1	
-0.269145	-0.181189	0.1	
-0.265692	-0.195501	0.2	
-0.29175	-0.237189	0.1	
-0.225546	-0.215121	0.1	
0.12107	-0.0431928	0.2	
0.190166	-0.0983881	0.2	
0.108307	-0.130924	0.2	
0.130886	-0.100339	0.1	
-0.108028	0.370407	0.2	
-0.212133	0.396862	0.150011	
-0.10824	0.362258	0.1	
-0.173131	0.322508	0.2	
-0.320541	0.0201981	0.2	
-0.372975	0.0289182	0.1	
-0.312659	-0.0214623	0.1	
-0.379429	-0.0366192	0.2	
-0.446786	-0.053688	0.150006	
-0.379429	-0.0366192	0.2	
-0.373197	-0.0467972	0.1	
-0.45	0	0.15	
0.0148093	-0.246449	0.2	
-0.0137107	-0.295895	0.1	
-0.0496677	-0.250381	0.1	
0.0204871	-0.24099	0.1	
0.240073	-0.0744514	0.1	
0.303447	-0.0554764	0.1	
0.26859	-0.0619166	0.2	
0.287371	-0.120299	0.1	
0.339399	-0.183579	0.2	
0.347855	-0.285477	0.149953	
0.287124	-0.235637	0.1	
0.331486	-0.177371	0.1	
0.268615	-0.174062	0.1	
0.261818	-0.161797	0.2	
0.225509	-0.136032	0.1	
0.211584	-0.20097	0.1	
-0.00500969	-0.0120945	0.1	
0.0060848	-2.90377e-05	0.157763	
-0.0201457	0.00856081	0.1	
-0.0436673	0.0180876	0.150301	
-0.223685	-0.271786	0.2	
-0.170075	-0.251953	0.1	
-0.225546	-0.215121	0.1	
-0.201609	-0.173762	0.2	
0.446786	0.053688	0.149994	
0.45	0	0.15	
0.363227	0.0380543	0.2	
0.387235	0.0357483	0.1	
-0.16441	-0.183508	0.1	
-0.170075	-0.251953	0.1	
-0.133674	-0.228308	0.2	
-0.201609	-0.173762	0.2	
0.0148093	-0.246449	0.2	
-0.0137107	-0.295895	0.1	
0.0204871	-0.24099	0.1	
0.0511003	-0.317442	0.1	
-0.347855	0.285477	0.150034	
-0.351668	0.187175	0.1	
-0.292926	0.235471	0.1	
-0.287124	0.235637	0.2	
-0.0254114	0.106009	0.1	
0.0139627	0.124614	0.1	
-0.0278782	0.153479	0.1	
0.0186333	0.101613	0.152058	
0.0279075	-0.16395	0.2	
-0.0529805	-0.19738	0.2	
-0.0142517	-0.205249	0.1	
0.0148093	-0.246449	0.2	
-0.1869	0.140647	0.1	
-0.237687	0.180874	0.1	
-0.242461	0.118505	0.1	
-0.244028	0.149971	0.2	
-0.372975	0.0289182	0.1	
-0.373197	-0.0467972	0.1	
-0.312659	-0.0214623	0.1	
-0.379429	-0.0366192	0.2	
-0.225546	-0.215121	0.1	
-0.298599	-0.245054	0.2	
-0.29175	-0.237189	0.1	
-0.223685	-0.271786	0.2	
-0.0137107	-0.295895	0.1	
-0.0615368	-0.322264	0.1	
-0.0276628	-0.367444	0.1	
0.00378559	-0.316996	0.2	
-0.130611	-0.430628	0.15	
-0.0536856	-0.446786	0.15	
-0.104718	-0.361527	0.1	
-0.112928	-0.360216	0.2	
-0.0659287	-0.28985	0.2	
-0.0615368	-0.322264	0.1	
-0.0137107	-0.295895	0.1	
0.00378559	-0.316996	0.2	
0.053688	0.446786	0.149994	
0.107822	0.355442	0.2	
0.0381609	0.387454	0.2	
0.0450774	0.367889	0.1	
0.0381609	0.387454	0.2	
0.0210919	0.316201	0.2	
-0.00311199	0.32667	0.1	
0.0450774	0.367889	0.1	
0.296534	0.101262	0.2	
0.363227	0.0380543	0.2	
0.281012	0.0229437	0.2	
0.287454	0.0808414	0.1	
-0.0880857	0.11829	0.2	
-0.169647	0.0846842	0.2	
-0.13855	0.104902	0.1	
-0.0733988	0.0716859	0.157752	
0.0872949	0.269115	0.2	
0.0750467	0.185499	0.2	
0.00604814	0.236488	0.2	
0.0312955	0.232251	0.1	
0.18581	0.349201	0.2	
0.120589	0.374273	0.1	
0.212129	0.396865	0.149953	
0.180378	0.336857	0.1	
-0.0276628	-0.367444	0.1	
0.00378559	-0.316996	0.2	
0.044217	-0.387842	0.1	
0.0511003	-0.317442	0.1	
0.213357	0.0766959	0.2	
0.281012	0.0229437	0.2	
0.201967	-0.00950962	0.2	
0.255462	0.038247	0.1	
0.082636	-0.254415	0.1	
0.0922363	-0.215793	0.2	
0.138545	-0.218367	0.1	
0.0725059	-0.197526	0.1	
-0.355442	0.107822	0.1	
-0.351668	0.187175	0.1	
-0.430628	0.130611	0.15	
-0.32913	0.168426	0.2	
0.0447484	0.293988	0.1	
0.0210919	0.316201	0.2	
0.107822	0.355442	0.2	
0.0450774	0.367889	0.1	
-0.396866	0.212126	0.150019	
-0.351668	0.187175	0.1	
-0.347855	0.285477	0.150034	
-0.287124	0.235637	0.2	
-0.00500969	-0.0120945	0.1	
0.00677135	0.0163475	0.1	
-0.0201457	0.00856081	0.1	
0.0060848	-2.90377e-05	0.157763	
-0.304909	0.0444641	0.1	
-0.355442	0.107822	0.1	
-0.372975	0.0289182	0.1	
-0.362114	0.10176	0.2	
-0.320541	0.0201981	0.2	
-0.304909	0.0444641	0.1	
-0.372975	0.0289182	0.1	
-0.362114	0.10176	0.2	
0.00604814	0.236488	0.2	
0.0750467	0.185499	0.2	
-0.00652201	0.151895	0.2	
0.0236281	0.174203	0.1	
0.082636	-0.254415	0.1	
0.0839363	-0.30145	0.2	
0.0148093	-0.246449	0.2	
0.0511003	-0.317442	0.1	
0.117493	0.309521	0.1	
0.0447484	0.293988	0.1	
0.107822	0.355442	0.2	
0.0450774	0.367889	0.1	
-0.0606984	0.0243229	0.1	
-0.0944203	0.0353385	0.1	
-0.0436673	0.0180876	0.150301	
-0.0733988	0.0716859	0.157752	
0.216652	-0.249073	0.2	
0.147007	-0.259035	0.2	
0.138545	-0.218367	0.1	
0.199452	-0.267103	0.1	
0.173936	0.254382	0.1	
0.228237	0.281807	0.2	
0.154944	0.223937	0.2	
0.238182	0.208514	0.1	
0.120589	0.374273	0.1	
0.18581	0.349201	0.2	
0.107822	0.355442	0.2	
0.180378	0.336857	0.1	
-0.362114	0.10176	0.2	
-0.372975	0.0289182	0.1	
-0.320541	0.0201981	0.2	
-0.389559	0.0336032	0.2	
-0.0339688	0.375665	0.2	
-0.108028	0.370407	0.2	
-0.0572929	0.316053	0.1	
-0.0730421	0.296762	0.2	
-0.0880857	0.11829	0.2	
-0.155635	0.172227	0.2	
-0.13855	0.104902	0.1	
-0.169647	0.0846842	0.2	
0.187286	-0.334755	0.1	
0.25204	-0.306462	0.2	
0.257787	-0.293807	0.1	
0.199452	-0.267103	0.1	
0.287371	-0.120299	0.1	
0.261818	-0.161797	0.2	
0.225509	-0.136032	0.1	
0.268615	-0.174062	0.1	
-0.296313	0.0995627	0.2	
-0.355442	0.107822	0.1	
-0.304909	0.0444641	0.1	
-0.362114	0.10176	0.2	
-0.225546	-0.215121	0.1	
-0.265692	-0.195501	0.2	
-0.298599	-0.245054	0.2	
-0.223685	-0.271786	0.2	
-0.140177	0.0445127	0.1	
-0.0997698	0.0308567	0.2	
-0.169647	0.0846842	0.2	
-0.181323	-0.0027565	0.2	
0	-0.045	0.1	
-0.0200153	-0.0483211	0.151402	
0.0401753	-0.0586342	0.1	
0.0512771	-0.0404658	0.154914	
0.0741079	0.088115	0.1	
0.0396544	0.04868	0.156181	
0.0632975	0.0980676	0.2	
0.0186333	0.101613	0.152058	
-0.108028	0.370407	0.2	
-0.116127	0.293072	0.1	
-0.10824	0.362258	0.1	
-0.0730421	0.296762	0.2	
-0.0944203	0.0353385	0.1	
-0.0606984	0.0243229	0.1	
-0.0436673	0.0180876	0.150301	
-0.088703	-0.0138649	0.150815	
0.174426	-0.185564	0.2	
0.216652	-0.249073	0.2	
0.138545	-0.218367	0.1	
0.211584	-0.20097	0.1	
-0.248332	0.050693	0.2	
-0.247343	0.061739	0.1	
-0.304909	0.0444641	0.1	
-0.296313	0.0995627	0.2	
0.212129	0.396865	0.149953	
0.120589	0.374273	0.1	
0.18581	0.349201	0.2	
0.130628	0.430623	0.149953	
-0.304909	0.0444641	0.1	
-0.320541	0.0201981	0.2	
-0.296313	0.0995627	0.2	
-0.362114	0.10176	0.2	
-0.104718	-0.361527	0.1	
-0.0615368	-0.322264	0.1	
-0.112928	-0.360216	0.2	
-0.0383965	-0.372403	0.2	
0.0318198	0.0318198	0.1	
0.0250698	0.0602098	0.1	
0	0.045	0.1	
0.0396544	0.04868	0.156181	
0.147007	-0.259035	0.2	
0.0839363	-0.30145	0.2	
0.082636	-0.254415	0.1	
0.134408	-0.294741	0.1	
-0.265692	-0.195501	0.2	
-0.327578	-0.175094	0.2	
-0.275518	-0.12132	0.2	
-0.269145	-0.181189	0.1	
-0.256491	-0.0362829	0.2	
-0.253293	0.00301969	0.1	
-0.248332	0.050693	0.2	
-0.181323	-0.0027565	0.2	
0.257787	-0.293807	0.1	
0.285477	-0.347855	0.149953	
0.25204	-0.306462	0.2	
0.187286	-0.334755	0.1	
0.0250698	0.0602098	0.1	
0.0550025	0.059172	0.1	
0.0405437	0.0931998	0.1	
0.0396544	0.04868	0.156181	
-0.248262	0.29482	0.2	
-0.292926	0.235471	0.1	
-0.217513	0.254621	0.1	
-0.287124	0.235637	0.2	
-0.10824	0.362258	0.1	
-0.053688	0.446786	0.150006	
-0.130628	0.430623	0.150047	
-0.108028	0.370407	0.2	
-0.130611	-0.430628	0.15	
-0.104718	-0.361527	0.1	
-0.173995	-0.331361	0.1	
-0.112928	-0.360216	0.2	
-0.285477	0.347854	0.150033	
-0.347855	0.285477	0.150034	
-0.251772	0.306785	0.1	
-0.248262	0.29482	0.2	
0.285477	0.347855	0.149953	
0.347855	0.285477	0.149953	
0.297412	0.240191	0.2	
0.245754	0.289669	0.1	
0.109857	-0.362973	0.1	
0.111895	-0.372646	0.2	
0.0839363	-0.30145	0.2	
0.0511003	-0.317442	0.1	
0.00604814	0.236488	0.2	
-0.0135764	0.270208	0.1	
0.0210919	0.316201	0.2	
0.0447484	0.293988	0.1	
0.180378	0.336857	0.1	
0.18581	0.349201	0.2	
0.228237	0.281807	0.2	
0.245754	0.289669	0.1	
-0.108028	0.370407	0.2	
-0.10824	0.362258	0.1	
-0.0572929	0.316053	0.1	
-0.0730421	0.296762	0.2	
0.173936	0.254382	0.1	
0.155004	0.296903	0.2	
0.228237	0.281807	0.2	
0.180378	0.336857	0.1	
-0.446786	0.0536856	0.15	
-0.372975	0.0289182	0.1	
-0.355442	0.107822	0.1	
-0.362114	0.10176	0.2	
0.0741079	0.088115	0.1	
0.0405437	0.0931998	0.1	
0.0396544	0.04868	0.156181	
0.0186333	0.101613	0.152058	
-0.0318198	0.0318198	0.1	
-0.0611924	0.0535755	0.1	
-0.0606984	0.0243229	0.1	
-0.0436673	0.0180876	0.150301	
-0.00311199	0.32667	0.1	
-0.0339688	0.375665	0.2	
-0.0730421	0.296762	0.2	
0.0210919	0.316201	0.2	
-0.0712343	-0.0265969	0.1	
-0.045	0	0.1	
-0.0737761	0.00176994	0.1	
-0.088703	-0.0138649	0.150815	
0.446786	-0.053688	0.149994	
0.45	0	0.15	
0.374822	-0.0324999	0.1	
0.384421	-0.0378621	0.2	
0.430623	0.130628	0.149953	
0.446786	0.053688	0.149994	
0.369533	0.112832	0.2	
0.355442	0.107822	0.1	
0.261818	-0.161797	0.2	
0.174426	-0.185564	0.2	
0.225509	-0.136032	0.1	
0.211584	-0.20097	0.1	
0.25204	-0.306462	0.2	
0.285477	-0.347855	0.149953	
0.212129	-0.396865	0.149953	
0.187286	-0.334755	0.1	
0.0318198	0.0318198	0.1	
0.00677135	0.0163475	0.1	
0.0060848	-2.90377e-05	0.157763	
0.0396544	0.04868	0.156181	
0.155004	0.296903	0.2	
0.0872949	0.269115	0.2	
0.117493	0.309521	0.1	
0.0906227	0.254757	0.1	
0.154944	0.223937	0.2	
0.144601	0.131477	0.2	
0.0750467	0.185499	0.2	
0.124146	0.156872	0.1	
0.29265	-0.244884	0.2	
0.347855	-0.285477	0.149953	
0.287124	-0.235637	0.1	
0.339399	-0.183579	0.2	
-0.312659	-0.0214623	0.1	
-0.320541	0.0201981	0.2	
-0.379429	-0.0366192	0.2	
-0.318623	-0.0616012	0.2	
-0.201609	-0.173762	0.2	
-0.217835	-0.151685	0.1	
-0.275518	-0.12132	0.2	
-0.190622	-0.0884834	0.2	
-0.0997698	0.0308567	0.2	
-0.0944203	0.0353385	0.1	
-0.0733988	0.0716859	0.157752	
-0.088703	-0.0138649	0.150815	
0.324791	-0.0252069	0.2	
0.26859	-0.0619166	0.2	
0.281012	0.0229437	0.2	
0.251733	-0.014256	0.1	
0.147007	-0.259035	0.2	
0.0839363	-0.30145	0.2	
0.0922363	-0.215793	0.2	
0.082636	-0.254415	0.1	
0.216652	-0.249073	0.2	
0.138545	-0.218367	0.1	
0.211584	-0.20097	0.1	
0.199452	-0.267103	0.1	
0.314556	0.0156287	0.1	
0.281012	0.0229437	0.2	
0.363227	0.0380543	0.2	
0.287454	0.0808414	0.1	
-0.396865	-0.212129	0.149995	
-0.356724	-0.11546	0.1	
-0.327578	-0.175094	0.2	
-0.331484	-0.17939	0.1	
0.296534	0.101262	0.2	
0.213357	0.0766959	0.2	
0.230865	0.135658	0.1	
0.287454	0.0808414	0.1	
-0.225546	-0.215121	0.1	
-0.16441	-0.183508	0.1	
-0.217835	-0.151685	0.1	
-0.201609	-0.173762	0.2	
-0.430628	0.130611	0.15	
-0.351668	0.187175	0.1	
-0.396866	0.212126	0.150019	
-0.32913	0.168426	0.2	
0.251733	-0.014256	0.1	
0.303447	-0.0554764	0.1	
0.26859	-0.0619166	0.2	
0.240073	-0.0744514	0.1	
-0.0496677	-0.250381	0.1	
-0.0615368	-0.322264	0.1	
-0.0137107	-0.295895	0.1	
-0.0659287	-0.28985	0.2	
-0.0251864	-0.106886	0.1	
0.00260765	-0.105267	0.157285	
-0.0276546	-0.0671169	0.1	
-0.0647576	-0.0686517	0.145827	
-0.0251864	-0.106886	0.1	
0.00728726	-0.0832273	0.1	
-0.0276546	-0.0671169	0.1	
0.00260765	-0.105267	0.157285	
0.179715	0.179275	0.1	
0.154944	0.223937	0.2	
0.237285	0.176133	0.2	
0.238182	0.208514	0.1	
0.369533	0.112832	0.2	
0.430623	0.130628	0.149953	
0.355442	0.107822	0.1	
0.349981	0.18562	0.1	
-0.304909	0.0444641	0.1	
-0.253293	0.00301969	0.1	
-0.248332	0.050693	0.2	
-0.320541	0.0201981	0.2	
0.314556	0.0156287	0.1	
0.324791	-0.0252069	0.2	
0.281012	0.0229437	0.2	
0.251733	-0.014256	0.1	
0.190166	-0.0983881	0.2	
0.201967	-0.00950962	0.2	
0.26859	-0.0619166	0.2	
0.240073	-0.0744514	0.1	
-0.104718	-0.361527	0.1	
-0.111587	-0.287654	0.1	
-0.173995	-0.331361	0.1	
-0.13795	-0.29702	0.2	
0.357114	-0.107098	0.1	
0.348465	-0.103096	0.2	
0.287371	-0.120299	0.1	
0.331486	-0.177371	0.1	
-0.111587	-0.287654	0.1	
-0.0615368	-0.322264	0.1	
-0.0496677	-0.250381	0.1	
-0.0659287	-0.28985	0.2	
-0.116127	0.293072	0.1	
-0.0674604	0.249371	0.1	
-0.0572929	0.316053	0.1	
-0.0730421	0.296762	0.2	
-0.296313	0.0995627	0.2	
-0.242461	0.118505	0.1	
-0.300257	0.152847	0.1	
-0.244028	0.149971	0.2	
-0.372975	0.0289182	0.1	
-0.320541	0.0201981	0.2	
-0.389559	0.0336032	0.2	
-0.379429	-0.0366192	0.2	
0.111895	-0.372646	0.2	
0.0404591	-0.377182	0.2	
0.0839363	-0.30145	0.2	
0.0511003	-0.317442	0.1	
-0.0659287	-0.28985	0.2	
-0.0383965	-0.372403	0.2	
-0.0615368	-0.322264	0.1	
0.00378559	-0.316996	0.2	
-0.0383965	-0.372403	0.2	
-0.0615368	-0.322264	0.1	
-0.112928	-0.360216	0.2	
-0.0659287	-0.28985	0.2	
0.0839363	-0.30145	0.2	
0.175084	-0.3275	0.2	
0.111895	-0.372646	0.2	
0.134408	-0.294741	0.1	
0.285477	0.347855	0.149953	
0.228237	0.281807	0.2	
0.18581	0.349201	0.2	
0.245754	0.289669	0.1	
-0.373197	-0.0467972	0.1	
-0.312956	-0.0762135	0.1	
-0.312659	-0.0214623	0.1	
-0.318623	-0.0616012	0.2	
0.261818	-0.161797	0.2	
0.225509	-0.136032	0.1	
0.190166	-0.0983881	0.2	
0.26859	-0.0619166	0.2	
-0.389559	0.0336032	0.2	
-0.446786	0.0536856	0.15	
-0.372975	0.0289182	0.1	
-0.45	0	0.15	
-0.110394	-0.216726	0.1	
-0.133674	-0.228308	0.2	
-0.0529805	-0.19738	0.2	
-0.12308	-0.143942	0.2	
-0.287124	0.235637	0.2	
-0.396866	0.212126	0.150019	
-0.351668	0.187175	0.1	
-0.32913	0.168426	0.2	
0.349981	0.18562	0.1	
0.329177	0.174808	0.2	
0.396865	0.212129	0.149953	
0.304312	0.234791	0.1	
0.363227	0.0380543	0.2	
0.384421	-0.0378621	0.2	
0.374822	-0.0324999	0.1	
0.387235	0.0357483	0.1	
0.304312	0.234791	0.1	
0.297412	0.240191	0.2	
0.347855	0.285477	0.149953	
0.245754	0.289669	0.1	
-0.0358979	0.379949	0.1	
0	0.45	0.15	
-0.053688	0.446786	0.150006	
-0.0339688	0.375665	0.2	
-0.217835	-0.151685	0.1	
-0.265692	-0.195501	0.2	
-0.225546	-0.215121	0.1	
-0.201609	-0.173762	0.2	
-0.248262	0.29482	0.2	
-0.217513	0.254621	0.1	
-0.182284	0.324323	0.1	
-0.173131	0.322508	0.2	
-0.248262	0.29482	0.2	
-0.347855	0.285477	0.150034	
-0.292926	0.235471	0.1	
-0.287124	0.235637	0.2	
-0.248332	0.050693	0.2	
-0.169647	0.0846842	0.2	
-0.242461	0.118505	0.1	
-0.244028	0.149971	0.2	
-0.0383965	-0.372403	0.2	
-0.0536856	-0.446786	0.15	
-0.0276628	-0.367444	0.1	
0	-0.45	0.15	
-0.170075	-0.251953	0.1	
-0.111587	-0.287654	0.1	
-0.110394	-0.216726	0.1	
-0.133674	-0.228308	0.2	
0.0839363	-0.30145	0.2	
0.0148093	-0.246449	0.2	
0.0922363	-0.215793	0.2	
0.082636	-0.254415	0.1	
-0.170075	-0.251953	0.1	
-0.110394	-0.216726	0.1	
-0.16441	-0.183508	0.1	
-0.133674	-0.228308	0.2	
-0.365881	-0.111705	0.2	
-0.379429	-0.0366192	0.2	
-0.373197	-0.0467972	0.1	
-0.446786	-0.053688	0.150006	
0.339399	-0.183579	0.2	
0.261818	-0.161797	0.2	
0.348465	-0.103096	0.2	
0.287371	-0.120299	0.1	
-0.0619298	-0.0870419	0.1	
-0.0251864	-0.106886	0.1	
-0.0276546	-0.0671169	0.1	
-0.0647576	-0.0686517	0.145827	
-0.155635	0.172227	0.2	
-0.207714	0.236511	0.2	
-0.237687	0.180874	0.1	
-0.244028	0.149971	0.2	
0.132963	0.044259	0.2	
0.0632975	0.0980676	0.2	
0.144601	0.131477	0.2	
0.114043	0.0943971	0.1	
0.0148093	-0.246449	0.2	
-0.0659287	-0.28985	0.2	
-0.0137107	-0.295895	0.1	
0.00378559	-0.316996	0.2	
0.120589	0.374273	0.1	
0.107822	0.355442	0.2	
0.18581	0.349201	0.2	
0.130628	0.430623	0.149953	
0.303447	-0.0554764	0.1	
0.348465	-0.103096	0.2	
0.26859	-0.0619166	0.2	
0.287371	-0.120299	0.1	
-0.237792	-0.287474	0.1	
-0.250007	-0.374161	0.1	
-0.173995	-0.331361	0.1	
-0.212128	-0.396865	0.149972	
0.175084	-0.3275	0.2	
0.25204	-0.306462	0.2	
0.187286	-0.334755	0.1	
0.199452	-0.267103	0.1	
-0.00652201	0.151895	0.2	
-0.0232097	0.208019	0.1	
-0.0758641	0.204419	0.2	
0.00604814	0.236488	0.2	
-0.379429	-0.0366192	0.2	
-0.373197	-0.0467972	0.1	
-0.312659	-0.0214623	0.1	
-0.318623	-0.0616012	0.2	
0.154944	0.223937	0.2	
0.173936	0.254382	0.1	
0.179715	0.179275	0.1	
0.129359	0.208003	0.1	
-0.182284	0.324323	0.1	
-0.10824	0.362258	0.1	
-0.212133	0.396862	0.150011	
-0.173131	0.322508	0.2	
-0.160221	-0.122206	0.1	
-0.201609	-0.173762	0.2	
-0.12308	-0.143942	0.2	
-0.190622	-0.0884834	0.2	
-0.253293	0.00301969	0.1	
-0.248332	0.050693	0.2	
-0.320541	0.0201981	0.2	
-0.256491	-0.0362829	0.2	
-0.173131	0.322508	0.2	
-0.248262	0.29482	0.2	
-0.217513	0.254621	0.1	
-0.207714	0.236511	0.2	
-0.446786	0.0536856	0.15	
-0.355442	0.107822	0.1	
-0.430628	0.130611	0.15	
-0.362114	0.10176	0.2	
-0.121547	0.224354	0.1	
-0.138104	0.243902	0.2	
-0.155635	0.172227	0.2	
-0.0758641	0.204419	0.2	
0.108307	-0.130924	0.2	
0.130886	-0.100339	0.1	
0.110168	-0.152489	0.1	
0.062652	-0.118801	0.158114	
0.238182	0.208514	0.1	
0.228237	0.281807	0.2	
0.297412	0.240191	0.2	
0.245754	0.289669	0.1	
0.349981	0.18562	0.1	
0.294509	0.157311	0.1	
0.329177	0.174808	0.2	
0.304312	0.234791	0.1	
-0.237792	-0.287474	0.1	
-0.285477	-0.347855	0.149972	
-0.250007	-0.374161	0.1	
-0.212128	-0.396865	0.149972	
-0.0383965	-0.372403	0.2	
-0.0276628	-0.367444	0.1	
-0.0615368	-0.322264	0.1	
0.00378559	-0.316996	0.2	
0.107822	0.355442	0.2	
0.155004	0.296903	0.2	
0.117493	0.309521	0.1	
0.180378	0.336857	0.1	
0.374822	-0.0324999	0.1	
0.324791	-0.0252069	0.2	
0.384421	-0.0378621	0.2	
0.363227	0.0380543	0.2	
-0.327578	-0.175094	0.2	
-0.365881	-0.111705	0.2	
-0.356724	-0.11546	0.1	
-0.396865	-0.212129	0.149995	
-0.170075	-0.251953	0.1	
-0.173995	-0.331361	0.1	
-0.13795	-0.29702	0.2	
-0.223685	-0.271786	0.2	
-0.275518	-0.12132	0.2	
-0.365881	-0.111705	0.2	
-0.356724	-0.11546	0.1	
-0.327578	-0.175094	0.2	
-0.0415815	-0.110392	0.2	
0.00260765	-0.105267	0.157285	
-0.0607822	-0.132192	0.1	
-0.0647576	-0.0686517	0.145827	
0.329177	0.174808	0.2	
0.237285	0.176133	0.2	
0.297412	0.240191	0.2	
0.294509	0.157311	0.1	
-0.19804	0.0242816	0.1	
-0.169647	0.0846842	0.2	
-0.248332	0.050693	0.2	
-0.181323	-0.0027565	0.2	
0.357114	-0.107098	0.1	
0.348465	-0.103096	0.2	
0.303447	-0.0554764	0.1	
0.287371	-0.120299	0.1	
0.144601	0.131477	0.2	
0.213357	0.0766959	0.2	
0.132963	0.044259	0.2	
0.160735	0.0621263	0.1	
-0.0712343	-0.0265969	0.1	
-0.0318198	-0.0318198	0.1	
-0.0200153	-0.0483211	0.151402	
-0.0647576	-0.0686517	0.145827	
0.00677135	0.0163475	0.1	
-0.00500969	-0.0120945	0.1	
0.0202986	-0.00819178	0.1	
0.0060848	-2.90377e-05	0.157763	
-0.169647	0.0846842	0.2	
-0.155635	0.172227	0.2	
-0.1869	0.140647	0.1	
-0.244028	0.149971	0.2	
-0.0730421	0.296762	0.2	
-0.108028	0.370407	0.2	
-0.116127	0.293072	0.1	
-0.173131	0.322508	0.2	
0.212129	-0.396865	0.149953	
0.175084	-0.3275	0.2	
0.25204	-0.306462	0.2	
0.187286	-0.334755	0.1	
0.363227	0.0380543	0.2	
0.296534	0.101262	0.2	
0.355442	0.107822	0.1	
0.287454	0.0808414	0.1	
0.237285	0.176133	0.2	
0.296534	0.101262	0.2	
0.230865	0.135658	0.1	
0.294509	0.157311	0.1	
0.155004	0.296903	0.2	
0.18581	0.349201	0.2	
0.228237	0.281807	0.2	
0.180378	0.336857	0.1	
0.187286	-0.334755	0.1	
0.109857	-0.362973	0.1	
0.175084	-0.3275	0.2	
0.134408	-0.294741	0.1	
0.00378559	-0.316996	0.2	
-0.0276628	-0.367444	0.1	
-0.0137107	-0.295895	0.1	
0.0511003	-0.317442	0.1	
-0.0529805	-0.19738	0.2	
-0.0659287	-0.28985	0.2	
-0.0496677	-0.250381	0.1	
0.0148093	-0.246449	0.2	
-0.0436673	0.0180876	0.150301	
-0.0733988	0.0716859	0.157752	
-0.0944203	0.0353385	0.1	
-0.088703	-0.0138649	0.150815	
-0.0536856	-0.446786	0.15	
-0.0276628	-0.367444	0.1	
-0.104718	-0.361527	0.1	
-0.0383965	-0.372403	0.2	
0.25204	-0.306462	0.2	
0.347855	-0.285477	0.149953	
0.257787	-0.293807	0.1	
0.29265	-0.244884	0.2	
-0.10824	0.362258	0.1	
-0.182284	0.324323	0.1	
-0.116127	0.293072	0.1	
-0.173131	0.322508	0.2	
-0.446786	-0.053688	0.150006	
-0.373197	-0.0467972	0.1	
-0.365881	-0.111705	0.2	
-0.430623	-0.130628	0.150047	
0.0662467	-0.0253248	0.1	
0.045	0	0.1	
0.0318198	-0.0318198	0.1	
0.0512771	-0.0404658	0.154914	
0.369533	0.112832	0.2	
0.363227	0.0380543	0.2	
0.355442	0.107822	0.1	
0.387235	0.0357483	0.1	
-0.170075	-0.251953	0.1	
-0.173995	-0.331361	0.1	
-0.111587	-0.287654	0.1	
-0.13795	-0.29702	0.2	
0.225509	-0.136032	0.1	
0.190166	-0.0983881	0.2	
0.174426	-0.185564	0.2	
0.261818	-0.161797	0.2	
0.109857	-0.362973	0.1	
0.212129	-0.396865	0.149953	
0.172208	-0.415746	0.1	
0.187286	-0.334755	0.1	
0.190166	-0.0983881	0.2	
0.174426	-0.185564	0.2	
0.108307	-0.130924	0.2	
0.168154	-0.150165	0.1	
0.0202986	-0.00819178	0.1	
0.045	0	0.1	
0.0060848	-2.90377e-05	0.157763	
0.0512771	-0.0404658	0.154914	
-0.0674604	0.249371	0.1	
-0.0730421	0.296762	0.2	
-0.138104	0.243902	0.2	
-0.0758641	0.204419	0.2	
-0.296313	0.0995627	0.2	
-0.248332	0.050693	0.2	
-0.242461	0.118505	0.1	
-0.244028	0.149971	0.2	
-0.116127	0.293072	0.1	
-0.182284	0.324323	0.1	
-0.161049	0.262379	0.1	
-0.173131	0.322508	0.2	
-0.108753	-0.0943056	0.1	
-0.0647576	-0.0686517	0.145827	
-0.112529	-0.0425202	0.1	
-0.142279	-0.0393203	0.151217	
-0.217835	-0.151685	0.1	
-0.275518	-0.12132	0.2	
-0.265692	-0.195501	0.2	
-0.201609	-0.173762	0.2	
-0.0674604	0.249371	0.1	
-0.0730421	0.296762	0.2	
-0.0758641	0.204419	0.2	
0.00604814	0.236488	0.2	
0	-0.045	0.1	
0.0060848	-2.90377e-05	0.157763	
-0.00500969	-0.0120945	0.1	
-0.0200153	-0.0483211	0.151402	
-0.182092	-0.340669	0.2	
-0.237792	-0.287474	0.1	
-0.285477	-0.347855	0.149972	
-0.223685	-0.271786	0.2	
-0.296313	0.0995627	0.2	
-0.300257	0.152847	0.1	
-0.355442	0.107822	0.1	
-0.32913	0.168426	0.2	
-0.248262	0.29482	0.2	
-0.212133	0.396862	0.150011	
-0.285477	0.347854	0.150033	
-0.250007	0.374161	0.2	
0.348465	-0.103096	0.2	
0.430623	-0.130628	0.149953	
0.357114	-0.107098	0.1	
0.384421	-0.0378621	0.2	
0.355442	0.107822	0.1	
0.329177	0.174808	0.2	
0.369533	0.112832	0.2	
0.349981	0.18562	0.1	
-0.396865	-0.212129	0.149995	
-0.365881	-0.111705	0.2	
-0.356724	-0.11546	0.1	
-0.430623	-0.130628	0.150047	
-0.32913	0.168426	0.2	
-0.300257	0.152847	0.1	
-0.287124	0.235637	0.2	
-0.244028	0.149971	0.2	
0.396865	-0.212129	0.149953	
0.430623	-0.130628	0.149953	
0.415746	-0.172208	0.1	
0.331486	-0.177371	0.1	
0.257787	-0.293807	0.1	
0.285477	-0.347855	0.149953	
0.347855	-0.285477	0.149953	
0.25204	-0.306462	0.2	
0.147007	-0.259035	0.2	
0.0922363	-0.215793	0.2	
0.174426	-0.185564	0.2	
0.138545	-0.218367	0.1	
-0.237792	-0.287474	0.1	
-0.318198	-0.318198	0.1	
-0.347855	-0.285477	0.149967	
-0.29175	-0.237189	0.1	
0.117493	0.309521	0.1	
0.120589	0.374273	0.1	
0.107822	0.355442	0.2	
0.180378	0.336857	0.1	
0.331486	-0.177371	0.1	
0.396865	-0.212129	0.149953	
0.347855	-0.285477	0.149953	
0.374161	-0.250007	0.1	
0.0868431	-0.0680824	0.1	
0.0488551	-0.0983509	0.1	
0.0864603	-0.112342	0.1	
0.062652	-0.118801	0.158114	
-0.32913	0.168426	0.2	
-0.430628	0.130611	0.15	
-0.355442	0.107822	0.1	
-0.362114	0.10176	0.2	
-0.248262	0.29482	0.2	
-0.182284	0.324323	0.1	
-0.212133	0.396862	0.150011	
-0.173131	0.322508	0.2	
-0.112928	-0.360216	0.2	
-0.104718	-0.361527	0.1	
-0.173995	-0.331361	0.1	
-0.13795	-0.29702	0.2	
-0.237792	-0.287474	0.1	
-0.298599	-0.245054	0.2	
-0.285477	-0.347855	0.149972	
-0.223685	-0.271786	0.2	
-0.225546	-0.215121	0.1	
-0.29175	-0.237189	0.1	
-0.237792	-0.287474	0.1	
-0.223685	-0.271786	0.2	
-0.138104	0.243902	0.2	
-0.173131	0.322508	0.2	
-0.161049	0.262379	0.1	
-0.207714	0.236511	0.2	
-0.00652201	0.151895	0.2	
-0.0182151	0.0644617	0.2	
-0.0733988	0.0716859	0.157752	
0.0186333	0.101613	0.152058	
0.211584	-0.20097	0.1	
0.138545	-0.218367	0.1	
0.174426	-0.185564	0.2	
0.168154	-0.150165	0.1	
0.415746	-0.172208	0.1	
0.430623	-0.130628	0.149953	
0.357114	-0.107098	0.1	
0.331486	-0.177371	0.1	
-0.182092	-0.340669	0.2	
-0.13795	-0.29702	0.2	
-0.173995	-0.331361	0.1	
-0.223685	-0.271786	0.2	
0.0868431	-0.0680824	0.1	
0.0512771	-0.0404658	0.154914	
0.0488551	-0.0983509	0.1	
0.062652	-0.118801	0.158114	
0.109857	-0.362973	0.1	
0.212129	-0.396865	0.149953	
0.130628	-0.430623	0.149953	
0.172208	-0.415746	0.1	
0.238182	0.208514	0.1	
0.173936	0.254382	0.1	
0.228237	0.281807	0.2	
0.245754	0.289669	0.1	
0.180378	0.336857	0.1	
0.228237	0.281807	0.2	
0.173936	0.254382	0.1	
0.245754	0.289669	0.1	
-0.130628	0.430623	0.150047	
-0.172208	0.415746	0.1	
-0.10824	0.362258	0.1	
-0.212133	0.396862	0.150011	
-0.347855	-0.285477	0.149967	
-0.285477	-0.347855	0.149972	
-0.318198	-0.318198	0.1	
-0.237792	-0.287474	0.1	
-0.312659	-0.0214623	0.1	
-0.320541	0.0201981	0.2	
-0.318623	-0.0616012	0.2	
-0.256491	-0.0362829	0.2	
0.329177	0.174808	0.2	
0.297412	0.240191	0.2	
0.396865	0.212129	0.149953	
0.304312	0.234791	0.1	
0.281012	0.0229437	0.2	
0.26859	-0.0619166	0.2	
0.201967	-0.00950962	0.2	
0.251733	-0.014256	0.1	
0.155004	0.296903	0.2	
0.173936	0.254382	0.1	
0.117493	0.309521	0.1	
0.180378	0.336857	0.1	
0.0447484	0.293988	0.1	
-0.00311199	0.32667	0.1	
0.0210919	0.316201	0.2	
0.0450774	0.367889	0.1	
-0.374161	-0.250007	0.1	
-0.347855	-0.285477	0.149967	
-0.29175	-0.237189	0.1	
-0.331484	-0.17939	0.1	
-0.0135764	0.270208	0.1	
-0.0730421	0.296762	0.2	
0.00604814	0.236488	0.2	
0.0210919	0.316201	0.2	
-0.173995	-0.331361	0.1	
-0.170075	-0.251953	0.1	
-0.237792	-0.287474	0.1	
-0.223685	-0.271786	0.2	
0.132963	0.044259	0.2	
0.201967	-0.00950962	0.2	
0.12107	-0.0431928	0.2	
0.0969794	0.021072	0.155881	
-0.217513	0.254621	0.1	
-0.248262	0.29482	0.2	
-0.287124	0.235637	0.2	
-0.207714	0.236511	0.2	
0.297412	0.240191	0.2	
0.347855	0.285477	0.149953	
0.396865	0.212129	0.149953	
0.304312	0.234791	0.1	
-0.172208	0.415746	0.2	
-0.212133	0.396862	0.150011	
-0.130628	0.430623	0.150047	
-0.108028	0.370407	0.2	
-0.0203113	-0.154489	0.1	
0.0142935	-0.12453	0.1	
-0.0251864	-0.106886	0.1	
0.00260765	-0.105267	0.157285	
-0.173995	-0.331361	0.1	
-0.112928	-0.360216	0.2	
-0.13795	-0.29702	0.2	
-0.182092	-0.340669	0.2	
0.314556	0.0156287	0.1	
0.255462	0.038247	0.1	
0.281012	0.0229437	0.2	
0.287454	0.0808414	0.1	
0.0714224	0.0228299	0.1	
0.0662467	-0.0253248	0.1	
0.104819	-0.00331638	0.1	
0.0969794	0.021072	0.155881	
0.314556	0.0156287	0.1	
0.363227	0.0380543	0.2	
0.355442	0.107822	0.1	
0.287454	0.0808414	0.1	
0.0839363	-0.30145	0.2	
0.00378559	-0.316996	0.2	
0.0148093	-0.246449	0.2	
0.0511003	-0.317442	0.1	
-0.237687	0.180874	0.1	
-0.300257	0.152847	0.1	
-0.242461	0.118505	0.1	
-0.244028	0.149971	0.2	
0.281012	0.0229437	0.2	
0.255462	0.038247	0.1	
0.314556	0.0156287	0.1	
0.251733	-0.014256	0.1	
-0.347855	-0.285477	0.149967	
-0.374161	-0.250007	0.1	
-0.396865	-0.212129	0.149995	
-0.331484	-0.17939	0.1	
0.294509	0.157311	0.1	
0.329177	0.174808	0.2	
0.355442	0.107822	0.1	
0.349981	0.18562	0.1	
0.0318198	0.0318198	0.1	
0.0714224	0.0228299	0.1	
0.0550025	0.059172	0.1	
0.0396544	0.04868	0.156181	
0.396865	0.212129	0.149953	
0.415746	0.172208	0.2	
0.369533	0.112832	0.2	
0.430623	0.130628	0.149953	
-0.365881	-0.111705	0.2	
-0.373197	-0.0467972	0.1	
-0.379429	-0.0366192	0.2	
-0.318623	-0.0616012	0.2	
0.130628	-0.430623	0.149953	
0.111895	-0.372646	0.2	
0.172208	-0.415746	0.2	
0.212129	-0.396865	0.149953	
-0.0615368	-0.322264	0.1	
-0.104718	-0.361527	0.1	
-0.0276628	-0.367444	0.1	
-0.0383965	-0.372403	0.2	
-0.172208	-0.415746	0.1	
-0.173995	-0.331361	0.1	
-0.212128	-0.396865	0.149972	
-0.130611	-0.430628	0.15	
-0.172208	-0.415746	0.2	
-0.112928	-0.360216	0.2	
-0.130611	-0.430628	0.15	
-0.182092	-0.340669	0.2	
0.213357	0.0766959	0.2	
0.296534	0.101262	0.2	
0.281012	0.0229437	0.2	
0.287454	0.0808414	0.1	
-0.175847	0.204716	0.1	
-0.138104	0.243902	0.2	
-0.207714	0.236511	0.2	
-0.155635	0.172227	0.2	
0.134408	-0.294741	0.1	
0.138545	-0.218367	0.1	
0.147007	-0.259035	0.2	
0.199452	-0.267103	0.1	
0.446786	-0.053688	0.149994	
0.430623	-0.130628	0.149953	
0.441353	-0.0877906	0.2	
0.384421	-0.0378621	0.2	
-0.0318198	-0.0318198	0.1	
-0.0200153	-0.0483211	0.151402	
-0.0436673	0.0180876	0.150301	
-0.088703	-0.0138649	0.150815	
-0.207714	0.236511	0.2	
-0.287124	0.235637	0.2	
-0.237687	0.180874	0.1	
-0.244028	0.149971	0.2	
0.250007	0.374161	0.1	
0.285477	0.347855	0.149953	
0.212129	0.396865	0.149953	
0.180378	0.336857	0.1	
0.0210919	0.316201	0.2	
0.0381609	0.387454	0.2	
0.107822	0.355442	0.2	
0.0450774	0.367889	0.1	
0.25204	-0.306462	0.2	
0.257787	-0.293807	0.1	
0.216652	-0.249073	0.2	
0.29265	-0.244884	0.2	
0.250007	0.374161	0.1	
0.285477	0.347855	0.149953	
0.180378	0.336857	0.1	
0.245754	0.289669	0.1	
0.296534	0.101262	0.2	
0.369533	0.112832	0.2	
0.363227	0.0380543	0.2	
0.355442	0.107822	0.1	
0.237285	0.176133	0.2	
0.154944	0.223937	0.2	
0.228237	0.281807	0.2	
0.238182	0.208514	0.1	
0.00378559	-0.316996	0.2	
-0.0383965	-0.372403	0.2	
-0.0276628	-0.367444	0.1	
0.0404591	-0.377182	0.2	
-0.365881	-0.111705	0.2	
-0.356724	-0.11546	0.1	
-0.373197	-0.0467972	0.1	
-0.318623	-0.0616012	0.2	
0.347855	-0.285477	0.149953	
0.287124	-0.235637	0.1	
0.331486	-0.177371	0.1	
0.374161	-0.250007	0.1	
-0.374161	-0.250007	0.2	
-0.298599	-0.245054	0.2	
-0.347855	-0.285477	0.149967	
-0.396865	-0.212129	0.149995	
-0.0276546	-0.0671169	0.1	
0.00728726	-0.0832273	0.1	
0	-0.045	0.1	
-0.0200153	-0.0483211	0.151402	
-0.0383965	-0.372403	0.2	
-0.112928	-0.360216	0.2	
-0.0536856	-0.446786	0.15	
-0.0877906	-0.441353	0.2	
-0.112928	-0.360216	0.2	
-0.130611	-0.430628	0.15	
-0.0536856	-0.446786	0.15	
-0.0877906	-0.441353	0.2	
0.134408	-0.294741	0.1	
0.147007	-0.259035	0.2	
0.175084	-0.3275	0.2	
0.199452	-0.267103	0.1	
-0.0318198	-0.0318198	0.1	
0	-0.045	0.1	
-0.00500969	-0.0120945	0.1	
-0.0200153	-0.0483211	0.151402	
0.297412	0.240191	0.2	
0.228237	0.281807	0.2	
0.285477	0.347855	0.149953	
0.245754	0.289669	0.1	
-0.300257	0.152847	0.1	
-0.351668	0.187175	0.1	
-0.355442	0.107822	0.1	
-0.32913	0.168426	0.2	
0.0877906	0.441353	0.1	
0.120589	0.374273	0.1	
0.130628	0.430623	0.149953	
0.053688	0.446786	0.149994	
-0.130611	-0.430628	0.15	
-0.212128	-0.396865	0.149972	
-0.172208	-0.415746	0.2	
-0.182092	-0.340669	0.2	
-0.173995	-0.331361	0.1	
-0.172208	-0.415746	0.1	
-0.104718	-0.361527	0.1	
-0.130611	-0.430628	0.15	
-0.116127	0.293072	0.1	
-0.0730421	0.296762	0.2	
-0.173131	0.322508	0.2	
-0.138104	0.243902	0.2	
-0.111587	-0.287654	0.1	
-0.170075	-0.251953	0.1	
-0.13795	-0.29702	0.2	
-0.133674	-0.228308	0.2	
-0.182092	-0.340669	0.2	
-0.173995	-0.331361	0.1	
-0.237792	-0.287474	0.1	
-0.223685	-0.271786	0.2	
0.117493	0.309521	0.1	
0.107822	0.355442	0.2	
0.120589	0.374273	0.1	
0.0450774	0.367889	0.1	
-0.170075	-0.251953	0.1	
-0.223685	-0.271786	0.2	
-0.133674	-0.228308	0.2	
-0.201609	-0.173762	0.2	
0.0210919	0.316201	0.2	
0.0872949	0.269115	0.2	
0.00604814	0.236488	0.2	
0.0447484	0.293988	0.1	
0.0060848	-2.90377e-05	0.157763	
-0.0436673	0.0180876	0.150301	
-0.00500969	-0.0120945	0.1	
-0.0200153	-0.0483211	0.151402	
-0.298599	-0.245054	0.2	
-0.237792	-0.287474	0.1	
-0.29175	-0.237189	0.1	
-0.223685	-0.271786	0.2	
-0.172208	0.415746	0.1	
-0.182284	0.324323	0.1	
-0.10824	0.362258	0.1	
-0.212133	0.396862	0.150011	
0.0986719	-0.0360043	0.1	
0.0662467	-0.0253248	0.1	
0.0868431	-0.0680824	0.1	
0.0512771	-0.0404658	0.154914	
-0.355442	0.107822	0.1	
-0.296313	0.0995627	0.2	
-0.32913	0.168426	0.2	
-0.362114	0.10176	0.2	
-0.347855	0.285477	0.150034	
-0.396866	0.212126	0.150019	
-0.287124	0.235637	0.2	
-0.374161	0.250007	0.2	
0.329177	0.174808	0.2	
0.296534	0.101262	0.2	
0.294509	0.157311	0.1	
0.355442	0.107822	0.1	
-0.190622	-0.0884834	0.2	
-0.111446	-0.0565624	0.2	
-0.12308	-0.143942	0.2	
-0.142279	-0.0393203	0.151217	
0.144601	0.131477	0.2	
0.237285	0.176133	0.2	
0.213357	0.0766959	0.2	
0.230865	0.135658	0.1	
-0.430628	0.130611	0.15	
-0.441353	0.0877906	0.1	
-0.355442	0.107822	0.1	
-0.446786	0.0536856	0.15	
0.296534	0.101262	0.2	
0.329177	0.174808	0.2	
0.369533	0.112832	0.2	
0.355442	0.107822	0.1	
-0.298599	-0.245054	0.2	
-0.374161	-0.250007	0.2	
-0.327578	-0.175094	0.2	
-0.396865	-0.212129	0.149995	
0.0207402	-0.174187	0.1	
0.0279075	-0.16395	0.2	
0.062652	-0.118801	0.158114	
0.00260765	-0.105267	0.157285	
0.0872949	0.269115	0.2	
0.0447484	0.293988	0.1	
0.117493	0.309521	0.1	
0.0906227	0.254757	0.1	
0.374822	-0.0324999	0.1	
0.324791	-0.0252069	0.2	
0.363227	0.0380543	0.2	
0.314556	0.0156287	0.1	
-0.396866	0.212126	0.150019	
-0.430628	0.130611	0.15	
-0.32913	0.168426	0.2	
-0.415746	0.172208	0.2	
0.0839363	-0.30145	0.2	
0.147007	-0.259035	0.2	
0.175084	-0.3275	0.2	
0.134408	-0.294741	0.1	
0.387235	0.0357483	0.1	
0.363227	0.0380543	0.2	
0.355442	0.107822	0.1	
0.314556	0.0156287	0.1	
0.415746	-0.172208	0.2	
0.430623	-0.130628	0.149953	
0.396865	-0.212129	0.149953	
0.339399	-0.183579	0.2	
-0.201609	-0.173762	0.2	
-0.133674	-0.228308	0.2	
-0.16441	-0.183508	0.1	
-0.12308	-0.143942	0.2	
-0.373197	-0.0467972	0.1	
-0.356724	-0.11546	0.1	
-0.365881	-0.111705	0.2	
-0.430623	-0.130628	0.150047	
0.396865	-0.212129	0.149953	
0.347855	-0.285477	0.149953	
0.374161	-0.250007	0.2	
0.339399	-0.183579	0.2	
0.347855	0.285477	0.149953	
0.297412	0.240191	0.2	
0.318198	0.318198	0.2	
0.285477	0.347855	0.149953	
0.357114	-0.107098	0.1	
0.446786	-0.053688	0.149994	
0.430623	-0.130628	0.149953	
0.441353	-0.0877906	0.1	
-0.133674	-0.228308	0.2	
-0.13795	-0.29702	0.2	
-0.111587	-0.287654	0.1	
-0.0659287	-0.28985	0.2	
0.441353	0.0877906	0.1	
0.446786	0.053688	0.149994	
0.355442	0.107822	0.1	
0.387235	0.0357483	0.1	
0.257787	-0.293807	0.1	
0.287124	-0.235637	0.1	
0.216652	-0.249073	0.2	
0.29265	-0.244884	0.2	
0.0877906	0.441353	0.1	
0.120589	0.374273	0.1	
0.053688	0.446786	0.149994	
0.0450774	0.367889	0.1	
0.0858783	0.0607949	0.1	
0.0396544	0.04868	0.156181	
0.0714224	0.0228299	0.1	
0.0969794	0.021072	0.155881	
0.387235	0.0357483	0.1	
0.374822	-0.0324999	0.1	
0.363227	0.0380543	0.2	
0.314556	0.0156287	0.1	
0.329177	0.174808	0.2	
0.415746	0.172208	0.2	
0.369533	0.112832	0.2	
0.396865	0.212129	0.149953	
-0.225546	-0.215121	0.1	
-0.237792	-0.287474	0.1	
-0.170075	-0.251953	0.1	
-0.223685	-0.271786	0.2	
-0.304909	0.0444641	0.1	
-0.372975	0.0289182	0.1	
-0.312659	-0.0214623	0.1	
-0.320541	0.0201981	0.2	
0.261818	-0.161797	0.2	
0.26859	-0.0619166	0.2	
0.348465	-0.103096	0.2	
0.287371	-0.120299	0.1	
0.294509	0.157311	0.1	
0.230865	0.135658	0.1	
0.237285	0.176133	0.2	
0.238182	0.208514	0.1	
-0.10824	0.362258	0.1	
-0.0358979	0.379949	0.1	
-0.0877906	0.441353	0.1	
-0.053688	0.446786	0.150006	
0.357114	-0.107098	0.1	
0.374822	-0.0324999	0.1	
0.446786	-0.053688	0.149994	
0.441353	-0.0877906	0.1	
0.355442	0.107822	0.1	
0.296534	0.101262	0.2	
0.294509	0.157311	0.1	
0.287454	0.0808414	0.1	
0.0511003	-0.317442	0.1	
0.082636	-0.254415	0.1	
0.0839363	-0.30145	0.2	
0.134408	-0.294741	0.1	
0.237285	0.176133	0.2	
0.144601	0.131477	0.2	
0.154944	0.223937	0.2	
0.179715	0.179275	0.1	
0.0839363	-0.30145	0.2	
0.109857	-0.362973	0.1	
0.0511003	-0.317442	0.1	
0.134408	-0.294741	0.1	
0.175084	-0.3275	0.2	
0.172208	-0.415746	0.2	
0.111895	-0.372646	0.2	
0.212129	-0.396865	0.149953	
-0.292926	0.235471	0.1	
-0.374161	0.250007	0.1	
-0.351668	0.187175	0.1	
-0.347855	0.285477	0.150034	
-0.250007	0.374161	0.2	
-0.248262	0.29482	0.2	
-0.212133	0.396862	0.150011	
-0.173131	0.322508	0.2	
0.237285	0.176133	0.2	
0.296534	0.101262	0.2	
0.213357	0.0766959	0.2	
0.230865	0.135658	0.1	
0.228237	0.281807	0.2	
0.297412	0.240191	0.2	
0.237285	0.176133	0.2	
0.238182	0.208514	0.1	
0.314556	0.0156287	0.1	
0.374822	-0.0324999	0.1	
0.324791	-0.0252069	0.2	
0.303447	-0.0554764	0.1	
0.25204	-0.306462	0.2	
0.175084	-0.3275	0.2	
0.216652	-0.249073	0.2	
0.199452	-0.267103	0.1	
-0.396866	0.212126	0.150019	
-0.351668	0.187175	0.1	
-0.374161	0.250007	0.1	
-0.347855	0.285477	0.150034	
0.230865	0.135658	0.1	
0.179715	0.179275	0.1	
0.237285	0.176133	0.2	
0.238182	0.208514	0.1	
-0.372975	0.0289182	0.1	
-0.355442	0.107822	0.1	
-0.441353	0.0877906	0.1	
-0.446786	0.0536856	0.15	
-0.396865	-0.212129	0.149995	
-0.356724	-0.11546	0.1	
-0.415746	-0.172208	0.1	
-0.430623	-0.130628	0.150047	
0.250007	-0.374161	0.2	
0.285477	-0.347855	0.149953	
0.212129	-0.396865	0.149953	
0.25204	-0.306462	0.2	
-0.396865	-0.212129	0.149995	
-0.415746	-0.172208	0.2	
-0.365881	-0.111705	0.2	
-0.430623	-0.130628	0.150047	
0.00728726	-0.0832273	0.1	
-0.0200153	-0.0483211	0.151402	
-0.0276546	-0.0671169	0.1	
0.00260765	-0.105267	0.157285	
0.155004	0.296903	0.2	
0.0872949	0.269115	0.2	
0.107822	0.355442	0.2	
0.117493	0.309521	0.1	
0.0488551	-0.0983509	0.1	
0.062652	-0.118801	0.158114	
0.0512771	-0.0404658	0.154914	
0.00260765	-0.105267	0.157285	
0.211584	-0.20097	0.1	
0.287124	-0.235637	0.1	
0.216652	-0.249073	0.2	
0.199452	-0.267103	0.1	
0.0488551	-0.0983509	0.1	
0.00728726	-0.0832273	0.1	
0.0142935	-0.12453	0.1	
0.00260765	-0.105267	0.157285	
-0.0415815	-0.110392	0.2	
0.0279075	-0.16395	0.2	
-0.0529805	-0.19738	0.2	
0.00260765	-0.105267	0.157285	
0.257787	-0.293807	0.1	
0.216652	-0.249073	0.2	
0.287124	-0.235637	0.1	
0.199452	-0.267103	0.1	
0.318198	0.318198	0.1	
0.347855	0.285477	0.149953	
0.285477	0.347855	0.149953	
0.245754	0.289669	0.1	
0.374161	-0.250007	0.2	
0.347855	-0.285477	0.149953	
0.29265	-0.244884	0.2	
0.339399	-0.183579	0.2	
-0.223685	-0.271786	0.2	
-0.225546	-0.215121	0.1	
-0.265692	-0.195501	0.2	
-0.201609	-0.173762	0.2	
0.00378559	-0.316996	0.2	
0.0839363	-0.30145	0.2	
0.0404591	-0.377182	0.2	
0.0511003	-0.317442	0.1	
0.374161	0.250007	0.2	
0.297412	0.240191	0.2	
0.347855	0.285477	0.149953	
0.396865	0.212129	0.149953	
-0.347855	0.285477	0.150034	
-0.285477	0.347854	0.150033	
-0.318198	0.318198	0.2	
-0.248262	0.29482	0.2	
-0.0877906	0.441353	0.1	
-0.10824	0.362258	0.1	
-0.053688	0.446786	0.150006	
-0.130628	0.430623	0.150047	
0.154944	0.223937	0.2	
0.155004	0.296903	0.2	
0.228237	0.281807	0.2	
0.173936	0.254382	0.1	
0.348465	-0.103096	0.2	
0.26859	-0.0619166	0.2	
0.324791	-0.0252069	0.2	
0.303447	-0.0554764	0.1	
0.18581	0.349201	0.2	
0.172208	0.415746	0.2	
0.212129	0.396865	0.149953	
0.130628	0.430623	0.149953	
-0.0276546	-0.0671169	0.1	
0.00260765	-0.105267	0.157285	
-0.0200153	-0.0483211	0.151402	
-0.0647576	-0.0686517	0.145827	
0.296534	0.101262	0.2	
0.237285	0.176133	0.2	
0.329177	0.174808	0.2	
0.294509	0.157311	0.1	
0.318198	-0.318198	0.2	
0.347855	-0.285477	0.149953	
0.285477	-0.347855	0.149953	
0.25204	-0.306462	0.2	
0.430623	0.130628	0.149953	
0.396865	0.212129	0.149953	
0.415746	0.172208	0.1	
0.349981	0.18562	0.1	
0.130628	-0.430623	0.149953	
0.053688	-0.446786	0.149994	
0.044217	-0.387842	0.1	
0.0877906	-0.441353	0.1	
0.175084	-0.3275	0.2	
0.187286	-0.334755	0.1	
0.134408	-0.294741	0.1	
0.199452	-0.267103	0.1	
-0.396865	-0.212129	0.149995	
-0.415746	-0.172208	0.1	
-0.356724	-0.11546	0.1	
-0.331484	-0.17939	0.1	
-0.374161	0.250007	0.2	
-0.396866	0.212126	0.150019	
-0.287124	0.235637	0.2	
-0.32913	0.168426	0.2	
-0.0358979	0.379949	0.1	
0	0.45	0.1	
0	0.45	0.15	
0.0450774	0.367889	0.1	
-0.320541	0.0201981	0.2	
-0.248332	0.050693	0.2	
-0.304909	0.0444641	0.1	
-0.296313	0.0995627	0.2	
-0.292926	0.235471	0.1	
-0.251772	0.306785	0.1	
-0.318198	0.318198	0.1	
-0.347855	0.285477	0.150034	
-0.347855	0.285477	0.150034	
-0.251772	0.306785	0.1	
-0.318198	0.318198	0.1	
-0.285477	0.347854	0.150033	
-0.251772	0.306785	0.1	
-0.212133	0.396862	0.150011	
-0.250007	0.374161	0.1	
-0.285477	0.347854	0.150033	
-0.396866	0.212126	0.150019	
-0.415746	0.172208	0.1	
-0.351668	0.187175	0.1	
-0.430628	0.130611	0.15	
0.287124	-0.235637	0.1	
0.257787	-0.293807	0.1	
0.347855	-0.285477	0.149953	
0.29265	-0.244884	0.2	
0.0404591	-0.377182	0.2	
0	-0.45	0.2	
-0.0383965	-0.372403	0.2	
0	-0.45	0.15	
-0.365881	-0.111705	0.2	
-0.327578	-0.175094	0.2	
-0.415746	-0.172208	0.2	
-0.396865	-0.212129	0.149995	
-0.108028	0.370407	0.2	
-0.172208	0.415746	0.2	
-0.212133	0.396862	0.150011	
-0.173131	0.322508	0.2	
0.25204	-0.306462	0.2	
0.318198	-0.318198	0.2	
0.347855	-0.285477	0.149953	
0.29265	-0.244884	0.2	
-0.0791922	0.124893	0.1	
-0.0949426	0.0752698	0.1	
-0.0583523	0.0875158	0.1	
-0.0733988	0.0716859	0.157752	
0.114815	0.0394603	0.1	
0.104819	-0.00331638	0.1	
0.153315	0.00689278	0.1	
0.0969794	0.021072	0.155881	
0.18581	0.349201	0.2	
0.250007	0.374161	0.2	
0.285477	0.347855	0.149953	
0.212129	0.396865	0.149953	
0.384421	-0.0378621	0.2	
0.45	0	0.2	
0.45	0	0.15	
0.363227	0.0380543	0.2	
-0.32913	0.168426	0.2	
-0.296313	0.0995627	0.2	
-0.300257	0.152847	0.1	
-0.244028	0.149971	0.2	
-0.355442	0.107822	0.1	
-0.351668	0.187175	0.1	
-0.415746	0.172208	0.1	
-0.430628	0.130611	0.15	
0.216652	-0.249073	0.2	
0.257787	-0.293807	0.1	
0.25204	-0.306462	0.2	
0.199452	-0.267103	0.1	
-0.0944203	0.0353385	0.1	
-0.104461	0.000932435	0.1	
-0.0737761	0.00176994	0.1	
-0.088703	-0.0138649	0.150815	
0.441353	0.0877906	0.1	
0.446786	0.053688	0.149994	
0.430623	0.130628	0.149953	
0.355442	0.107822	0.1	
0.369533	0.112832	0.2	
0.441353	0.0877906	0.2	
0.446786	0.053688	0.149994	
0.430623	0.130628	0.149953	
0.0550025	0.059172	0.1	
0.0250698	0.0602098	0.1	
0.0318198	0.0318198	0.1	
0.0396544	0.04868	0.156181	
0.147007	-0.259035	0.2	
0.216652	-0.249073	0.2	
0.175084	-0.3275	0.2	
0.199452	-0.267103	0.1	
0.187286	-0.334755	0.1	
0.285477	-0.347855	0.149953	
0.212129	-0.396865	0.149953	
0.250007	-0.374161	0.1	
0.216652	-0.249073	0.2	
0.174426	-0.185564	0.2	
0.261818	-0.161797	0.2	
0.211584	-0.20097	0.1	
-0.446786	-0.053688	0.150006	
-0.441353	-0.0877906	0.1	
-0.373197	-0.0467972	0.1	
-0.430623	-0.130628	0.150047	
-0.415746	0.172208	0.2	
-0.430628	0.130611	0.15	
-0.32913	0.168426	0.2	
-0.362114	0.10176	0.2	
-0.379429	-0.0366192	0.2	
-0.365881	-0.111705	0.2	
-0.441353	-0.0877906	0.2	
-0.446786	-0.053688	0.150006	
0.0405437	0.0931998	0.1	
0.0691478	0.134694	0.1	
0.0139627	0.124614	0.1	
0.0186333	0.101613	0.152058	
0.347855	0.285477	0.149953	
0.318198	0.318198	0.1	
0.304312	0.234791	0.1	
0.245754	0.289669	0.1	
-0.223685	-0.271786	0.2	
-0.13795	-0.29702	0.2	
-0.170075	-0.251953	0.1	
-0.133674	-0.228308	0.2	
0.250007	-0.374161	0.2	
0.212129	-0.396865	0.149953	
0.175084	-0.3275	0.2	
0.25204	-0.306462	0.2	
0.044217	-0.387842	0.1	
0.109857	-0.362973	0.1	
0.130628	-0.430623	0.149953	
0.0877906	-0.441353	0.1	
-0.108753	-0.0943056	0.1	
-0.112529	-0.0425202	0.1	
-0.157075	-0.0653284	0.1	
-0.142279	-0.0393203	0.151217	
-0.347855	-0.285477	0.149967	
-0.298599	-0.245054	0.2	
-0.318198	-0.318198	0.2	
-0.285477	-0.347855	0.149972	
-0.0949426	0.0752698	0.1	
-0.0944203	0.0353385	0.1	
-0.0611924	0.0535755	0.1	
-0.0733988	0.0716859	0.157752	
0.0250698	0.0602098	0.1	
0.0405437	0.0931998	0.1	
0.00442099	0.0829354	0.1	
0.0186333	0.101613	0.152058	
-0.00652201	0.151895	0.2	
-0.0182151	0.0644617	0.2	
-0.0880857	0.11829	0.2	
-0.0733988	0.0716859	0.157752	
-0.250007	0.374161	0.1	
-0.182284	0.324323	0.1	
-0.212133	0.396862	0.150011	
-0.251772	0.306785	0.1	
-0.285477	-0.347855	0.149972	
-0.250007	-0.374161	0.2	
-0.212128	-0.396865	0.149972	
-0.182092	-0.340669	0.2	
-0.0200153	-0.0483211	0.151402	
-0.088703	-0.0138649	0.150815	
-0.0712343	-0.0265969	0.1	
-0.0647576	-0.0686517	0.145827	
0.257787	-0.293807	0.1	
0.285477	-0.347855	0.149953	
0.187286	-0.334755	0.1	
0.250007	-0.374161	0.1	
0.363227	0.0380543	0.2	
0.369533	0.112832	0.2	
0.441353	0.0877906	0.2	
0.446786	0.053688	0.149994	
0.172208	0.415746	0.1	
0.120589	0.374273	0.1	
0.212129	0.396865	0.149953	
0.130628	0.430623	0.149953	
0.130628	-0.430623	0.149953	
0.0877906	-0.441353	0.2	
0.111895	-0.372646	0.2	
0.053688	-0.446786	0.149994	
0.0750467	0.185499	0.2	
0.0632975	0.0980676	0.2	
-0.00652201	0.151895	0.2	
0.0186333	0.101613	0.152058	
0.297412	0.240191	0.2	
0.374161	0.250007	0.2	
0.329177	0.174808	0.2	
0.396865	0.212129	0.149953	
0	-0.45	0.15	
0	-0.45	0.1	
-0.0276628	-0.367444	0.1	
0.044217	-0.387842	0.1	
-0.365881	-0.111705	0.2	
-0.441353	-0.0877906	0.2	
-0.446786	-0.053688	0.150006	
-0.430623	-0.130628	0.150047	
0.45	0	0.2	
0.45	0	0.15	
0.363227	0.0380543	0.2	
0.446786	0.053688	0.149994	
0.0398215	-0.0765894	0.2	
-0.0200153	-0.0483211	0.151402	
0.0060848	-2.90377e-05	0.157763	
0.0512771	-0.0404658	0.154914	
0.107822	0.355442	0.2	
0.172208	0.415746	0.2	
0.18581	0.349201	0.2	
0.130628	0.430623	0.149953	
-0.362114	0.10176	0.2	
-0.441353	0.0877906	0.2	
-0.446786	0.0536856	0.15	
-0.389559	0.0336032	0.2	
-0.12308	-0.143942	0.2	
-0.111446	-0.0565624	0.2	
-0.0415815	-0.110392	0.2	
-0.0647576	-0.0686517	0.145827	
-0.372975	0.0289182	0.1	
-0.45	0	0.1	
-0.373197	-0.0467972	0.1	
-0.45	0	0.15	
0.0877906	-0.441353	0.2	
0.0404591	-0.377182	0.2	
0.111895	-0.372646	0.2	
0.053688	-0.446786	0.149994	
-0.0538392	-0.0535857	0.1	
-0.0712343	-0.0265969	0.1	
-0.080591	-0.0588792	0.1	
-0.0647576	-0.0686517	0.145827	
-0.080591	-0.0588792	0.1	
-0.088703	-0.0138649	0.150815	
-0.112529	-0.0425202	0.1	
-0.0647576	-0.0686517	0.145827	
0.212129	0.396865	0.149953	
0.120589	0.374273	0.1	
0.172208	0.415746	0.1	
0.180378	0.336857	0.1	
-0.0318198	0.0318198	0.1	
-0.0606984	0.0243229	0.1	
-0.045	0	0.1	
-0.0436673	0.0180876	0.150301	
-0.0182151	0.0644617	0.2	
0.0396544	0.04868	0.156181	
0.0060848	-2.90377e-05	0.157763	
-0.0436673	0.0180876	0.150301	
0.053688	0.446786	0.149994	
0	0.45	0.15	
0	0.45	0.1	
0.0450774	0.367889	0.1	
0.339399	-0.183579	0.2	
0.415746	-0.172208	0.2	
0.430623	-0.130628	0.149953	
0.348465	-0.103096	0.2	
0.349981	0.18562	0.1	
0.396865	0.212129	0.149953	
0.374161	0.250007	0.1	
0.304312	0.234791	0.1	
0.0587245	-0.143156	0.1	
0.110168	-0.152489	0.1	
0.0864603	-0.112342	0.1	
0.062652	-0.118801	0.158114	
0.0587245	-0.143156	0.1	
0.0488551	-0.0983509	0.1	
0.0142935	-0.12453	0.1	
0.062652	-0.118801	0.158114	
0.0250698	0.0602098	0.1	
0.0396544	0.04868	0.156181	
0.0405437	0.0931998	0.1	
0.0186333	0.101613	0.152058	
-0.0536856	-0.446786	0.15	
-0.104718	-0.361527	0.1	
-0.0877906	-0.441353	0.1	
-0.130611	-0.430628	0.15	
-0.0339688	0.375665	0.2	
0	0.45	0.15	
0	0.45	0.2	
0.0381609	0.387454	0.2	
-0.379429	-0.0366192	0.2	
-0.45	0	0.2	
-0.389559	0.0336032	0.2	
-0.45	0	0.15	
0.297412	0.240191	0.2	
0.228237	0.281807	0.2	
0.318198	0.318198	0.2	
0.285477	0.347855	0.149953	
0.348465	-0.103096	0.2	
0.441353	-0.0877906	0.2	
0.430623	-0.130628	0.149953	
0.384421	-0.0378621	0.2	
-0.080591	-0.0588792	0.1	
-0.0712343	-0.0265969	0.1	
-0.112529	-0.0425202	0.1	
-0.088703	-0.0138649	0.150815	
-0.446786	-0.053688	0.150006	
-0.373197	-0.0467972	0.1	
-0.45	0	0.1	
-0.45	0	0.15	
0.396865	0.212129	0.149953	
0.347855	0.285477	0.149953	
0.374161	0.250007	0.1	
0.304312	0.234791	0.1	
0.0398215	-0.0765894	0.2	
0.0512771	-0.0404658	0.154914	
0.12107	-0.0431928	0.2	
0.062652	-0.118801	0.158114	
0.281012	0.0229437	0.2	
0.363227	0.0380543	0.2	
0.324791	-0.0252069	0.2	
0.314556	0.0156287	0.1	
-0.248262	0.29482	0.2	
-0.318198	0.318198	0.2	
-0.347855	0.285477	0.150034	
-0.287124	0.235637	0.2	
-0.0877906	0.441353	0.2	
-0.130628	0.430623	0.150047	
-0.053688	0.446786	0.150006	
-0.108028	0.370407	0.2	
0.355442	0.107822	0.1	
0.430623	0.130628	0.149953	
0.415746	0.172208	0.1	
0.349981	0.18562	0.1	
-0.441353	0.0877906	0.2	
-0.446786	0.0536856	0.15	
-0.430628	0.130611	0.15	
-0.362114	0.10176	0.2	
-0.0383965	-0.372403	0.2	
0	-0.45	0.2	
-0.0536856	-0.446786	0.15	
0	-0.45	0.15	
-0.053688	0.446786	0.150006	
-0.0877906	0.441353	0.2	
-0.108028	0.370407	0.2	
-0.0339688	0.375665	0.2	
-0.112529	-0.0425202	0.1	
-0.0647576	-0.0686517	0.145827	
-0.088703	-0.0138649	0.150815	
-0.142279	-0.0393203	0.151217	
0.374822	-0.0324999	0.1	
0.45	0	0.15	
0.45	0	0.1	
0.387235	0.0357483	0.1	
0	-0.45	0.1	
-0.0276628	-0.367444	0.1	
-0.0536856	-0.446786	0.15	
0	-0.45	0.15	
0.0868431	-0.0680824	0.1	
0.0662467	-0.0253248	0.1	
0.0401753	-0.0586342	0.1	
0.0512771	-0.0404658	0.154914	
0.18581	0.349201	0.2	
0.250007	0.374161	0.2	
0.228237	0.281807	0.2	
0.285477	0.347855	0.149953	
-0.356724	-0.11546	0.1	
-0.373197	-0.0467972	0.1	
-0.441353	-0.0877906	0.1	
-0.430623	-0.130628	0.150047	
0.0279075	-0.16395	0.2	
0.108307	-0.130924	0.2	
0.0922363	-0.215793	0.2	
0.062652	-0.118801	0.158114	
-0.298599	-0.245054	0.2	
-0.318198	-0.318198	0.2	
-0.285477	-0.347855	0.149972	
-0.223685	-0.271786	0.2	
-0.0318198	0.0318198	0.1	
-0.045	0	0.1	
-0.0201457	0.00856081	0.1	
-0.0436673	0.0180876	0.150301	
-0.0276628	-0.367444	0.1	
-0.104718	-0.361527	0.1	
-0.0877906	-0.441353	0.1	
-0.0536856	-0.446786	0.15	
-0.153293	-0.011499	0.1	
-0.203899	-0.0323666	0.1	
-0.157075	-0.0653284	0.1	
-0.142279	-0.0393203	0.151217	
0.0398215	-0.0765894	0.2	
0.0060848	-2.90377e-05	0.157763	
0.0516213	0.0106253	0.2	
0.0512771	-0.0404658	0.154914	
-0.182092	-0.340669	0.2	
-0.285477	-0.347855	0.149972	
-0.250007	-0.374161	0.2	
-0.223685	-0.271786	0.2	
0.0488551	-0.0983509	0.1	
0.0142935	-0.12453	0.1	
0.062652	-0.118801	0.158114	
0.00260765	-0.105267	0.157285	
0.285477	-0.347855	0.149953	
0.318198	-0.318198	0.1	
0.257787	-0.293807	0.1	
0.347855	-0.285477	0.149953	
-0.0276546	-0.0671169	0.1	
-0.0538392	-0.0535857	0.1	
-0.0619298	-0.0870419	0.1	
-0.0647576	-0.0686517	0.145827	
0.114815	0.0394603	0.1	
0.0858783	0.0607949	0.1	
0.0714224	0.0228299	0.1	
0.0969794	0.021072	0.155881	
0.45	0	0.1	
0.446786	-0.053688	0.149994	
0.45	0	0.15	
0.374822	-0.0324999	0.1	
-0.0415815	-0.110392	0.2	
-0.0200153	-0.0483211	0.151402	
0.0398215	-0.0765894	0.2	
0.00260765	-0.105267	0.157285	
0	-0.45	0.15	
0.0404591	-0.377182	0.2	
0	-0.45	0.2	
0.053688	-0.446786	0.149994	
-0.0949426	0.0752698	0.1	
-0.0611924	0.0535755	0.1	
-0.0583523	0.0875158	0.1	
-0.0733988	0.0716859	0.157752	
-0.446786	0.0536856	0.15	
-0.45	0	0.1	
-0.372975	0.0289182	0.1	
-0.45	0	0.15	
0.0142935	-0.12453	0.1	
0.00728726	-0.0832273	0.1	
-0.0251864	-0.106886	0.1	
0.00260765	-0.105267	0.157285	
-0.104461	0.000932435	0.1	
-0.153293	-0.011499	0.1	
-0.112529	-0.0425202	0.1	
-0.142279	-0.0393203	0.151217	
-0.0299174	-0.0229457	0.2	
0.0060848	-2.90377e-05	0.157763	
0.0398215	-0.0765894	0.2	
-0.0200153	-0.0483211	0.151402	
-0.053688	0.446786	0.150006	
0	0.45	0.15	
0	0.45	0.2	
-0.0339688	0.375665	0.2	
0.0516213	0.0106253	0.2	
0.0396544	0.04868	0.156181	
0.0632975	0.0980676	0.2	
0.0969794	0.021072	0.155881	
-0.45	0	0.2	
-0.379429	-0.0366192	0.2	
-0.446786	-0.053688	0.150006	
-0.45	0	0.15	
0.0662467	-0.0253248	0.1	
0.0318198	-0.0318198	0.1	
0.0401753	-0.0586342	0.1	
0.0512771	-0.0404658	0.154914	
0.0516213	0.0106253	0.2	
0.0060848	-2.90377e-05	0.157763	
0.0396544	0.04868	0.156181	
0.0512771	-0.0404658	0.154914	
0	-0.045	0.1	
-0.0318198	-0.0318198	0.1	
-0.0276546	-0.0671169	0.1	
-0.0200153	-0.0483211	0.151402	
-0.0712343	-0.0265969	0.1	
-0.088703	-0.0138649	0.150815	
-0.080591	-0.0588792	0.1	
-0.0647576	-0.0686517	0.145827	
-0.0619298	-0.0870419	0.1	
-0.080591	-0.0588792	0.1	
-0.108753	-0.0943056	0.1	
-0.0647576	-0.0686517	0.145827	
-0.0182151	0.0644617	0.2	
-0.0299174	-0.0229457	0.2	
-0.0997698	0.0308567	0.2	
-0.0436673	0.0180876	0.150301	
0.0516213	0.0106253	0.2	
-0.0299174	-0.0229457	0.2	
-0.0182151	0.0644617	0.2	
0.0060848	-2.90377e-05	0.157763	
0.0632975	0.0980676	0.2	
0.0516213	0.0106253	0.2	
-0.0182151	0.0644617	0.2	
0.0396544	0.04868	0.156181	
0.0516213	0.0106253	0.2	
0.0512771	-0.0404658	0.154914	
0.0396544	0.04868	0.156181	
0.0969794	0.021072	0.155881	
0.0398215	-0.0765894	0.2	
0.12107	-0.0431928	0.2	
0.108307	-0.130924	0.2	
0.062652	-0.118801	0.158114	
-0.111446	-0.0565624	0.2	
-0.0299174	-0.0229457	0.2	
-0.0415815	-0.110392	0.2	
-0.0647576	-0.0686517	0.145827	
-0.0299174	-0.0229457	0.2	
0.0398215	-0.0765894	0.2	
-0.0415815	-0.110392	0.2	
-0.0200153	-0.0483211	0.151402	
0.0516213	0.0106253	0.2	
0.0398215	-0.0765894	0.2	
-0.0299174	-0.0229457	0.2	
0.0060848	-2.90377e-05	0.157763	
-0.0997698	0.0308567	0.2	
-0.088703	-0.0138649	0.150815	
-0.111446	-0.0565624	0.2	
-0.142279	-0.0393203	0.151217	
-0.0880857	0.11829	0.2	
-0.0182151	0.0644617	0.2	
-0.0997698	0.0308567	0.2	
-0.0733988	0.0716859	0.157752	
0	-0.45	0.1	
0	-0.45	0.15	
0.053688	-0.446786	0.149994	
0.044217	-0.387842	0.1	
-0.0997698	0.0308567	0.2	
-0.169647	0.0846842	0.2	
-0.0880857	0.11829	0.2	
-0.0733988	0.0716859	0.157752	
0	0.45	0.15	
0	0.45	0.1	
-0.0358979	0.379949	0.1	
-0.053688	0.446786	0.150006	
-0.0997698	0.0308567	0.2	
-0.111446	-0.0565624	0.2	
-0.181323	-0.0027565	0.2	
-0.142279	-0.0393203	0.151217	
0.0632975	0.0980676	0.2	
-0.0182151	0.0644617	0.2	
-0.00652201	0.151895	0.2	
0.0186333	0.101613	0.152058	
-0.111446	-0.0565624	0.2	
-0.0997698	0.0308567	0.2	
-0.0299174	-0.0229457	0.2	
-0.088703	-0.0138649	0.150815	
0.0139627	0.124614	0.1	
-0.0254114	0.106009	0.1	
0.00442099	0.0829354	0.1	
0.0186333	0.101613	0.152058	
-0.0415815	-0.110392	0.2	
0.0398215	-0.0765894	0.2	
0.0279075	-0.16395	0.2	
0.00260765	-0.105267	0.157285	
-0.0299174	-0.0229457	0.2	
-0.0200153	-0.0483211	0.151402	
-0.0415815	-0.110392	0.2	
-0.0647576	-0.0686517	0.145827	
-0.0997698	0.0308567	0.2	
-0.0733988	0.0716859	0.157752	
-0.0436673	0.0180876	0.150301	
-0.088703	-0.0138649	0.150815	
0.132963	0.044259	0.2	
0.0516213	0.0106253	0.2	
0.0632975	0.0980676	0.2	
0.0969794	0.021072	0.155881	
0.0864603	-0.112342	0.1	
0.0488551	-0.0983509	0.1	
0.0587245	-0.143156	0.1	
0.062652	-0.118801	0.158114	
0.287124	-0.235637	0.1	
0.257787	-0.293807	0.1	
0.318198	-0.318198	0.1	
0.347855	-0.285477	0.149953	
0.12107	-0.0431928	0.2	
0.0398215	-0.0765894	0.2	
0.0516213	0.0106253	0.2	
0.0512771	-0.0404658	0.154914	
-0.104461	0.000932435	0.1	
-0.112529	-0.0425202	0.1	
-0.088703	-0.0138649	0.150815	
-0.142279	-0.0393203	0.151217	
0.0516213	0.0106253	0.2	
0.132963	0.044259	0.2	
0.12107	-0.0431928	0.2	
0.0969794	0.021072	0.155881	
0.0381609	0.387454	0.2	
0	0.45	0.15	
0	0.45	0.2	
0.053688	0.446786	0.149994	
-0.111446	-0.0565624	0.2	
-0.088703	-0.0138649	0.150815	
-0.0299174	-0.0229457	0.2	
-0.0647576	-0.0686517	0.145827	
0.108307	-0.130924	0.2	
0.0279075	-0.16395	0.2	
0.0398215	-0.0765894	0.2	
0.062652	-0.118801	0.158114	
0.0516213	0.0106253	0.2	
0.12107	-0.0431928	0.2	
0.0512771	-0.0404658	0.154914	
0.0969794	0.021072	0.155881	
-0.0182151	0.0644617	0.2	
0.0060848	-2.90377e-05	0.157763	
-0.0299174	-0.0229457	0.2	
-0.0436673	0.0180876	0.150301	
0.45	0	0.15	
0.446786	-0.053688	0.149994	
0.45	0	0.2	
0.384421	-0.0378621	0.2	
-0.0182151	0.0644617	0.2	
-0.0436673	0.0180876	0.150301	
-0.0997698	0.0308567	0.2	
-0.0733988	0.0716859	0.157752	
0.446786	0.053688	0.149994	
0.45	0	0.1	
0.45	0	0.15	
0.387235	0.0357483	0.1	
-0.0997698	0.0308567	0.2	
-0.0436673	0.0180876	0.150301	
-0.0299174	-0.0229457	0.2	
-0.088703	-0.0138649	0.150815	
-0.0182151	0.0644617	0.2	
0.0516213	0.0106253	0.2	
0.0060848	-2.90377e-05	0.157763	
0.0396544	0.04868	0.156181	
0.441353	0.0877906	0.2	
0.45	0	0.2	
0.363227	0.0380543	0.2	
0.446786	0.053688	0.149994	
0.0714224	0.0228299	0.1	
0.104819	-0.00331638	0.1	
0.114815	0.0394603	0.1	
0.0969794	0.021072	0.155881	
-0.389559	0.0336032	0.2	
-0.45	0	0.2	
-0.446786	0.0536856	0.15	
-0.45	0	0.15	
-0.0383965	-0.372403	0.2	
-0.0536856	-0.446786	0.15	
0	-0.45	0.2	
-0.0877906	-0.441353	0.2	
-0.0276628	-0.367444	0.1	
-0.0877906	-0.441353	0.1	
0	-0.45	0.1	
-0.0536856	-0.446786	0.15	
-0.0299174	-0.0229457	0.2	
-0.088703	-0.0138649	0.150815	
-0.0200153	-0.0483211	0.151402	
-0.0647576	-0.0686517	0.145827	
-0.0436673	0.0180876	0.150301	
-0.0200153	-0.0483211	0.151402	
-0.0299174	-0.0229457	0.2	
-0.088703	-0.0138649	0.150815	
-0.181323	-0.0027565	0.2	
-0.111446	-0.0565624	0.2	
-0.190622	-0.0884834	0.2	
-0.142279	-0.0393203	0.151217	
0.053688	0.446786	0.149994	
0	0.45	0.1	
0.0877906	0.441353	0.1	
0.0450774	0.367889	0.1	
-0.104461	0.000932435	0.1	
-0.112529	-0.0425202	0.1	
-0.0712343	-0.0265969	0.1	
-0.088703	-0.0138649	0.150815	
0.0632975	0.0980676	0.2	
0.0396544	0.04868	0.156181	
-0.0182151	0.0644617	0.2	
0.0186333	0.101613	0.152058	
-0.0200153	-0.0483211	0.151402	
0.0512771	-0.0404658	0.154914	
0.0398215	-0.0765894	0.2	
0.00260765	-0.105267	0.157285	
0.374822	-0.0324999	0.1	
0.45	0	0.1	
0.446786	-0.053688	0.149994	
0.441353	-0.0877906	0.1	
-0.372975	0.0289182	0.1	
-0.441353	0.0877906	0.1	
-0.45	0	0.1	
-0.446786	0.0536856	0.15	
-0.374161	-0.250007	0.2	
-0.415746	-0.172208	0.2	
-0.327578	-0.175094	0.2	
-0.396865	-0.212129	0.149995	
-0.0200153	-0.0483211	0.151402	
0.00260765	-0.105267	0.157285	
-0.0415815	-0.110392	0.2	
-0.0647576	-0.0686517	0.145827	
-0.45	0	0.1	
-0.441353	-0.0877906	0.1	
-0.373197	-0.0467972	0.1	
-0.446786	-0.053688	0.150006	
-0.0877906	0.441353	0.2	
-0.053688	0.446786	0.150006	
0	0.45	0.2	
-0.0339688	0.375665	0.2	
-0.415746	0.172208	0.1	
-0.441353	0.0877906	0.1	
-0.355442	0.107822	0.1	
-0.430628	0.130611	0.15	
-0.285477	-0.347855	0.149972	
-0.318198	-0.318198	0.2	
-0.250007	-0.374161	0.2	
-0.223685	-0.271786	0.2	
0.430623	-0.130628	0.149953	
0.357114	-0.107098	0.1	
0.441353	-0.0877906	0.1	
0.415746	-0.172208	0.1	
-0.318198	-0.318198	0.1	
-0.285477	-0.347855	0.149972	
-0.250007	-0.374161	0.1	
-0.237792	-0.287474	0.1	
-0.088703	-0.0138649	0.150815	
-0.0647576	-0.0686517	0.145827	
-0.111446	-0.0565624	0.2	
-0.142279	-0.0393203	0.151217	
-0.45	0	0.2	
-0.379429	-0.0366192	0.2	
-0.441353	-0.0877906	0.2	
-0.446786	-0.053688	0.150006	
0.347855	-0.285477	0.149953	
0.318198	-0.318198	0.1	
0.287124	-0.235637	0.1	
0.374161	-0.250007	0.1	
-0.32913	0.168426	0.2	
-0.374161	0.250007	0.2	
-0.396866	0.212126	0.150019	
-0.415746	0.172208	0.2	
-0.172208	-0.415746	0.1	
-0.173995	-0.331361	0.1	
-0.250007	-0.374161	0.1	
-0.212128	-0.396865	0.149972	
-0.104461	0.000932435	0.1	
-0.0712343	-0.0265969	0.1	
-0.0737761	0.00176994	0.1	
-0.088703	-0.0138649	0.150815	
0.00442099	0.0829354	0.1	
0.0405437	0.0931998	0.1	
0.0139627	0.124614	0.1	
0.0186333	0.101613	0.152058	
0.0404591	-0.377182	0.2	
0.0877906	-0.441353	0.2	
0	-0.45	0.2	
0.053688	-0.446786	0.149994	
0.331486	-0.177371	0.1	
0.415746	-0.172208	0.1	
0.396865	-0.212129	0.149953	
0.374161	-0.250007	0.1	
0.175084	-0.3275	0.2	
0.172208	-0.415746	0.2	
0.212129	-0.396865	0.149953	
0.250007	-0.374161	0.2	
0.415746	0.172208	0.2	
0.329177	0.174808	0.2	
0.374161	0.250007	0.2	
0.396865	0.212129	0.149953	
0.107822	0.355442	0.2	
0.0877906	0.441353	0.2	
0.172208	0.415746	0.2	
0.130628	0.430623	0.149953	
-0.157075	-0.0653284	0.1	
-0.112529	-0.0425202	0.1	
-0.153293	-0.011499	0.1	
-0.142279	-0.0393203	0.151217	
-0.182284	0.324323	0.1	
-0.172208	0.415746	0.1	
-0.250007	0.374161	0.1	
-0.212133	0.396862	0.150011	
-0.374161	-0.250007	0.1	
-0.347855	-0.285477	0.149967	
-0.318198	-0.318198	0.1	
-0.29175	-0.237189	0.1	
0.0398215	-0.0765894	0.2	
0.0512771	-0.0404658	0.154914	
0.062652	-0.118801	0.158114	
0.00260765	-0.105267	0.157285	
-0.292926	0.235471	0.1	
-0.318198	0.318198	0.1	
-0.374161	0.250007	0.1	
-0.347855	0.285477	0.150034	
-0.441353	-0.0877906	0.1	
-0.415746	-0.172208	0.1	
-0.356724	-0.11546	0.1	
-0.430623	-0.130628	0.150047	
-0.374161	-0.250007	0.1	
-0.415746	-0.172208	0.1	
-0.396865	-0.212129	0.149995	
-0.331484	-0.17939	0.1	
-0.0877906	-0.441353	0.2	
-0.112928	-0.360216	0.2	
-0.130611	-0.430628	0.15	
-0.172208	-0.415746	0.2	
0.441353	-0.0877906	0.2	
0.430623	-0.130628	0.149953	
0.415746	-0.172208	0.2	
0.348465	-0.103096	0.2	
0	0.45	0.1	
-0.0877906	0.441353	0.1	
-0.0358979	0.379949	0.1	
-0.053688	0.446786	0.150006	
0.318198	0.318198	0.2	
0.228237	0.281807	0.2	
0.250007	0.374161	0.2	
0.285477	0.347855	0.149953	
-0.172208	0.415746	0.2	
-0.250007	0.374161	0.2	
-0.212133	0.396862	0.150011	
-0.173131	0.322508	0.2	
0.0877906	-0.441353	0.1	
0.109857	-0.362973	0.1	
0.130628	-0.430623	0.149953	
0.172208	-0.415746	0.1	
0.415746	0.172208	0.1	
0.441353	0.0877906	0.1	
0.430623	0.130628	0.149953	
0.355442	0.107822	0.1	
-0.287124	0.235637	0.2	
-0.318198	0.318198	0.2	
-0.347855	0.285477	0.150034	
-0.374161	0.250007	0.2	
-0.430628	0.130611	0.15	
-0.415746	0.172208	0.2	
-0.441353	0.0877906	0.2	
-0.362114	0.10176	0.2	
0.0398215	-0.0765894	0.2	
0.062652	-0.118801	0.158114	
0.0279075	-0.16395	0.2	
0.00260765	-0.105267	0.157285	
-0.10824	0.362258	0.1	
-0.0877906	0.441353	0.1	
-0.172208	0.415746	0.1	
-0.130628	0.430623	0.150047	
0.0877906	0.441353	0.2	
0.0381609	0.387454	0.2	
0	0.45	0.2	
0.053688	0.446786	0.149994	
0.285477	0.347855	0.149953	
0.250007	0.374161	0.1	
0.318198	0.318198	0.1	
0.245754	0.289669	0.1	
-0.441353	0.0877906	0.2	
-0.45	0	0.2	
-0.446786	0.0536856	0.15	
-0.389559	0.0336032	0.2	
0.044217	-0.387842	0.1	
0.053688	-0.446786	0.149994	
0	-0.45	0.1	
0.0877906	-0.441353	0.1	
0.441353	0.0877906	0.1	
0.45	0	0.1	
0.446786	0.053688	0.149994	
0.387235	0.0357483	0.1	
-0.172208	-0.415746	0.1	
-0.0877906	-0.441353	0.1	
-0.104718	-0.361527	0.1	
-0.130611	-0.430628	0.15	
-0.0619298	-0.0870419	0.1	
-0.0538392	-0.0535857	0.1	
-0.080591	-0.0588792	0.1	
-0.0647576	-0.0686517	0.145827	
0.212129	0.396865	0.149953	
0.172208	0.415746	0.1	
0.250007	0.374161	0.1	
0.180378	0.336857	0.1	
0.212129	-0.396865	0.149953	
0.172208	-0.415746	0.1	
0.187286	-0.334755	0.1	
0.250007	-0.374161	0.1	
0.318198	0.318198	0.1	
0.374161	0.250007	0.1	
0.347855	0.285477	0.149953	
0.304312	0.234791	0.1	
0.29265	-0.244884	0.2	
0.318198	-0.318198	0.2	
0.347855	-0.285477	0.149953	
0.374161	-0.250007	0.2	
0.415746	0.172208	0.2	
0.441353	0.0877906	0.2	
0.369533	0.112832	0.2	
0.430623	0.130628	0.149953	
0.441353	-0.0877906	0.2	
0.45	0	0.2	
0.446786	-0.053688	0.149994	
0.384421	-0.0378621	0.2	
-0.285477	0.347854	0.150033	
-0.318198	0.318198	0.2	
-0.248262	0.29482	0.2	
-0.250007	0.374161	0.2	
0.172208	-0.415746	0.2	
0.0877906	-0.441353	0.2	
0.111895	-0.372646	0.2	
0.130628	-0.430623	0.149953	
-0.415746	-0.172208	0.2	
-0.441353	-0.0877906	0.2	
-0.365881	-0.111705	0.2	
-0.430623	-0.130628	0.150047	
-0.0299174	-0.0229457	0.2	
-0.0436673	0.0180876	0.150301	
0.0060848	-2.90377e-05	0.157763	
-0.0200153	-0.0483211	0.151402	
-0.0877906	0.441353	0.2	
-0.172208	0.415746	0.2	
-0.130628	0.430623	0.150047	
-0.108028	0.370407	0.2	
0.257787	-0.293807	0.1	
0.318198	-0.318198	0.1	
0.285477	-0.347855	0.149953	
0.250007	-0.374161	0.1	
0.120589	0.374273	0.1	
0.172208	0.415746	0.1	
0.0877906	0.441353	0.1	
0.130628	0.430623	0.149953	
0.396865	-0.212129	0.149953	
0.374161	-0.250007	0.2	
0.415746	-0.172208	0.2	
0.339399	-0.183579	0.2	
0.374161	0.250007	0.2	
0.297412	0.240191	0.2	
0.318198	0.318198	0.2	
0.347855	0.285477	0.149953	
0.374161	0.250007	0.1	
0.415746	0.172208	0.1	
0.396865	0.212129	0.149953	
0.349981	0.18562	0.1	
0.285477	-0.347855	0.149953	
0.250007	-0.374161	0.2	
0.318198	-0.318198	0.2	
0.25204	-0.306462	0.2	
-0.351668	0.187175	0.1	
-0.374161	0.250007	0.1	
-0.415746	0.172208	0.1	
-0.396866	0.212126	0.150019	
-0.298599	-0.245054	0.2	
-0.318198	-0.318198	0.2	
-0.374161	-0.250007	0.2	
-0.347855	-0.285477	0.149967	
-0.172208	-0.415746	0.2	
-0.212128	-0.396865	0.149972	
-0.250007	-0.374161	0.2	
-0.182092	-0.340669	0.2	
-0.251772	0.306785	0.1	
-0.250007	0.374161	0.1	
-0.318198	0.318198	0.1	
-0.285477	0.347854	0.150033	
0.250007	0.374161	0.2	
0.18581	0.349201	0.2	
0.172208	0.415746	0.2	
0.212129	0.396865	0.149953	
0.194544	-0.0323862	0.1	
0.12107	-0.0431928	0.2	
0.153315	0.00689278	0.1	
0.136366	-0.0453365	0.1	
0.194544	-0.0323862	0.1	
0.153315	0.00689278	0.1	
0.12107	-0.0431928	0.2	
0.201967	-0.00950962	0.2	
-0.190622	-0.0884834	0.2	
-0.258057	-0.0572365	0.1	
-0.203899	-0.0323666	0.1	
-0.209136	-0.0909343	0.1	
-0.190622	-0.0884834	0.2	
-0.203899	-0.0323666	0.1	
-0.258057	-0.0572365	0.1	
-0.256491	-0.0362829	0.2	
-0.110394	-0.216726	0.1	
-0.0659287	-0.28985	0.2	
-0.0529805	-0.19738	0.2	
-0.133674	-0.228308	0.2	
-0.0529805	-0.19738	0.2	
-0.0659287	-0.28985	0.2	
-0.110394	-0.216726	0.1	
-0.0496677	-0.250381	0.1	
0.0279075	-0.16395	0.2	
0.0204871	-0.24099	0.1	
-0.0142517	-0.205249	0.1	
0.0207402	-0.174187	0.1	
-0.0142517	-0.205249	0.1	
0.0204871	-0.24099	0.1	
0.0279075	-0.16395	0.2	
0.0148093	-0.246449	0.2	
-0.142279	-0.0393203	0.151217	
-0.104461	0.000932435	0.1	
-0.140177	0.0445127	0.1	
-0.088703	-0.0138649	0.150815	
-0.142279	-0.0393203	0.151217	
-0.140177	0.0445127	0.1	
-0.104461	0.000932435	0.1	
-0.153293	-0.011499	0.1	
-0.142279	-0.0393203	0.151217	
-0.19804	0.0242816	0.1	
-0.140177	0.0445127	0.1	
-0.153293	-0.011499	0.1	
-0.142279	-0.0393203	0.151217	
-0.140177	0.0445127	0.1	
-0.19804	0.0242816	0.1	
-0.181323	-0.0027565	0.2	
0.268615	-0.174062	0.1	
0.29265	-0.244884	0.2	
0.216652	-0.249073	0.2	
0.287124	-0.235637	0.1	
0.268615	-0.174062	0.1	
0.216652	-0.249073	0.2	
0.29265	-0.244884	0.2	
0.261818	-0.161797	0.2	
0.144601	0.131477	0.2	
0.230865	0.135658	0.1	
0.179715	0.179275	0.1	
0.237285	0.176133	0.2	
0.179715	0.179275	0.1	
0.230865	0.135658	0.1	
0.144601	0.131477	0.2	
0.168985	0.119579	0.1	
0.0922363	-0.215793	0.2	
0.0204871	-0.24099	0.1	
0.0279075	-0.16395	0.2	
0.0725059	-0.197526	0.1	
0.0279075	-0.16395	0.2	
0.0204871	-0.24099	0.1	
0.0922363	-0.215793	0.2	
0.0148093	-0.246449	0.2	
0.0186333	0.101613	0.152058	
0.0250698	0.0602098	0.1	
0	0.045	0.1	
0.00442099	0.0829354	0.1	
0.0186333	0.101613	0.152058	
0	0.045	0.1	
0.0250698	0.0602098	0.1	
0.0396544	0.04868	0.156181	
-0.0647576	-0.0686517	0.145827	
-0.0318198	-0.0318198	0.1	
-0.0276546	-0.0671169	0.1	
-0.0538392	-0.0535857	0.1	
-0.0647576	-0.0686517	0.145827	
-0.0276546	-0.0671169	0.1	
-0.0318198	-0.0318198	0.1	
-0.0200153	-0.0483211	0.151402	
0.111895	-0.372646	0.2	
0.044217	-0.387842	0.1	
0.0511003	-0.317442	0.1	
0.109857	-0.362973	0.1	
0.0511003	-0.317442	0.1	
0.044217	-0.387842	0.1	
0.111895	-0.372646	0.2	
0.0404591	-0.377182	0.2	
0.154944	0.223937	0.2	
0.0906227	0.254757	0.1	
0.0750467	0.185499	0.2	
0.0872949	0.269115	0.2	
0.0750467	0.185499	0.2	
0.0906227	0.254757	0.1	
0.154944	0.223937	0.2	
0.129359	0.208003	0.1	
0.0512771	-0.0404658	0.154914	
0.0060848	-2.90377e-05	0.157763	
0	-0.045	0.1	
-0.0200153	-0.0483211	0.151402	
-0.088703	-0.0138649	0.150815	
-0.0606984	0.0243229	0.1	
-0.045	0	0.1	
-0.0737761	0.00176994	0.1	
-0.088703	-0.0138649	0.150815	
-0.045	0	0.1	
-0.0606984	0.0243229	0.1	
-0.0436673	0.0180876	0.150301	
0.00260765	-0.105267	0.157285	
0.0401753	-0.0586342	0.1	
-0.0200153	-0.0483211	0.151402	
0.0512771	-0.0404658	0.154914	
0.00260765	-0.105267	0.157285	
-0.0200153	-0.0483211	0.151402	
0.0401753	-0.0586342	0.1	
0.00728726	-0.0832273	0.1	
-0.0339688	0.375665	0.2	
0.0450774	0.367889	0.1	
0	0.45	0.15	
0.0381609	0.387454	0.2	
0	0.45	0.15	
0.0450774	0.367889	0.1	
-0.0339688	0.375665	0.2	
-0.0358979	0.379949	0.1	
-0.10824	0.362258	0.1	
-0.0339688	0.375665	0.2	
-0.053688	0.446786	0.150006	
-0.108028	0.370407	0.2	
-0.053688	0.446786	0.150006	
-0.0339688	0.375665	0.2	
-0.10824	0.362258	0.1	
-0.0358979	0.379949	0.1	
-0.318623	-0.0616012	0.2	
-0.356724	-0.11546	0.1	
-0.275518	-0.12132	0.2	
-0.365881	-0.111705	0.2	
-0.318623	-0.0616012	0.2	
-0.275518	-0.12132	0.2	
-0.356724	-0.11546	0.1	
-0.312956	-0.0762135	0.1	
-0.142279	-0.0393203	0.151217	
-0.209136	-0.0909343	0.1	
-0.160221	-0.122206	0.1	
-0.190622	-0.0884834	0.2	
-0.142279	-0.0393203	0.151217	
-0.160221	-0.122206	0.1	
-0.209136	-0.0909343	0.1	
-0.157075	-0.0653284	0.1	
0.268615	-0.174062	0.1	
0.339399	-0.183579	0.2	
0.287371	-0.120299	0.1	
0.261818	-0.161797	0.2	
0.268615	-0.174062	0.1	
0.287371	-0.120299	0.1	
0.339399	-0.183579	0.2	
0.331486	-0.177371	0.1	
0.107822	0.355442	0.2	
0.053688	0.446786	0.149994	
0.0877906	0.441353	0.2	
0.130628	0.430623	0.149953	
0.0877906	0.441353	0.2	
0.053688	0.446786	0.149994	
0.107822	0.355442	0.2	
0.0381609	0.387454	0.2	
-0.13795	-0.29702	0.2	
-0.0659287	-0.28985	0.2	
-0.0615368	-0.322264	0.1	
-0.111587	-0.287654	0.1	
-0.0615368	-0.322264	0.1	
-0.0659287	-0.28985	0.2	
-0.13795	-0.29702	0.2	
-0.112928	-0.360216	0.2	
-0.0615368	-0.322264	0.1	
-0.104718	-0.361527	0.1	
-0.13795	-0.29702	0.2	
-0.111587	-0.287654	0.1	
-0.13795	-0.29702	0.2	
-0.104718	-0.361527	0.1	
-0.0615368	-0.322264	0.1	
-0.112928	-0.360216	0.2	
-0.269145	-0.181189	0.1	
-0.331484	-0.17939	0.1	
-0.265692	-0.195501	0.2	
-0.327578	-0.175094	0.2	
-0.269145	-0.181189	0.1	
-0.265692	-0.195501	0.2	
-0.331484	-0.17939	0.1	
-0.29175	-0.237189	0.1	
-0.298599	-0.245054	0.2	
-0.265692	-0.195501	0.2	
-0.331484	-0.17939	0.1	
-0.327578	-0.175094	0.2	
-0.298599	-0.245054	0.2	
-0.331484	-0.17939	0.1	
-0.265692	-0.195501	0.2	
-0.29175	-0.237189	0.1	
-0.351668	0.187175	0.1	
-0.287124	0.235637	0.2	
-0.300257	0.152847	0.1	
-0.292926	0.235471	0.1	
-0.351668	0.187175	0.1	
-0.300257	0.152847	0.1	
-0.287124	0.235637	0.2	
-0.32913	0.168426	0.2	
0.331486	-0.177371	0.1	
0.348465	-0.103096	0.2	
0.430623	-0.130628	0.149953	
0.357114	-0.107098	0.1	
0.331486	-0.177371	0.1	
0.430623	-0.130628	0.149953	
0.348465	-0.103096	0.2	
0.339399	-0.183579	0.2	
0.0512771	-0.0404658	0.154914	
0.0202986	-0.00819178	0.1	
0	-0.045	0.1	
0.0060848	-2.90377e-05	0.157763	
0.0512771	-0.0404658	0.154914	
0	-0.045	0.1	
0.0202986	-0.00819178	0.1	
0.0318198	-0.0318198	0.1	
0.357114	-0.107098	0.1	
0.384421	-0.0378621	0.2	
0.324791	-0.0252069	0.2	
0.348465	-0.103096	0.2	
0.324791	-0.0252069	0.2	
0.384421	-0.0378621	0.2	
0.357114	-0.107098	0.1	
0.374822	-0.0324999	0.1	
0.324791	-0.0252069	0.2	
0.303447	-0.0554764	0.1	
0.357114	-0.107098	0.1	
0.348465	-0.103096	0.2	
0.357114	-0.107098	0.1	
0.303447	-0.0554764	0.1	
0.324791	-0.0252069	0.2	
0.374822	-0.0324999	0.1	
CELLS 2144 10720
4	0	1	2	3	
4	4	5	6	7	
4	8	9	10	11	
4	12	13	14	15	
4	16	17	18	19	
4	20	21	22	23	
4	24	25	26	27	
4	28	29	30	31	
4	32	33	34	35	
4	36	37	38	39	
4	40	41	42	43	
4	44	45	46	47	
4	48	49	50	51	
4	52	53	54	55	
4	56	57	58	59	
4	60	61	62	63	
4	64	65	66	67	
4	68	69	70	71	
4	72	73	74	75	
4	76	77	78	79	
4	80	81	82	83	
4	84	85	86	87	
4	88	89	90	91	
4	92	93	94	95	
4	96	97	98	99	
4	100	101	102	103	
4	104	105	106	107	
4	108	109	110	111	
4	112	113	114	115	
4	116	117	118	119	
4	120	121	122	123	
4	124	125	126	127	
4	128	129	130	131	
4	132	133	134	135	
4	136	137	138	139	
4	140	141	142	143	
4	144	145	146	147	
4	148	149	150	151	
4	152	153	154	155	
4	156	157	158	159	
4	160	161	162	163	
4	164	165	166	167	
4	168	169	170	171	
4	172	173	174	175	
4	176	177	178	179	
4	180	181	182	183	
4	184	185	186	187	
4	188	189	190	191	
4	192	193	194	195	
4	196	197	198	199	
4	200	201	202	203	
4	204	205	206	207	
4	208	209	210	211	
4	212	213	214	215	
4	216	217	218	219	
4	220	221	222	223	
4	224	225	226	227	
4	228	229	230	231	
4	232	233	234	235	
4	236	237	238	239	
4	240	241	242	243	
4	244	245	246	247	
4	248	249	250	251	
4	252	253	254	255	
4	256	257	258	259	
4	260	261	262	263	
4	264	265	266	267	
4	268	269	270	271	
4	272	273	274	275	
4	276	277	278	279	
4	280	281	282	283	
4	284	285	286	287	
4	288	289	290	291	
4	292	293	294	295	
4	296	297	298	299	
4	300	301	302	303	
4	304	305	306	307	
4	308	309	310	311	
4	312	313	314	315	
4	316	317	318	319	
4	320	321	322	323	
4	324	325	326	327	
4	328	329	330	331	
4	332	333	334	335	
4	336	337	338	339	
4	340	341	342	343	
4	344	345	346	347	
4	348	349	350	351	
4	352	353	354	355	
4	356	357	358	359	
4	360	361	362	363	
4	364	365	366	367	
4	368	369	370	371	
4	372	373	374	375	
4	376	377	378	379	
4	380	381	382	383	
4	384	385	386	387	
4	388	389	390	391	
4	392	393	394	395	
4	396	397	398	399	
4	400	401	402	403	
4	404	405	406	407	
4	408	409	410	411	
4	412	413	414	415	
4	416	417	418	419	
4	420	421	422	423	
4	424	425	426	427	
4	428	429	430	431	
4	432	433	434	435	
4	436	437	438	439	
4	440	441	442	443	
4	444	445	446	447	
4	448	449	450	451	
4	452	453	454	455	
4	456	457	458	459	
4	460	461	462	463	
4	464	465	466	467	
4	468	469	470	471	
4	472	473	474	475	
4	476	477	478	479	
4	480	481	482	483	
4	484	485	486	487	
4	488	489	490	491	
4	492	493	494	495	
4	496	497	498	499	
4	500	501	502	503	
4	504	505	506	507	
4	508	509	510	511	
4	512	513	514	515	
4	516	517	518	519	
4	520	521	522	523	
4	524	525	526	527	
4	528	529	530	531	
4	532	533	534	535	
4	536	537	538	539	
4	540	541	542	543	
4	544	545	546	547	
4	548	549	550	551	
4	552	553	554	555	
4	556	557	558	559	
4	560	561	562	563	
4	564	565	566	567	
4	568	569	570	571	
4	572	573	574	575	
4	576	577	578	579	
4	580	581	582	583	
4	584	585	586	587	
4	588	589	590	591	
4	592	593	594	595	
4	596	597	598	599	
4	600	601	602	603	
4	604	605	606	607	
4	608	609	610	611	
4	612	613	614	615	
4	616	617	618	619	
4	620	621	622	623	
4	624	625	626	627	
4	628	629	630	631	
4	632	633	634	635	
4	636	637	638	639	
4	640	641	642	643	
4	644	645	646	647	
4	648	649	650	651	
4	652	653	654	655	
4	656	657	658	659	
4	660	661	662	663	
4	664	665	666	667	
4	668	669	670	671	
4	672	673	674	675	
4	676	677	678	679	
4	680	681	682	683	
4	684	685	686	687	
4	688	689	690	691	
4	692	693	694	695	
4	696	697	698	699	
4	700	701	702	703	
4	704	705	706	707	
4	708	709	710	711	
4	712	713	714	715	
4	716	717	718	719	
4	720	721	722	723	
4	724	725	726	727	
4	728	729	730	731	
4	732	733	734	735	
4	736	737	738	739	
4	740	741	742	743	
4	744	745	746	747	
4	748	749	750	751	
4	752	753	754	755	
4	756	757	758	759	
4	760	761	762	763	
4	764	765	766	767	
4	768	769	770	771	
4	772	773	774	775	
4	776	777	778	779	
4	780	781	782	783	
4	784	785	786	787	
4	788	789	790	791	
4	792	793	794	795	
4	796	797	798	799	
4	800	801	802	803	
4	804	805	806	807	
4	808	809	810	811	
4	812	813	814	815	
4	816	817	818	819	
4	820	821	822	823	
4	824	825	826	827	
4	828	829	830	831	
4	832	833	834	835	
4	836	837	838	839	
4	840	841	842	843	
4	844	845	846	847	
4	848	849	850	851	
4	852	853	854	855	
4	856	857	858	859	
4	860	861	862	863	
4	864	865	866	867	
4	868	869	870	871	
4	872	873	874	875	
4	876	877	878	879	
4	880	881	882	883	
4	884	885	886	887	
4	888	889	890	891	
4	892	893	894	895	
4	896	897	898	899	
4	900	901	902	903	
4	904	905	906	907	
4	908	909	910	911	
4	912	913	914	915	
4	916	917	918	919	
4	920	921	922	923	
4	924	925	926	927	
4	928	929	930	931	
4	932	933	934	935	
4	936	937	938	939	
4	940	941	942	943	
4	944	945	946	947	
4	948	949	950	951	
4	952	953	954	955	
4	956	957	958	959	
4	960	961	962	963	
4	964	965	966	967	
4	968	969	970	971	
4	972	973	974	975	
4	976	977	978	979	
4	980	981	982	983	
4	984	985	986	987	
4	988	989	990	991	
4	992	993	994	995	
4	996	997	998	999	
4	1000	1001	1002	1003	
4	1004	1005	1006	1007	
4	1008	1009	1010	1011	
4	1012	1013	1014	1015	
4	1016	1017	1018	1019	
4	1020	1021	1022	1023	
4	1024	1025	1026	1027	
4	1028	1029	1030	1031	
4	1032	1033	1034	1035	
4	1036	1037	1038	1039	
4	1040	1041	1042	1043	
4	1044	1045	1046	1047	
4	1048	1049	1050	1051	
4	1052	1053	1054	1055	
4	1056	1057	1058	1059	
4	1060	1061	1062	1063	
4	1064	1065	1066	1067	
4	1068	1069	1070	1071	
4	1072	1073	1074	1075	
4	1076	1077	1078	1079	
4	1080	1081	1082	1083	
4	1084	1085	1086	1087	
4	1088	1089	1090	1091	
4	1092	1093	1094	1095	
4	1096	1097	1098	1099	
4	1100	1101	1102	1103	
4	1104	1105	1106	1107	
4	1108	1109	1110	1111	
4	1112	1113	1114	1115	
4	1116	1117	1118	1119	
4	1120	1121	1122	1123	
4	1124	1125	1126	1127	
4	1128	1129	1130	1131	
4	1132	1133	1134	1135	
4	1136	1137	1138	1139	
4	1140	1141	1142	1143	
4	1144	1145	1146	1147	
4	1148	1149	1150	1151	
4	1152	1153	1154	1155	
4	1156	1157	1158	1159	
4	1160	1161	1162	1163	
4	1164	1165	1166	1167	
4	1168	1169	1170	1171	
4	1172	1173	1174	1175	
4	1176	1177	1178	1179	
4	1180	1181	1182	1183	
4	1184	1185	1186	1187	
4	1188	1189	1190	1191	
4	1192	1193	1194	1195	
4	1196	1197	1198	1199	
4	1200	1201	1202	1203	
4	1204	1205	1206	1207	
4	1208	1209	1210	1211	
4	1212	1213	1214	1215	
4	1216	1217	1218	1219	
4	1220	1221	1222	1223	
4	1224	1225	1226	1227	
4	1228	1229	1230	1231	
4	1232	1233	1234	1235	
4	1236	1237	1238	1239	
4	1240	1241	1242	1243	
4	1244	1245	1246	1247	
4	1248	1249	1250	1251	
4	1252	1253	1254	1255	
4	1256	1257	1258	1259	
4	1260	1261	1262	1263	
4	1264	1265	1266	1267	
4	1268	1269	1270	1271	
4	1272	1273	1274	1275	
4	1276	1277	1278	1279	
4	1280	1281	1282	1283	
4	1284	1285	1286	1287	
4	1288	1289	1290	1291	
4	1292	1293	1294	1295	
4	1296	1297	1298	1299	
4	1300	1301	1302	1303	
4	1304	1305	1306	1307	
4	1308	1309	1310	1311	
4	1312	1313	1314	1315	
4	1316	1317	1318	1319	
4	1320	1321	1322	1323	
4	1324	1325	1326	1327	
4	1328	1329	1330	1331	
4	1332	1333	1334	1335	
4	1336	1337	1338	1339	
4	1340	1341	1342	1343	
4	1344	1345	1346	1347	
4	1348	1349	1350	1351	
4	1352	1353	1354	1355	
4	1356	1357	1358	1359	
4	1360	1361	1362	1363	
4	1364	1365	1366	1367	
4	1368	1369	1370	1371	
4	1372	1373	1374	1375	
4	1376	1377	1378	1379	
4	1380	1381	1382	1383	
4	1384	1385	1386	1387	
4	1388	1389	1390	1391	
4	1392	1393	1394	1395	
4	1396	1397	1398	1399	
4	1400	1401	1402	1403	
4	1404	1405	1406	1407	
4	1408	1409	1410	1411	
4	1412	1413	1414	1415	
4	1416	1417	1418	1419	
4	1420	1421	1422	1423	
4	1424	1425	1426	1427	
4	1428	1429	1430	1431	
4	1432	1433	1434	1435	
4	1436	1437	1438	1439	
4	1440	1441	1442	1443	
4	1444	1445	1446	1447	
4	1448	1449	1450	1451	
4	1452	1453	1454	1455	
4	1456	1457	1458	1459	
4	1460	1461	1462	1463	
4	1464	1465	1466	1467	
4	1468	1469	1470	1471	
4	1472	1473	1474	1475	
4	1476	1477	1478	1479	
4	1480	1481	1482	1483	
4	1484	1485	1486	1487	
4	1488	1489	1490	1491	
4	1492	1493	1494	1495	
4	1496	1497	1498	1499	
4	1500	1501	1502	1503	
4	1504	1505	1506	1507	
4	1508	1509	1510	1511	
4	1512	1513	1514	1515	
4	1516	1517	1518	1519	
4	1520	1521	1522	1523	
4	1524	1525	1526	1527	
4	1528	1529	1530	1531	
4	1532	1533	1534	1535	
4	1536	1537	1538	1539	
4	1540	1541	1542	1543	
4	1544	1545	1546	1547	
4	1548	1549	1550	1551	
4	1552	1553	1554	1555	
4	1556	1557	1558	1559	
4	1560	1561	1562	1563	
4	1564	1565	1566	1567	
4	1568	1569	1570	1571	
4	1572	1573	1574	1575	
4	1576	1577	1578	1579	
4	1580	1581	1582	1583	
4	1584	1585	1586	1587	
4	1588	1589	1590	1591	
4	1592	1593	1594	1595	
4	1596	1597	1598	1599	
4	1600	1601	1602	1603	
4	1604	1605	1606	1607	
4	1608	1609	1610	1611	
4	1612	1613	1614	1615	
4	1616	1617	1618	1619	
4	1620	1621	1622	1623	
4	1624	1625	1626	1627	
4	1628	1629	1630	1631	
4	1632	1633	1634	1635	
4	1636	1637	1638	1639	
4	1640	1641	1642	1643	
4	1644	1645	1646	1647	
4	1648	1649	1650	1651	
4	1652	1653	1654	1655	
4	1656	1657	1658	1659	
4	1660	1661	1662	1663	
4	1664	1665	1666	1667	
4	1668	1669	1670	1671	
4	1672	1673	1674	1675	
4	1676	1677	1678	1679	
4	1680	1681	1682	1683	
4	1684	1685	1686	1687	
4	1688	1689	1690	1691	
4	1692	1693	1694	1695	
4	1696	1697	1698	1699	
4	1700	1701	1702	1703	
4	1704	1705	1706	1707	
4	1708	1709	1710	1711	
4	1712	1713	1714	1715	
4	1716	1717	1718	1719	
4	1720	1721	1722	1723	
4	1724	1725	1726	1727	
4	1728	1729	1730	1731	
4	1732	1733	1734	1735	
4	1736	1737	1738	1739	
4	1740	1741	1742	1743	
4	1744	1745	1746	1747	
4	1748	1749	1750	1751	
4	1752	1753	1754	1755	
4	1756	1757	1758	1759	
4	1760	1761	1762	1763	
4	1764	1765	1766	1767	
4	1768	1769	1770	1771	
4	1772	1773	1774	1775	
4	1776	1777	1778	1779	
4	1780	1781	1782	1783	
4	1784	1785	1786	1787	
4	1788	1789	1790	1791	
4	1792	1793	1794	1795	
4	1796	1797	1798	1799	
4	1800	1801	1802	1803	
4	1804	1805	1806	1807	
4	1808	1809	1810	1811	
4	1812	1813	1814	1815	
4	1816	1817	1818	1819	
4	1820	1821	1822	1823	
4	1824	1825	1826	1827	
4	1828	1829	1830	1831	
4	1832	1833	1834	1835	
4	1836	1837	1838	1839	
4	1840	1841	1842	1843	
4	1844	1845	1846	1847	
4	1848	1849	1850	1851	
4	1852	1853	1854	1855	
4	1856	1857	1858	1859	
4	1860	1861	1862	1863	
4	1864	1865	1866	1867	
4	1868	1869	1870	1871	
4	1872	1873	1874	1875	
4	1876	1877	1878	1879	
4	1880	1881	1882	1883	
4	1884	1885	1886	1887	
4	1888	1889	1890	1891	
4	1892	1893	1894	1895	
4	1896	1897	1898	1899	
4	1900	1901	1902	1903	
4	1904	1905	1906	1907	
4	1908	1909	1910	1911	
4	1912	1913	1914	1915	
4	1916	1917	1918	1919	
4	1920	1921	1922	1923	
4	1924	1925	1926	1927	
4	1928	1929	1930	1931	
4	1932	1933	1934	1935	
4	1936	1937	1938	1939	
4	1940	1941	1942	1943	
4	1944	1945	1946	1947	
4	1948	1949	1950	1951	
4	1952	1953	1954	1955	
4	1956	1957	1958	1959	
4	1960	1961	1962	1963	
4	1964	1965	1966	1967	
4	1968	1969	1970	1971	
4	1972	1973	1974	1975	
4	1976	1977	1978	1979	
4	1980	1981	1982	1983	
4	1984	1985	1986	1987	
4	1988	1989	1990	1991	
4	1992	1993	1994	1995	
4	1996	1997	1998	1999	
4	2000	2001	2002	2003	
4	2004	2005	2006	2007	
4	2008	2009	2010	2011	
4	2012	2013	2014	2015	
4	2016	2017	2018	2019	
4	2020	2021	2022	2023	
4	2024	2025	2026	2027	
4	2028	2029	2030	2031	
4	2032	2033	2034	2035	
4	2036	2037	2038	2039	
4	2040	2041	2042	2043	
4	2044	2045	2046	2047	
4	2048	2049	2050	2051	
4	2052	2053	2054	2055	
4	2056	2057	2058	2059	
4	2060	2061	2062	2063	
4	2064	2065	2066	2067	
4	2068	2069	2070	2071	
4	2072	2073	2074	2075	
4	2076	2077	2078	2079	
4	2080	2081	2082	2083	
4	2084	2085	2086	2087	
4	2088	2089	2090	2091	
4	2092	2093	2094	2095	
4	2096	2097	2098	2099	
4	2100	2101	2102	2103	
4	2104	2105	2106	2107	
4	2108	2109	2110	2111	
4	2112	2113	2114	2115	
4	2116	2117	2118	2119	
4	2120	2121	2122	2123	
4	2124	2125	2126	2127	
4	2128	2129	2130	2131	
4	2132	2133	2134	2135	
4	2136	2137	2138	2139	
4	2140	2141	2142	2143	
4	2144	2145	2146	2147	
4	2148	2149	2150	2151	
4	2152	2153	2154	2155	
4	2156	2157	2158	2159	
4	2160	2161	2162	2163	
4	2164	2165	2166	2167	
4	2168	2169	2170	2171	
4	2172	2173	2174	2175	
4	2176	2177	2178	2179	
4	2180	2181	2182	2183	
4	2184	2185	2186	2187	
4	2188	2189	2190	2191	
4	2192	2193	2194	2195	
4	2196	2197	2198	2199	
4	2200	2201	2202	2203	
4	2204	2205	2206	2207	
4	2208	2209	2210	2211	
4	2212	2213	2214	2215	
4	2216	2217	2218	2219	
4	2220	2221	2222	2223	
4	2224	2225	2226	2227	
4	2228	2229	2230	2231	
4	2232	2233	2234	2235	
4	2236	2237	2238	2239	
4	2240	2241	2242	2243	
4	2244	2245	2246	2247	
4	2248	2249	2250	2251	
4	2252	2253	2254	2255	
4	2256	2257	2258	2259	
4	2260	2261	2262	2263	
4	2264	2265	2266	2267	
4	2268	2269	2270	2271	
4	2272	2273	2274	2275	
4	2276	2277	2278	2279	
4	2280	2281	2282	2283	
4	2284	2285	2286	2287	
4	2288	2289	2290	2291	
4	2292	2293	2294	2295	
4	2296	2297	2298	2299	
4	2300	2301	2302	2303	
4	2304	2305	2306	2307	
4	2308	2309	2310	2311	
4	2312	2313	2314	2315	
4	2316	2317	2318	2319	
4	2320	2321	2322	2323	
4	2324	2325	2326	2327	
4	2328	2329	2330	2331	
4	2332	2333	2334	2335	
4	2336	2337	2338	2339	
4	2340	2341	2342	2343	
4	2344	2345	2346	2347	
4	2348	2349	2350	2351	
4	2352	2353	2354	2355	
4	2356	2357	2358	2359	
4	2360	2361	2362	2363	
4	2364	2365	2366	2367	
4	2368	2369	2370	2371	
4	2372	2373	2374	2375	
4	2376	2377	2378	2379	
4	2380	2381	2382	2383	
4	2384	2385	2386	2387	
4	2388	2389	2390	2391	
4	2392	2393	2394	2395	
4	2396	2397	2398	2399	
4	2400	2401	2402	2403	
4	2404	2405	2406	2407	
4	2408	2409	2410	2411	
4	2412	2413	2414	2415	
4	2416	2417	2418	2419	
4	2420	2421	2422	2423	
4	2424	2425	2426	2427	
4	2428	2429	2430	2431	
4	2432	2433	2434	2435	
4	2436	2437	2438	2439	
4	2440	2441	2442	2443	
4	2444	2445	2446	2447	
4	2448	2449	2450	2451	
4	2452	2453	2454	2455	
4	2456	2457	2458	2459	
4	2460	2461	2462	2463	
4	2464	2465	2466	2467	
4	2468	2469	2470	2471	
4	2472	2473	2474	2475	
4	2476	2477	2478	2479	
4	2480	2481	2482	2483	
4	2484	2485	2486	2487	
4	2488	2489	2490	2491	
4	2492	2493	2494	2495	
4	2496	2497	2498	2499	
4	2500	2501	2502	2503	
4	2504	2505	2506	2507	
4	2508	2509	2510	2511	
4	2512	2513	2514	2515	
4	2516	2517	2518	2519	
4	2520	2521	2522	2523	
4	2524	2525	2526	2527	
4	2528	2529	2530	2531	
4	2532	2533	2534	2535	
4	2536	2537	2538	2539	
4	2540	2541	2542	2543	
4	2544	2545	2546	2547	
4	2548	2549	2550	2551	
4	2552	2553	2554	2555	
4	2556	2557	2558	2559	
4	2560	2561	2562	2563	
4	2564	2565	2566	2567	
4	2568	2569	2570	2571	
4	2572	2573	2574	2575	
4	2576	2577	2578	2579	
4	2580	2581	2582	2583	
4	2584	2585	2586	2587	
4	2588	2589	2590	2591	
4	2592	2593	2594	2595	
4	2596	2597	2598	2599	
4	2600	2601	2602	2603	
4	2604	2605	2606	2607	
4	2608	2609	2610	2611	
4	2612	2613	2614	2615	
4	2616	2617	2618	2619	
4	2620	2621	2622	2623	
4	2624	2625	2626	2627	
4	2628	2629	2630	2631	
4	2632	2633	2634	2635	
4	2636	2637	2638	2639	
4	2640	2641	2642	2643	
4	2644	2645	2646	2647	
4	2648	2649	2650	2651	
4	2652	2653	2654	2655	
4	2656	2657	2658	2659	
4	2660	2661	2662	2663	
4	2664	2665	2666	2667	
4	2668	2669	2670	2671	
4	2672	2673	2674	2675	
4	2676	2677	2678	2679	
4	2680	2681	2682	2683	
4	2684	2685	2686	2687	
4	2688	2689	2690	2691	
4	2692	2693	2694	2695	
4	2696	2697	2698	2699	
4	2700	2701	2702	2703	
4	2704	2705	2706	2707	
4	2708	2709	2710	2711	
4	2712	2713	2714	2715	
4	2716	2717	2718	2719	
4	2720	2721	2722	2723	
4	2724	2725	2726	2727	
4	2728	2729	2730	2731	
4	2732	2733	2734	2735	
4	2736	2737	2738	2739	
4	2740	2741	2742	2743	
4	2744	2745	2746	2747	
4	2748	2749	2750	2751	
4	2752	2753	2754	2755	
4	2756	2757	2758	2759	
4	2760	2761	2762	2763	
4	2764	2765	2766	2767	
4	2768	2769	2770	2771	
4	2772	2773	2774	2775	
4	2776	2777	2778	2779	
4	2780	2781	2782	2783	
4	2784	2785	2786	2787	
4	2788	2789	2790	2791	
4	2792	2793	2794	2795	
4	2796	2797	2798	2799	
4	2800	2801	2802	2803	
4	2804	2805	2806	2807	
4	2808	2809	2810	2811	
4	2812	2813	2814	2815	
4	2816	2817	2818	2819	
4	2820	2821	2822	2823	
4	2824	2825	2826	2827	
4	2828	2829	2830	2831	
4	2832	2833	2834	2835	
4	2836	2837	2838	2839	
4	2840	2841	2842	2843	
4	2844	2845	2846	2847	
4	2848	2849	2850	2851	
4	2852	2853	2854	2855	
4	2856	2857	2858	2859	
4	2860	2861	2862	2863	
4	2864	2865	2866	2867	
4	2868	2869	2870	2871	
4	2872	2873	2874	2875	
4	2876	2877	2878	2879	
4	2880	2881	2882	2883	
4	2884	2885	2886	2887	
4	2888	2889	2890	2891	
4	2892	2893	2894	2895	
4	2896	2897	2898	2899	
4	2900	2901	2902	2903	
4	2904	2905	2906	2907	
4	2908	2909	2910	2911	
4	2912	2913	2914	2915	
4	2916	2917	2918	2919	
4	2920	2921	2922	2923	
4	2924	2925	2926	2927	
4	2928	2929	2930	2931	
4	2932	2933	2934	2935	
4	2936	2937	2938	2939	
4	2940	2941	2942	2943	
4	2944	2945	2946	2947	
4	2948	2949	2950	2951	
4	2952	2953	2954	2955	
4	2956	2957	2958	2959	
4	2960	2961	2962	2963	
4	2964	2965	2966	2967	
4	2968	2969	2970	2971	
4	2972	2973	2974	2975	
4	2976	2977	2978	2979	
4	2980	2981	2982	2983	
4	2984	2985	2986	2987	
4	2988	2989	2990	2991	
4	2992	2993	2994	2995	
4	2996	2997	2998	2999	
4	3000	3001	3002	3003	
4	3004	3005	3006	3007	
4	3008	3009	3010	3011	
4	3012	3013	3014	3015	
4	3016	3017	3018	3019	
4	3020	3021	3022	3023	
4	3024	3025	3026	3027	
4	3028	3029	3030	3031	
4	3032	3033	3034	3035	
4	3036	3037	3038	3039	
4	3040	3041	3042	3043	
4	3044	3045	3046	3047	
4	3048	3049	3050	3051	
4	3052	3053	3054	3055	
4	3056	3057	3058	3059	
4	3060	3061	3062	3063	
4	3064	3065	3066	3067	
4	3068	3069	3070	3071	
4	3072	3073	3074	3075	
4	3076	3077	3078	3079	
4	3080	3081	3082	3083	
4	3084	3085	3086	3087	
4	3088	3089	3090	3091	
4	3092	3093	3094	3095	
4	3096	3097	3098	3099	
4	3100	3101	3102	3103	
4	3104	3105	3106	3107	
4	3108	3109	3110	3111	
4	3112	3113	3114	3115	
4	3116	3117	3118	3119	
4	3120	3121	3122	3123	
4	3124	3125	3126	3127	
4	3128	3129	3130	3131	
4	3132	3133	3134	3135	
4	3136	3137	3138	3139	
4	3140	3141	3142	3143	
4	3144	3145	3146	3147	
4	3148	3149	3150	3151	
4	3152	3153	3154	3155	
4	3156	3157	3158	3159	
4	3160	3161	3162	3163	
4	3164	3165	3166	3167	
4	3168	3169	3170	3171	
4	3172	3173	3174	3175	
4	3176	3177	3178	3179	
4	3180	3181	3182	3183	
4	3184	3185	3186	3187	
4	3188	3189	3190	3191	
4	3192	3193	3194	3195	
4	3196	3197	3198	3199	
4	3200	3201	3202	3203	
4	3204	3205	3206	3207	
4	3208	3209	3210	3211	
4	3212	3213	3214	3215	
4	3216	3217	3218	3219	
4	3220	3221	3222	3223	
4	3224	3225	3226	3227	
4	3228	3229	3230	3231	
4	3232	3233	3234	3235	
4	3236	3237	3238	3239	
4	3240	3241	3242	3243	
4	3244	3245	3246	3247	
4	3248	3249	3250	3251	
4	3252	3253	3254	3255	
4	3256	3257	3258	3259	
4	3260	3261	3262	3263	
4	3264	3265	3266	3267	
4	3268	3269	3270	3271	
4	3272	3273	3274	3275	
4	3276	3277	3278	3279	
4	3280	3281	3282	3283	
4	3284	3285	3286	3287	
4	3288	3289	3290	3291	
4	3292	3293	3294	3295	
4	3296	3297	3298	3299	
4	3300	3301	3302	3303	
4	3304	3305	3306	3307	
4	3308	3309	3310	3311	
4	3312	3313	3314	3315	
4	3316	3317	3318	3319	
4	3320	3321	3322	3323	
4	3324	3325	3326	3327	
4	3328	3329	3330	3331	
4	3332	3333	3334	3335	
4	3336	3337	3338	3339	
4	3340	3341	3342	3343	
4	3344	3345	3346	3347	
4	3348	3349	3350	3351	
4	3352	3353	3354	3355	
4	3356	3357	3358	3359	
4	3360	3361	3362	3363	
4	3364	3365	3366	3367	
4	3368	3369	3370	3371	
4	3372	3373	3374	3375	
4	3376	3377	3378	3379	
4	3380	3381	3382	3383	
4	3384	3385	3386	3387	
4	3388	3389	3390	3391	
4	3392	3393	3394	3395	
4	3396	3397	3398	3399	
4	3400	3401	3402	3403	
4	3404	3405	3406	3407	
4	3408	3409	3410	3411	
4	3412	3413	3414	3415	
4	3416	3417	3418	3419	
4	3420	3421	3422	3423	
4	3424	3425	3426	3427	
4	3428	3429	3430	3431	
4	3432	3433	3434	3435	
4	3436	3437	3438	3439	
4	3440	3441	3442	3443	
4	3444	3445	3446	3447	
4	3448	3449	3450	3451	
4	3452	3453	3454	3455	
4	3456	3457	3458	3459	
4	3460	3461	3462	3463	
4	3464	3465	3466	3467	
4	3468	3469	3470	3471	
4	3472	3473	3474	3475	
4	3476	3477	3478	3479	
4	3480	3481	3482	3483	
4	3484	3485	3486	3487	
4	3488	3489	3490	3491	
4	3492	3493	3494	3495	
4	3496	3497	3498	3499	
4	3500	3501	3502	3503	
4	3504	3505	3506	3507	
4	3508	3509	3510	3511	
4	3512	3513	3514	3515	
4	3516	3517	3518	3519	
4	3520	3521	3522	3523	
4	3524	3525	3526	3527	
4	3528	3529	3530	3531	
4	3532	3533	3534	3535	
4	3536	3537	3538	3539	
4	3540	3541	3542	3543	
4	3544	3545	3546	3547	
4	3548	3549	3550	3551	
4	3552	3553	3554	3555	
4	3556	3557	3558	3559	
4	3560	3561	3562	3563	
4	3564	3565	3566	3567	
4	3568	3569	3570	3571	
4	3572	3573	3574	3575	
4	3576	3577	3578	3579	
4	3580	3581	3582	3583	
4	3584	3585	3586	3587	
4	3588	3589	3590	3591	
4	3592	3593	3594	3595	
4	3596	3597	3598	3599	
4	3600	3601	3602	3603	
4	3604	3605	3606	3607	
4	3608	3609	3610	3611	
4	3612	3613	3614	3615	
4	3616	3617	3618	3619	
4	3620	3621	3622	3623	
4	3624	3625	3626	3627	
4	3628	3629	3630	3631	
4	3632	3633	3634	3635	
4	3636	3637	3638	3639	
4	3640	3641	3642	3643	
4	3644	3645	3646	3647	
4	3648	3649	3650	3651	
4	3652	3653	3654	3655	
4	3656	3657	3658	3659	
4	3660	3661	3662	3663	
4	3664	3665	3666	3667	
4	3668	3669	3670	3671	
4	3672	3673	3674	3675	
4	3676	3677	3678	3679	
4	3680	3681	3682	3683	
4	3684	3685	3686	3687	
4	3688	3689	3690	3691	
4	3692	3693	3694	3695	
4	3696	3697	3698	3699	
4	3700	3701	3702	3703	
4	3704	3705	3706	3707	
4	3708	3709	3710	3711	
4	3712	3713	3714	3715	
4	3716	3717	3718	3719	
4	3720	3721	3722	3723	
4	3724	3725	3726	3727	
4	3728	3729	3730	3731	
4	3732	3733	3734	3735	
4	3736	3737	3738	3739	
4	3740	3741	3742	3743	
4	3744	3745	3746	3747	
4	3748	3749	3750	3751	
4	3752	3753	3754	3755	
4	3756	3757	3758	3759	
4	3760	3761	3762	3763	
4	3764	3765	3766	3767	
4	3768	3769	3770	3771	
4	3772	3773	3774	3775	
4	3776	3777	3778	3779	
4	3780	3781	3782	3783	
4	3784	3785	3786	3787	
4	3788	3789	3790	3791	
4	3792	3793	3794	3795	
4	3796	3797	3798	3799	
4	3800	3801	3802	3803	
4	3804	3805	3806	3807	
4	3808	3809	3810	3811	
4	3812	3813	3814	3815	
4	3816	3817	3818	3819	
4	3820	3821	3822	3823	
4	3824	3825	3826	3827	
4	3828	3829	3830	3831	
4	3832	3833	3834	3835	
4	3836	3837	3838	3839	
4	3840	3841	3842	3843	
4	3844	3845	3846	3847	
4	3848	3849	3850	3851	
4	3852	3853	3854	3855	
4	3856	3857	3858	3859	
4	3860	3861	3862	3863	
4	3864	3865	3866	3867	
4	3868	3869	3870	3871	
4	3872	3873	3874	3875	
4	3876	3877	3878	3879	
4	3880	3881	3882	3883	
4	3884	3885	3886	3887	
4	3888	3889	3890	3891	
4	3892	3893	3894	3895	
4	3896	3897	3898	3899	
4	3900	3901	3902	3903	
4	3904	3905	3906	3907	
4	3908	3909	3910	3911	
4	3912	3913	3914	3915	
4	3916	3917	3918	3919	
4	3920	3921	3922	3923	
4	3924	3925	3926	3927	
4	3928	3929	3930	3931	
4	3932	3933	3934	3935	
4	3936	3937	3938	3939	
4	3940	3941	3942	3943	
4	3944	3945	3946	3947	
4	3948	3949	3950	3951	
4	3952	3953	3954	3955	
4	3956	3957	3958	3959	
4	3960	3961	3962	3963	
4	3964	3965	3966	3967	
4	3968	3969	3970	3971	
4	3972	3973	3974	3975	
4	3976	3977	3978	3979	
4	3980	3981	3982	3983	
4	3984	3985	3986	3987	
4	3988	3989	3990	3991	
4	3992	3993	3994	3995	
4	3996	3997	3998	3999	
4	4000	4001	4002	4003	
4	4004	4005	4006	4007	
4	4008	4009	4010	4011	
4	4012	4013	4014	4015	
4	4016	4017	4018	4019	
4	4020	4021	4022	4023	
4	4024	4025	4026	4027	
4	4028	4029	4030	4031	
4	4032	4033	4034	4035	
4	4036	4037	4038	4039	
4	4040	4041	4042	4043	
4	4044	4045	4046	4047	
4	4048	4049	4050	4051	
4	4052	4053	4054	4055	
4	4056	4057	4058	4059	
4	4060	4061	4062	4063	
4	4064	4065	4066	4067	
4	4068	4069	4070	4071	
4	4072	4073	4074	4075	
4	4076	4077	4078	4079	
4	4080	4081	4082	4083	
4	4084	4085	4086	4087	
4	4088	4089	4090	4091	
4	4092	4093	4094	4095	
4	4096	4097	4098	4099	
4	4100	4101	4102	4103	
4	4104	4105	4106	4107	
4	4108	4109	4110	4111	
4	4112	4113	4114	4115	
4	4116	4117	4118	4119	
4	4120	4121	4122	4123	
4	4124	4125	4126	4127	
4	4128	4129	4130	4131	
4	4132	4133	4134	4135	
4	4136	4137	4138	4139	
4	4140	4141	4142	4143	
4	4144	4145	4146	4147	
4	4148	4149	4150	4151	
4	4152	4153	4154	4155	
4	4156	4157	4158	4159	
4	4160	4161	4162	4163	
4	4164	4165	4166	4167	
4	4168	4169	4170	4171	
4	4172	4173	4174	4175	
4	4176	4177	4178	4179	
4	4180	4181	4182	4183	
4	4184	4185	4186	4187	
4	4188	4189	4190	4191	
4	4192	4193	4194	4195	
4	4196	4197	4198	4199	
4	4200	4201	4202	4203	
4	4204	4205	4206	4207	
4	4208	4209	4210	4211	
4	4212	4213	4214	4215	
4	4216	4217	4218	4219	
4	4220	4221	4222	4223	
4	4224	4225	4226	4227	
4	4228	4229	4230	4231	
4	4232	4233	4234	4235	
4	4236	4237	4238	4239	
4	4240	4241	4242	4243	
4	4244	4245	4246	4247	
4	4248	4249	4250	4251	
4	4252	4253	4254	4255	
4	4256	4257	4258	4259	
4	4260	4261	4262	4263	
4	4264	4265	4266	4267	
4	4268	4269	4270	4271	
4	4272	4273	4274	4275	
4	4276	4277	4278	4279	
4	4280	4281	4282	4283	
4	4284	4285	4286	4287	
4	4288	4289	4290	4291	
4	4292	4293	4294	4295	
4	4296	4297	4298	4299	
4	4300	4301	4302	4303	
4	4304	4305	4306	4307	
4	4308	4309	4310	4311	
4	4312	4313	4314	4315	
4	4316	4317	4318	4319	
4	4320	4321	4322	4323	
4	4324	4325	4326	4327	
4	4328	4329	4330	4331	
4	4332	4333	4334	4335	
4	4336	4337	4338	4339	
4	4340	4341	4342	4343	
4	4344	4345	4346	4347	
4	4348	4349	4350	4351	
4	4352	4353	4354	4355	
4	4356	4357	4358	4359	
4	4360	4361	4362	4363	
4	4364	4365	4366	4367	
4	4368	4369	4370	4371	
4	4372	4373	4374	4375	
4	4376	4377	4378	4379	
4	4380	4381	4382	4383	
4	4384	4385	4386	4387	
4	4388	4389	4390	4391	
4	4392	4393	4394	4395	
4	4396	4397	4398	4399	
4	4400	4401	4402	4403	
4	4404	4405	4406	4407	
4	4408	4409	4410	4411	
4	4412	4413	4414	4415	
4	4416	4417	4418	4419	
4	4420	4421	4422	4423	
4	4424	4425	4426	4427	
4	4428	4429	4430	4431	
4	4432	4433	4434	4435	
4	4436	4437	4438	4439	
4	4440	4441	4442	4443	
4	4444	4445	4446	4447	
4	4448	4449	4450	4451	
4	4452	4453	4454	4455	
4	4456	4457	4458	4459	
4	4460	4461	4462	4463	
4	4464	4465	4466	4467	
4	4468	4469	4470	4471	
4	4472	4473	4474	4475	
4	4476	4477	4478	4479	
4	4480	4481	4482	4483	
4	4484	4485	4486	4487	
4	4488	4489	4490	4491	
4	4492	4493	4494	4495	
4	4496	4497	4498	4499	
4	4500	4501	4502	4503	
4	4504	4505	4506	4507	
4	4508	4509	4510	4511	
4	4512	4513	4514	4515	
4	4516	4517	4518	4519	
4	4520	4521	4522	4523	
4	4524	4525	4526	4527	
4	4528	4529	4530	4531	
4	4532	4533	4534	4535	
4	4536	4537	4538	4539	
4	4540	4541	4542	4543	
4	4544	4545	4546	4547	
4	4548	4549	4550	4551	
4	4552	4553	4554	4555	
4	4556	4557	4558	4559	
4	4560	4561	4562	4563	
4	4564	4565	4566	4567	
4	4568	4569	4570	4571	
4	4572	4573	4574	4575	
4	4576	4577	4578	4579	
4	4580	4581	4582	4583	
4	4584	4585	4586	4587	
4	4588	4589	4590	4591	
4	4592	4593	4594	4595	
4	4596	4597	4598	4599	
4	4600	4601	4602	4603	
4	4604	4605	4606	4607	
4	4608	4609	4610	4611	
4	4612	4613	4614	4615	
4	4616	4617	4618	4619	
4	4620	4621	4622	4623	
4	4624	4625	4626	4627	
4	4628	4629	4630	4631	
4	4632	4633	4634	4635	
4	4636	4637	4638	4639	
4	4640	4641	4642	4643	
4	4644	4645	4646	4647	
4	4648	4649	4650	4651	
4	4652	4653	4654	4655	
4	4656	4657	4658	4659	
4	4660	4661	4662	4663	
4	4664	4665	4666	4667	
4	4668	4669	4670	4671	
4	4672	4673	4674	4675	
4	4676	4677	4678	4679	
4	4680	4681	4682	4683	
4	4684	4685	4686	4687	
4	4688	4689	4690	4691	
4	4692	4693	4694	4695	
4	4696	4697	4698	4699	
4	4700	4701	4702	4703	
4	4704	4705	4706	4707	
4	4708	4709	4710	4711	
4	4712	4713	4714	4715	
4	4716	4717	4718	4719	
4	4720	4721	4722	4723	
4	4724	4725	4726	4727	
4	4728	4729	4730	4731	
4	4732	4733	4734	4735	
4	4736	4737	4738	4739	
4	4740	4741	4742	4743	
4	4744	4745	4746	4747	
4	4748	4749	4750	4751	
4	4752	4753	4754	4755	
4	4756	4757	4758	4759	
4	4760	4761	4762	4763	
4	4764	4765	4766	4767	
4	4768	4769	4770	4771	
4	4772	4773	4774	4775	
4	4776	4777	4778	4779	
4	4780	4781	4782	4783	
4	4784	4785	4786	4787	
4	4788	4789	4790	4791	
4	4792	4793	4794	4795	
4	4796	4797	4798	4799	
4	4800	4801	4802	4803	
4	4804	4805	4806	4807	
4	4808	4809	4810	4811	
4	4812	4813	4814	4815	
4	4816	4817	4818	4819	
4	4820	4821	4822	4823	
4	4824	4825	4826	4827	
4	4828	4829	4830	4831	
4	4832	4833	4834	4835	
4	4836	4837	4838	4839	
4	4840	4841	4842	4843	
4	4844	4845	4846	4847	
4	4848	4849	4850	4851	
4	4852	4853	4854	4855	
4	4856	4857	4858	4859	
4	4860	4861	4862	4863	
4	4864	4865	4866	4867	
4	4868	4869	4870	4871	
4	4872	4873	4874	4875	
4	4876	4877	4878	4879	
4	4880	4881	4882	4883	
4	4884	4885	4886	4887	
4	4888	4889	4890	4891	
4	4892	4893	4894	4895	
4	4896	4897	4898	4899	
4	4900	4901	4902	4903	
4	4904	4905	4906	4907	
4	4908	4909	4910	4911	
4	4912	4913	4914	4915	
4	4916	4917	4918	4919	
4	4920	4921	4922	4923	
4	4924	4925	4926	4927	
4	4928	4929	4930	4931	
4	4932	4933	4934	4935	
4	4936	4937	4938	4939	
4	4940	4941	4942	4943	
4	4944	4945	4946	4947	
4	4948	4949	4950	4951	
4	4952	4953	4954	4955	
4	4956	4957	4958	4959	
4	4960	4961	4962	4963	
4	4964	4965	4966	4967	
4	4968	4969	4970	4971	
4	4972	4973	4974	4975	
4	4976	4977	4978	4979	
4	4980	4981	4982	4983	
4	4984	4985	4986	4987	
4	4988	4989	4990	4991	
4	4992	4993	4994	4995	
4	4996	4997	4998	4999	
4	5000	5001	5002	5003	
4	5004	5005	5006	5007	
4	5008	5009	5010	5011	
4	5012	5013	5014	5015	
4	5016	5017	5018	5019	
4	5020	5021	5022	5023	
4	5024	5025	5026	5027	
4	5028	5029	5030	5031	
4	5032	5033	5034	5035	
4	5036	5037	5038	5039	
4	5040	5041	5042	5043	
4	5044	5045	5046	5047	
4	5048	5049	5050	5051	
4	5052	5053	5054	5055	
4	5056	5057	5058	5059	
4	5060	5061	5062	5063	
4	5064	5065	5066	5067	
4	5068	5069	5070	5071	
4	5072	5073	5074	5075	
4	5076	5077	5078	5079	
4	5080	5081	5082	5083	
4	5084	5085	5086	5087	
4	5088	5089	5090	5091	
4	5092	5093	5094	5095	
4	5096	5097	5098	5099	
4	5100	5101	5102	5103	
4	5104	5105	5106	5107	
4	5108	5109	5110	5111	
4	5112	5113	5114	5115	
4	5116	5117	5118	5119	
4	5120	5121	5122	5123	
4	5124	5125	5126	5127	
4	5128	5129	5130	5131	
4	5132	5133	5134	5135	
4	5136	5137	5138	5139	
4	5140	5141	5142	5143	
4	5144	5145	5146	5147	
4	5148	5149	5150	5151	
4	5152	5153	5154	5155	
4	5156	5157	5158	5159	
4	5160	5161	5162	5163	
4	5164	5165	5166	5167	
4	5168	5169	5170	5171	
4	5172	5173	5174	5175	
4	5176	5177	5178	5179	
4	5180	5181	5182	5183	
4	5184	5185	5186	5187	
4	5188	5189	5190	5191	
4	5192	5193	5194	5195	
4	5196	5197	5198	5199	
4	5200	5201	5202	5203	
4	5204	5205	5206	5207	
4	5208	5209	5210	5211	
4	5212	5213	5214	5215	
4	5216	5217	5218	5219	
4	5220	5221	5222	5223	
4	5224	5225	5226	5227	
4	5228	5229	5230	5231	
4	5232	5233	5234	5235	
4	5236	5237	5238	5239	
4	5240	5241	5242	5243	
4	5244	5245	5246	5247	
4	5248	5249	5250	5251	
4	5252	5253	5254	5255	
4	5256	5257	5258	5259	
4	5260	5261	5262	5263	
4	5264	5265	5266	5267	
4	5268	5269	5270	5271	
4	5272	5273	5274	5275	
4	5276	5277	5278	5279	
4	5280	5281	5282	5283	
4	5284	5285	5286	5287	
4	5288	5289	5290	5291	
4	5292	5293	5294	5295	
4	5296	5297	5298	5299	
4	5300	5301	5302	5303	
4	5304	5305	5306	5307	
4	5308	5309	5310	5311	
4	5312	5313	5314	5315	
4	5316	5317	5318	5319	
4	5320	5321	5322	5323	
4	5324	5325	5326	5327	
4	5328	5329	5330	5331	
4	5332	5333	5334	5335	
4	5336	5337	5338	5339	
4	5340	5341	5342	5343	
4	5344	5345	5346	5347	
4	5348	5349	5350	5351	
4	5352	5353	5354	5355	
4	5356	5357	5358	5359	
4	5360	5361	5362	5363	
4	5364	5365	5366	5367	
4	5368	5369	5370	5371	
4	5372	5373	5374	5375	
4	5376	5377	5378	5379	
4	5380	5381	5382	5383	
4	5384	5385	5386	5387	
4	5388	5389	5390	5391	
4	5392	5393	5394	5395	
4	5396	5397	5398	5399	
4	5400	5401	5402	5403	
4	5404	5405	5406	5407	
4	5408	5409	5410	5411	
4	5412	5413	5414	5415	
4	5416	5417	5418	5419	
4	5420	5421	5422	5423	
4	5424	5425	5426	5427	
4	5428	5429	5430	5431	
4	5432	5433	5434	5435	
4	5436	5437	5438	5439	
4	5440	5441	5442	5443	
4	5444	5445	5446	5447	
4	5448	5449	5450	5451	
4	5452	5453	5454	5455	
4	5456	5457	5458	5459	
4	5460	5461	5462	5463	
4	5464	5465	5466	5467	
4	5468	5469	5470	5471	
4	5472	5473	5474	5475	
4	5476	5477	5478	5479	
4	5480	5481	5482	5483	
4	5484	5485	5486	5487	
4	5488	5489	5490	5491	
4	5492	5493	5494	5495	
4	5496	5497	5498	5499	
4	5500	5501	5502	5503	
4	5504	5505	5506	5507	
4	5508	5509	5510	5511	
4	5512	5513	5514	5515	
4	5516	5517	5518	5519	
4	5520	5521	5522	5523	
4	5524	5525	5526	5527	
4	5528	5529	5530	5531	
4	5532	5533	5534	5535	
4	5536	5537	5538	5539	
4	5540	5541	5542	5543	
4	5544	5545	5546	5547	
4	5548	5549	5550	5551	
4	5552	5553	5554	5555	
4	5556	5557	5558	5559	
4	5560	5561	5562	5563	
4	5564	5565	5566	5567	
4	5568	5569	5570	5571	
4	5572	5573	5574	5575	
4	5576	5577	5578	5579	
4	5580	5581	5582	5583	
4	5584	5585	5586	5587	
4	5588	5589	5590	5591	
4	5592	5593	5594	5595	
4	5596	5597	5598	5599	
4	5600	5601	5602	5603	
4	5604	5605	5606	5607	
4	5608	5609	5610	5611	
4	5612	5613	5614	5615	
4	5616	5617	5618	5619	
4	5620	5621	5622	5623	
4	5624	5625	5626	5627	
4	5628	5629	5630	5631	
4	5632	5633	5634	5635	
4	5636	5637	5638	5639	
4	5640	5641	5642	5643	
4	5644	5645	5646	5647	
4	5648	5649	5650	5651	
4	5652	5653	5654	5655	
4	5656	5657	5658	5659	
4	5660	5661	5662	5663	
4	5664	5665	5666	5667	
4	5668	5669	5670	5671	
4	5672	5673	5674	5675	
4	5676	5677	5678	5679	
4	5680	5681	5682	5683	
4	5684	5685	5686	5687	
4	5688	5689	5690	5691	
4	5692	5693	5694	5695	
4	5696	5697	5698	5699	
4	5700	5701	5702	5703	
4	5704	5705	5706	5707	
4	5708	5709	5710	5711	
4	5712	5713	5714	5715	
4	5716	5717	5718	5719	
4	5720	5721	5722	5723	
4	5724	5725	5726	5727	
4	5728	5729	5730	5731	
4	5732	5733	5734	5735	
4	5736	5737	5738	5739	
4	5740	5741	5742	5743	
4	5744	5745	5746	5747	
4	5748	5749	5750	5751	
4	5752	5753	5754	5755	
4	5756	5757	5758	5759	
4	5760	5761	5762	5763	
4	5764	5765	5766	5767	
4	5768	5769	5770	5771	
4	5772	5773	5774	5775	
4	5776	5777	5778	5779	
4	5780	5781	5782	5783	
4	5784	5785	5786	5787	
4	5788	5789	5790	5791	
4	5792	5793	5794	5795	
4	5796	5797	5798	5799	
4	5800	5801	5802	5803	
4	5804	5805	5806	5807	
4	5808	5809	5810	5811	
4	5812	5813	5814	5815	
4	5816	5817	5818	5819	
4	5820	5821	5822	5823	
4	5824	5825	5826	5827	
4	5828	5829	5830	5831	
4	5832	5833	5834	5835	
4	5836	5837	5838	5839	
4	5840	5841	5842	5843	
4	5844	5845	5846	5847	
4	5848	5849	5850	5851	
4	5852	5853	5854	5855	
4	5856	5857	5858	5859	
4	5860	5861	5862	5863	
4	5864	5865	5866	5867	
4	5868	5869	5870	5871	
4	5872	5873	5874	5875	
4	5876	5877	5878	5879	
4	5880	5881	5882	5883	
4	5884	5885	5886	5887	
4	5888	5889	5890	5891	
4	5892	5893	5894	5895	
4	5896	5897	5898	5899	
4	5900	5901	5902	5903	
4	5904	5905	5906	5907	
4	5908	5909	5910	5911	
4	5912	5913	5914	5915	
4	5916	5917	5918	5919	
4	5920	5921	5922	5923	
4	5924	5925	5926	5927	
4	5928	5929	5930	5931	
4	5932	5933	5934	5935	
4	5936	5937	5938	5939	
4	5940	5941	5942	5943	
4	5944	5945	5946	5947	
4	5948	5949	5950	5951	
4	5952	5953	5954	5955	
4	5956	5957	5958	5959	
4	5960	5961	5962	5963	
4	5964	5965	5966	5967	
4	5968	5969	5970	5971	
4	5972	5973	5974	5975	
4	5976	5977	5978	5979	
4	5980	5981	5982	5983	
4	5984	5985	5986	5987	
4	5988	5989	5990	5991	
4	5992	5993	5994	5995	
4	5996	5997	5998	5999	
4	6000	6001	6002	6003	
4	6004	6005	6006	6007	
4	6008	6009	6010	6011	
4	6012	6013	6014	6015	
4	6016	6017	6018	6019	
4	6020	6021	6022	6023	
4	6024	6025	6026	6027	
4	6028	6029	6030	6031	
4	6032	6033	6034	6035	
4	6036	6037	6038	6039	
4	6040	6041	6042	6043	
4	6044	6045	6046	6047	
4	6048	6049	6050	6051	
4	6052	6053	6054	6055	
4	6056	6057	6058	6059	
4	6060	6061	6062	6063	
4	6064	6065	6066	6067	
4	6068	6069	6070	6071	
4	6072	6073	6074	6075	
4	6076	6077	6078	6079	
4	6080	6081	6082	6083	
4	6084	6085	6086	6087	
4	6088	6089	6090	6091	
4	6092	6093	6094	6095	
4	6096	6097	6098	6099	
4	6100	6101	6102	6103	
4	6104	6105	6106	6107	
4	6108	6109	6110	6111	
4	6112	6113	6114	6115	
4	6116	6117	6118	6119	
4	6120	6121	6122	6123	
4	6124	6125	6126	6127	
4	6128	6129	6130	6131	
4	6132	6133	6134	6135	
4	6136	6137	6138	6139	
4	6140	6141	6142	6143	
4	6144	6145	6146	6147	
4	6148	6149	6150	6151	
4	6152	6153	6154	6155	
4	6156	6157	6158	6159	
4	6160	6161	6162	6163	
4	6164	6165	6166	6167	
4	6168	6169	6170	6171	
4	6172	6173	6174	6175	
4	6176	6177	6178	6179	
4	6180	6181	6182	6183	
4	6184	6185	6186	6187	
4	6188	6189	6190	6191	
4	6192	6193	6194	6195	
4	6196	6197	6198	6199	
4	6200	6201	6202	6203	
4	6204	6205	6206	6207	
4	6208	6209	6210	6211	
4	6212	6213	6214	6215	
4	6216	6217	6218	6219	
4	6220	6221	6222	6223	
4	6224	6225	6226	6227	
4	6228	6229	6230	6231	
4	6232	6233	6234	6235	
4	6236	6237	6238	6239	
4	6240	6241	6242	6243	
4	6244	6245	6246	6247	
4	6248	6249	6250	6251	
4	6252	6253	6254	6255	
4	6256	6257	6258	6259	
4	6260	6261	6262	6263	
4	6264	6265	6266	6267	
4	6268	6269	6270	6271	
4	6272	6273	6274	6275	
4	6276	6277	6278	6279	
4	6280	6281	6282	6283	
4	6284	6285	6286	6287	
4	6288	6289	6290	6291	
4	6292	6293	6294	6295	
4	6296	6297	6298	6299	
4	6300	6301	6302	6303	
4	6304	6305	6306	6307	
4	6308	6309	6310	6311	
4	6312	6313	6314	6315	
4	6316	6317	6318	6319	
4	6320	6321	6322	6323	
4	6324	6325	6326	6327	
4	6328	6329	6330	6331	
4	6332	6333	6334	6335	
4	6336	6337	6338	6339	
4	6340	6341	6342	6343	
4	6344	6345	6346	6347	
4	6348	6349	6350	6351	
4	6352	6353	6354	6355	
4	6356	6357	6358	6359	
4	6360	6361	6362	6363	
4	6364	6365	6366	6367	
4	6368	6369	6370	6371	
4	6372	6373	6374	6375	
4	6376	6377	6378	6379	
4	6380	6381	6382	6383	
4	6384	6385	6386	6387	
4	6388	6389	6390	6391	
4	6392	6393	6394	6395	
4	6396	6397	6398	6399	
4	6400	6401	6402	6403	
4	6404	6405	6406	6407	
4	6408	6409	6410	6411	
4	6412	6413	6414	6415	
4	6416	6417	6418	6419	
4	6420	6421	6422	6423	
4	6424	6425	6426	6427	
4	6428	6429	6430	6431	
4	6432	6433	6434	6435	
4	6436	6437	6438	6439	
4	6440	6441	6442	6443	
4	6444	6445	6446	6447	
4	6448	6449	6450	6451	
4	6452	6453	6454	6455	
4	6456	6457	6458	6459	
4	6460	6461	6462	6463	
4	6464	6465	6466	6467	
4	6468	6469	6470	6471	
4	6472	6473	6474	6475	
4	6476	6477	6478	6479	
4	6480	6481	6482	6483	
4	6484	6485	6486	6487	
4	6488	6489	6490	6491	
4	6492	6493	6494	6495	
4	6496	6497	6498	6499	
4	6500	6501	6502	6503	
4	6504	6505	6506	6507	
4	6508	6509	6510	6511	
4	6512	6513	6514	6515	
4	6516	6517	6518	6519	
4	6520	6521	6522	6523	
4	6524	6525	6526	6527	
4	6528	6529	6530	6531	
4	6532	6533	6534	6535	
4	6536	6537	6538	6539	
4	6540	6541	6542	6543	
4	6544	6545	6546	6547	
4	6548	6549	6550	6551	
4	6552	6553	6554	6555	
4	6556	6557	6558	6559	
4	6560	6561	6562	6563	
4	6564	6565	6566	6567	
4	6568	6569	6570	6571	
4	6572	6573	6574	6575	
4	6576	6577	6578	6579	
4	6580	6581	6582	6583	
4	6584	6585	6586	6587	
4	6588	6589	6590	6591	
4	6592	6593	6594	6595	
4	6596	6597	6598	6599	
4	6600	6601	6602	6603	
4	6604	6605	6606	6607	
4	6608	6609	6610	6611	
4	6612	6613	6614	6615	
4	6616	6617	6618	6619	
4	6620	6621	6622	6623	
4	6624	6625	6626	6627	
4	6628	6629	6630	6631	
4	6632	6633	6634	6635	
4	6636	6637	6638	6639	
4	6640	6641	6642	6643	
4	6644	6645	6646	6647	
4	6648	6649	6650	6651	
4	6652	6653	6654	6655	
4	6656	6657	6658	6659	
4	6660	6661	6662	6663	
4	6664	6665	6666	6667	
4	6668	6669	6670	6671	
4	6672	6673	6674	6675	
4	6676	6677	6678	6679	
4	6680	6681	6682	6683	
4	6684	6685	6686	6687	
4	6688	6689	6690	6691	
4	6692	6693	6694	6695	
4	6696	6697	6698	6699	
4	6700	6701	6702	6703	
4	6704	6705	6706	6707	
4	6708	6709	6710	6711	
4	6712	6713	6714	6715	
4	6716	6717	6718	6719	
4	6720	6721	6722	6723	
4	6724	6725	6726	6727	
4	6728	6729	6730	6731	
4	6732	6733	6734	6735	
4	6736	6737	6738	6739	
4	6740	6741	6742	6743	
4	6744	6745	6746	6747	
4	6748	6749	6750	6751	
4	6752	6753	6754	6755	
4	6756	6757	6758	6759	
4	6760	6761	6762	6763	
4	6764	6765	6766	6767	
4	6768	6769	6770	6771	
4	6772	6773	6774	6775	
4	6776	6777	6778	6779	
4	6780	6781	6782	6783	
4	6784	6785	6786	6787	
4	6788	6789	6790	6791	
4	6792	6793	6794	6795	
4	6796	6797	6798	6799	
4	6800	6801	6802	6803	
4	6804	6805	6806	6807	
4	6808	6809	6810	6811	
4	6812	6813	6814	6815	
4	6816	6817	6818	6819	
4	6820	6821	6822	6823	
4	6824	6825	6826	6827	
4	6828	6829	6830	6831	
4	6832	6833	6834	6835	
4	6836	6837	6838	6839	
4	6840	6841	6842	6843	
4	6844	6845	6846	6847	
4	6848	6849	6850	6851	
4	6852	6853	6854	6855	
4	6856	6857	6858	6859	
4	6860	6861	6862	6863	
4	6864	6865	6866	6867	
4	6868	6869	6870	6871	
4	6872	6873	6874	6875	
4	6876	6877	6878	6879	
4	6880	6881	6882	6883	
4	6884	6885	6886	6887	
4	6888	6889	6890	6891	
4	6892	6893	6894	6895	
4	6896	6897	6898	6899	
4	6900	6901	6902	6903	
4	6904	6905	6906	6907	
4	6908	6909	6910	6911	
4	6912	6913	6914	6915	
4	6916	6917	6918	6919	
4	6920	6921	6922	6923	
4	6924	6925	6926	6927	
4	6928	6929	6930	6931	
4	6932	6933	6934	6935	
4	6936	6937	6938	6939	
4	6940	6941	6942	6943	
4	6944	6945	6946	6947	
4	6948	6949	6950	6951	
4	6952	6953	6954	6955	
4	6956	6957	6958	6959	
4	6960	6961	6962	6963	
4	6964	6965	6966	6967	
4	6968	6969	6970	6971	
4	6972	6973	6974	6975	
4	6976	6977	6978	6979	
4	6980	6981	6982	6983	
4	6984	6985	6986	6987	
4	6988	6989	6990	6991	
4	6992	6993	6994	6995	
4	6996	6997	6998	6999	
4	7000	7001	7002	7003	
4	7004	7005	7006	7007	
4	7008	7009	7010	7011	
4	7012	7013	7014	7015	
4	7016	7017	7018	7019	
4	7020	7021	7022	7023	
4	7024	7025	7026	7027	
4	7028	7029	7030	7031	
4	7032	7033	7034	7035	
4	7036	7037	7038	7039	
4	7040	7041	7042	7043	
4	7044	7045	7046	7047	
4	7048	7049	7050	7051	
4	7052	7053	7054	7055	
4	7056	7057	7058	7059	
4	7060	7061	7062	7063	
4	7064	7065	7066	7067	
4	7068	7069	7070	7071	
4	7072	7073	7074	7075	
4	7076	7077	7078	7079	
4	7080	7081	7082	7083	
4	7084	7085	7086	7087	
4	7088	7089	7090	7091	
4	7092	7093	7094	7095	
4	7096	7097	7098	7099	
4	7100	7101	7102	7103	
4	7104	7105	7106	7107	
4	7108	7109	7110	7111	
4	7112	7113	7114	7115	
4	7116	7117	7118	7119	
4	7120	7121	7122	7123	
4	7124	7125	7126	7127	
4	7128	7129	7130	7131	
4	7132	7133	7134	7135	
4	7136	7137	7138	7139	
4	7140	7141	7142	7143	
4	7144	7145	7146	7147	
4	7148	7149	7150	7151	
4	7152	7153	7154	7155	
4	7156	7157	7158	7159	
4	7160	7161	7162	7163	
4	7164	7165	7166	7167	
4	7168	7169	7170	7171	
4	7172	7173	7174	7175	
4	7176	7177	7178	7179	
4	7180	7181	7182	7183	
4	7184	7185	7186	7187	
4	7188	7189	7190	7191	
4	7192	7193	7194	7195	
4	7196	7197	7198	7199	
4	7200	7201	7202	7203	
4	7204	7205	7206	7207	
4	7208	7209	7210	7211	
4	7212	7213	7214	7215	
4	7216	7217	7218	7219	
4	7220	7221	7222	7223	
4	7224	7225	7226	7227	
4	7228	7229	7230	7231	
4	7232	7233	7234	7235	
4	7236	7237	7238	7239	
4	7240	7241	7242	7243	
4	7244	7245	7246	7247	
4	7248	7249	7250	7251	
4	7252	7253	7254	7255	
4	7256	7257	7258	7259	
4	7260	7261	7262	7263	
4	7264	7265	7266	7267	
4	7268	7269	7270	7271	
4	7272	7273	7274	7275	
4	7276	7277	7278	7279	
4	7280	7281	7282	7283	
4	7284	7285	7286	7287	
4	7288	7289	7290	7291	
4	7292	7293	7294	7295	
4	7296	7297	7298	7299	
4	7300	7301	7302	7303	
4	7304	7305	7306	7307	
4	7308	7309	7310	7311	
4	7312	7313	7314	7315	
4	7316	7317	7318	7319	
4	7320	7321	7322	7323	
4	7324	7325	7326	7327	
4	7328	7329	7330	7331	
4	7332	7333	7334	7335	
4	7336	7337	7338	7339	
4	7340	7341	7342	7343	
4	7344	7345	7346	7347	
4	7348	7349	7350	7351	
4	7352	7353	7354	7355	
4	7356	7357	7358	7359	
4	7360	7361	7362	7363	
4	7364	7365	7366	7367	
4	7368	7369	7370	7371	
4	7372	7373	7374	7375	
4	7376	7377	7378	7379	
4	7380	7381	7382	7383	
4	7384	7385	7386	7387	
4	7388	7389	7390	7391	
4	7392	7393	7394	7395	
4	7396	7397	7398	7399	
4	7400	7401	7402	7403	
4	7404	7405	7406	7407	
4	7408	7409	7410	7411	
4	7412	7413	7414	7415	
4	7416	7417	7418	7419	
4	7420	7421	7422	7423	
4	7424	7425	7426	7427	
4	7428	7429	7430	7431	
4	7432	7433	7434	7435	
4	7436	7437	7438	7439	
4	7440	7441	7442	7443	
4	7444	7445	7446	7447	
4	7448	7449	7450	7451	
4	7452	7453	7454	7455	
4	7456	7457	7458	7459	
4	7460	7461	7462	7463	
4	7464	7465	7466	7467	
4	7468	7469	7470	7471	
4	7472	7473	7474	7475	
4	7476	7477	7478	7479	
4	7480	7481	7482	7483	
4	7484	7485	7486	7487	
4	7488	7489	7490	7491	
4	7492	7493	7494	7495	
4	7496	7497	7498	7499	
4	7500	7501	7502	7503	
4	7504	7505	7506	7507	
4	7508	7509	7510	7511	
4	7512	7513	7514	7515	
4	7516	7517	7518	7519	
4	7520	7521	7522	7523	
4	7524	7525	7526	7527	
4	7528	7529	7530	7531	
4	7532	7533	7534	7535	
4	7536	7537	7538	7539	
4	7540	7541	7542	7543	
4	7544	7545	7546	7547	
4	7548	7549	7550	7551	
4	7552	7553	7554	7555	
4	7556	7557	7558	7559	
4	7560	7561	7562	7563	
4	7564	7565	7566	7567	
4	7568	7569	7570	7571	
4	7572	7573	7574	7575	
4	7576	7577	7578	7579	
4	7580	7581	7582	7583	
4	7584	7585	7586	7587	
4	7588	7589	7590	7591	
4	7592	7593	7594	7595	
4	7596	7597	7598	7599	
4	7600	7601	7602	7603	
4	7604	7605	7606	7607	
4	7608	7609	7610	7611	
4	7612	7613	7614	7615	
4	7616	7617	7618	7619	
4	7620	7621	7622	7623	
4	7624	7625	7626	7627	
4	7628	7629	7630	7631	
4	7632	7633	7634	7635	
4	7636	7637	7638	7639	
4	7640	7641	7642	7643	
4	7644	7645	7646	7647	
4	7648	7649	7650	7651	
4	7652	7653	7654	7655	
4	7656	7657	7658	7659	
4	7660	7661	7662	7663	
4	7664	7665	7666	7667	
4	7668	7669	7670	7671	
4	7672	7673	7674	7675	
4	7676	7677	7678	7679	
4	7680	7681	7682	7683	
4	7684	7685	7686	7687	
4	7688	7689	7690	7691	
4	7692	7693	7694	7695	
4	7696	7697	7698	7699	
4	7700	7701	7702	7703	
4	7704	7705	7706	7707	
4	7708	7709	7710	7711	
4	7712	7713	7714	7715	
4	7716	7717	7718	7719	
4	7720	7721	7722	7723	
4	7724	7725	7726	7727	
4	7728	7729	7730	7731	
4	7732	7733	7734	7735	
4	7736	7737	7738	7739	
4	7740	7741	7742	7743	
4	7744	7745	7746	7747	
4	7748	7749	7750	7751	
4	7752	7753	7754	7755	
4	7756	7757	7758	7759	
4	7760	7761	7762	7763	
4	7764	7765	7766	7767	
4	7768	7769	7770	7771	
4	7772	7773	7774	7775	
4	7776	7777	7778	7779	
4	7780	7781	7782	7783	
4	7784	7785	7786	7787	
4	7788	7789	7790	7791	
4	7792	7793	7794	7795	
4	7796	7797	7798	7799	
4	7800	7801	7802	7803	
4	7804	7805	7806	7807	
4	7808	7809	7810	7811	
4	7812	7813	7814	7815	
4	7816	7817	7818	7819	
4	7820	7821	7822	7823	
4	7824	7825	7826	7827	
4	7828	7829	7830	7831	
4	7832	7833	7834	7835	
4	7836	7837	7838	7839	
4	7840	7841	7842	7843	
4	7844	7845	7846	7847	
4	7848	7849	7850	7851	
4	7852	7853	7854	7855	
4	7856	7857	7858	7859	
4	7860	7861	7862	7863	
4	7864	7865	7866	7867	
4	7868	7869	7870	7871	
4	7872	7873	7874	7875	
4	7876	7877	7878	7879	
4	7880	7881	7882	7883	
4	7884	7885	7886	7887	
4	7888	7889	7890	7891	
4	7892	7893	7894	7895	
4	7896	7897	7898	7899	
4	7900	7901	7902	7903	
4	7904	7905	7906	7907	
4	7908	7909	7910	7911	
4	7912	7913	7914	7915	
4	7916	7917	7918	7919	
4	7920	7921	7922	7923	
4	7924	7925	7926	7927	
4	7928	7929	7930	7931	
4	7932	7933	7934	7935	
4	7936	7937	7938	7939	
4	7940	7941	7942	7943	
4	7944	7945	7946	7947	
4	7948	7949	7950	7951	
4	7952	7953	7954	7955	
4	7956	7957	7958	7959	
4	7960	7961	7962	7963	
4	7964	7965	7966	7967	
4	7968	7969	7970	7971	
4	7972	7973	7974	7975	
4	7976	7977	7978	7979	
4	7980	7981	7982	7983	
4	7984	7985	7986	7987	
4	7988	7989	7990	7991	
4	7992	7993	7994	7995	
4	7996	7997	7998	7999	
4	8000	8001	8002	8003	
4	8004	8005	8006	8007	
4	8008	8009	8010	8011	
4	8012	8013	8014	8015	
4	8016	8017	8018	8019	
4	8020	8021	8022	8023	
4	8024	8025	8026	8027	
4	8028	8029	8030	8031	
4	8032	8033	8034	8035	
4	8036	8037	8038	8039	
4	8040	8041	8042	8043	
4	8044	8045	8046	8047	
4	8048	8049	8050	8051	
4	8052	8053	8054	8055	
4	8056	8057	8058	8059	
4	8060	8061	8062	8063	
4	8064	8065	8066	8067	
4	8068	8069	8070	8071	
4	8072	8073	8074	8075	
4	8076	8077	8078	8079	
4	8080	8081	8082	8083	
4	8084	8085	8086	8087	
4	8088	8089	8090	8091	
4	8092	8093	8094	8095	
4	8096	8097	8098	8099	
4	8100	8101	8102	8103	
4	8104	8105	8106	8107	
4	8108	8109	8110	8111	
4	8112	8113	8114	8115	
4	8116	8117	8118	8119	
4	8120	8121	8122	8123	
4	8124	8125	8126	8127	
4	8128	8129	8130	8131	
4	8132	8133	8134	8135	
4	8136	8137	8138	8139	
4	8140	8141	8142	8143	
4	8144	8145	8146	8147	
4	8148	8149	8150	8151	
4	8152	8153	8154	8155	
4	8156	8157	8158	8159	
4	8160	8161	8162	8163	
4	8164	8165	8166	8167	
4	8168	8169	8170	8171	
4	8172	8173	8174	8175	
4	8176	8177	8178	8179	
4	8180	8181	8182	8183	
4	8184	8185	8186	8187	
4	8188	8189	8190	8191	
4	8192	8193	8194	8195	
4	8196	8197	8198	8199	
4	8200	8201	8202	8203	
4	8204	8205	8206	8207	
4	8208	8209	8210	8211	
4	8212	8213	8214	8215	
4	8216	8217	8218	8219	
4	8220	8221	8222	8223	
4	8224	8225	8226	8227	
4	8228	8229	8230	8231	
4	8232	8233	8234	8235	
4	8236	8237	8238	8239	
4	8240	8241	8242	8243	
4	8244	8245	8246	8247	
4	8248	8249	8250	8251	
4	8252	8253	8254	8255	
4	8256	8257	8258	8259	
4	8260	8261	8262	8263	
4	8264	8265	8266	8267	
4	8268	8269	8270	8271	
4	8272	8273	8274	8275	
4	8276	8277	8278	8279	
4	8280	8281	8282	8283	
4	8284	8285	8286	8287	
4	8288	8289	8290	8291	
4	8292	8293	8294	8295	
4	8296	8297	8298	8299	
4	8300	8301	8302	8303	
4	8304	8305	8306	8307	
4	8308	8309	8310	8311	
4	8312	8313	8314	8315	
4	8316	8317	8318	8319	
4	8320	8321	8322	8323	
4	8324	8325	8326	8327	
4	8328	8329	8330	8331	
4	8332	8333	8334	8335	
4	8336	8337	8338	8339	
4	8340	8341	8342	8343	
4	8344	8345	8346	8347	
4	8348	8349	8350	8351	
4	8352	8353	8354	8355	
4	8356	8357	8358	8359	
4	8360	8361	8362	8363	
4	8364	8365	8366	8367	
4	8368	8369	8370	8371	
4	8372	8373	8374	8375	
4	8376	8377	8378	8379	
4	8380	8381	8382	8383	
4	8384	8385	8386	8387	
4	8388	8389	8390	8391	
4	8392	8393	8394	8395	
4	8396	8397	8398	8399	
4	8400	8401	8402	8403	
4	8404	8405	8406	8407	
4	8408	8409	8410	8411	
4	8412	8413	8414	8415	
4	8416	8417	8418	8419	
4	8420	8421	8422	8423	
4	8424	8425	8426	8427	
4	8428	8429	8430	8431	
4	8432	8433	8434	8435	
4	8436	8437	8438	8439	
4	8440	8441	8442	8443	
4	8444	8445	8446	8447	
4	8448	8449	8450	8451	
4	8452	8453	8454	8455	
4	8456	8457	8458	8459	
4	8460	8461	8462	8463	
4	8464	8465	8466	8467	
4	8468	8469	8470	8471	
4	8472	8473	8474	8475	
4	8476	8477	8478	8479	
4	8480	8481	8482	8483	
4	8484	8485	8486	8487	
4	8488	8489	8490	8491	
4	8492	8493	8494	8495	
4	8496	8497	8498	8499	
4	8500	8501	8502	8503	
4	8504	8505	8506	8507	
4	8508	8509	8510	8511	
4	8512	8513	8514	8515	
4	8516	8517	8518	8519	
4	8520	8521	8522	8523	
4	8524	8525	8526	8527	
4	8528	8529	8530	8531	
4	8532	8533	8534	8535	
4	8536	8537	8538	8539	
4	8540	8541	8542	8543	
4	8544	8545	8546	8547	
4	8548	8549	8550	8551	
4	8552	8553	8554	8555	
4	8556	8557	8558	8559	
4	8560	8561	8562	8563	
4	8564	8565	8566	8567	
4	8568	8569	8570	8571	
4	8572	8573	8574	8575	
CELL_TYPES 2144
10
10
10
10
10
10
10
10
10
10
10
10
10
10
10
10
10
10
10
10
10
10
10
10
10
10
10
10
10
10
10
10
10
10
10
10
10
10
10
10
10
10
10
10
10
10
10
10
10
10
10
10
10
10
10
10
10
10
10
10
10
10
10
10
10
10
10
10
10
10
10
10
10
10
10
10
10
10
10
10
10
10
10
10
10
10
10
10
10
10
10
10
10
10
10
10
10
10
10
10
10
10
10
10
10
10
10
10
10
10
10
10
10
10
10
10
10
10
10
10
10
10
10
10
10
10
10
10
10
10
10
10
10
10
10
10
10
10
10
10
10
10
10
10
10
10
10
10
10
10
10
10
10
10
10
10
10
10
10
10
10
10
10
10
10
10
10
10
10
10
10
10
10
10
10
10
10
10
10
10
10
10
10
10
10
10
10
10
10
10
10
10
10
10
10
10
10
10
10
10
10
10
10
10
10
10
10
10
10
10
10
10
10
10
10
10
10
10
10
10
10
10
10
10
10
10
10
10
10
10
10
10
10
10
10
10
10
10
10
10
10
10
10
10
10
10
10
10
10
10
10
10
10
10
10
10
10
10
10
10
10
10
10
10
10
10
10
10
10
10
10
10
10
10
10
10
10
10
10
10
10
10
10
10
10
10
10
10
10
10
10
10
10
10
10
10
10
10
10
10
10
10
10
10
10
10
10
10
10
10
10
10
10
10
10
10
10
10
10
10
10
10
10
10
10
10
10
10
10
10
10
10
10
10
10
10
10
10
10
10
10
10
10
10
10
10
10
10
10
10
10
10
10
10
10
10
10
10
10
10
10
10
10
10
10
10
10
10
10
10
10
10
10
10
10
10
10
10
10
10
10
10
10
10
10
10
10
10
10
10
10
10
10
10
10
10
10
10
10
10
10
10
10
10
10
10
10
10
10
10
10
10
10
10
10
10
10
10
10
10
10
10
10
10
10
10
10
10
10
10
10
10
10
10
10
10
10
10
10
10
10
10
10
10
10
10
10
10
10
10
10
10
10
10
10
10
10
10
10
10
10
10
10
10
10
10
10
10
10
10
10
10
10
10
10
10
10
10
10
10
10
10
10
10
10
10
10
10
10
10
10
10
10
10
10
10
10
10
10
10
10
10
10
10
10
10
10
10
10
10
10
10
10
10
10
10
10
10
10
10
10
10
10
10
10
10
10
10
10
10
10
10
10
10
10
10
10
10
10
10
10
10
10
10
10
10
10
10
10
10
10
10
10
10
10
10
10
10
10
10
10
10
10
10
10
10
10
10
10
10
10
10
10
10
10
10
10
10
10
10
10
10
10
10
10
10
10
10
10
10
10
10
10
10
10
10
10
10
10
10
10
10
10
10
10
10
10
10
10
10
10
10
10
10
10
10
10
10
10
10
10
10
10
10
10
10
10
10
10
10
10
10
10
10
10
10
10
10
10
10
10
10
10
10
10
10
10
10
10
10
10
10
10
10
10
10
10
10
10
10
10
10
10
10
10
10
10
10
10
10
10
10
10
10
10
10
10
10
10
10
10
10
10
10
10
10
10
10
10
10
10
10
10
10
10
10
10
10
10
10
10
10
10
10
10
10
10
10
10
10
10
10
10
10
10
10
10
10
10
10
10
10
10
10
10
10
10
10
10
10
10
10
10
10
10
10
10
10
10
10
10
10
10
10
10
10
10
10
10
10
10
10
10
10
10
10
10
10
10
10
10
10
10
10
10
10
10
10
10
10
10
10
10
10
10
10
10
10
10
10
10
10
10
10
10
10
10
10
10
10
10
10
10
10
10
10
10
10
10
10
10
10
10
10
10
10
10
10
10
10
10
10
10
10
10
10
10
10
10
10
10
10
10
10
10
10
10
10
10
10
10
10
10
10
10
10
10
10
10
10
10
10
10
10
10
10
10
10
10
10
10
10
10
10
10
10
10
10
10
10
10
10
10
10
10
10
10
10
10
10
10
10
10
10
10
10
10
10
10
10
10
10
10
10
10
10
10
10
10
10
10
10
10
10
10
10
10
10
10
10
10
10
10
10
10
10
10
10
10
10
10
10
10
10
10
10
10
10
10
10
10
10
10
10
10
10
10
10
10
10
10
10
10
10
10
10
10
10
10
10
10
10
10
10
10
10
10
10
10
10
10
10
10
10
10
10
10
10
10
10
10
10
10
10
10
10
10
10
10
10
10
10
10
10
10
10
10
10
10
10
10
10
10
10
10
10
10
10
10
10
10
10
10
10
10
10
10
10
10
10
10
10
10
10
10
10
10
10
10
10
10
10
10
10
10
10
10
10
10
10
10
10
10
10
10
10
10
10
10
10
10
10
10
10
10
10
10
10
10
10
10
10
10
10
10
10
10
10
10
10
10
10
10
10
10
10
10
10
10
10
10
10
10
10
10
10
10
10
10
10
10
10
10
10
10
10
10
10
10
10
10
10
10
10
10
10
10
10
10
10
10
10
10
10
10
10
10
10
10
10
10
10
10
10
10
10
10
10
10
10
10
10
10
10
10
10
10
10
10
10
10
10
10
10
10
10
10
10
10
10
10
10
10
10
10
10
10
10
10
10
10
10
10
10
10
10
10
10
10
10
10
10
10
10
10
10
10
10
10
10
10
10
10
10
10
10
10
10
10
10
10
10
10
10
10
10
10
10
10
10
10
10
10
10
10
10
10
10
10
10
10
10
10
10
10
10
10
10
10
10
10
10
10
10
10
10
10
10
10
10
10
10
10
10
10
10
10
10
10
10
10
10
10
10
10
10
10
10
10
10
10
10
10
10
10
10
10
10
10
10
10
10
10
10
10
10
10
10
10
10
10
10
10
10
10
10
10
10
10
10
10
10
10
10
10
10
10
10
10
10
10
10
10
10
10
10
10
10
10
10
10
10
10
10
10
10
10
10
10
10
10
10
10
10
10
10
10
10
10
10
10
10
10
10
10
10
10
10
10
10
10
10
10
10
10
10
10
10
10
10
10
10
10
10
10
10
10
10
10
10
10
10
10
10
10
10
10
10
10
10
10
10
10
10
10
10
10
10
10
10
10
10
10
10
10
10
10
10
10
10
10
10
10
10
10
10
10
10
10
10
10
10
10
10
10
10
10
10
10
10
10
10
10
10
10
10
10
10
10
10
10
10
10
10
10
10
10
10
10
10
10
10
10
10
10
10
10
10
10
10
10
10
10
10
10
10
10
10
10
10
10
10
10
10
10
10
10
10
10
10
10
10
10
10
10
10
10
10
10
10
10
10
10
10
10
10
10
10
10
10
10
10
10
10
10
10
10
10
10
10
10
10
10
10
10
10
10
10
10
10
10
10
10
10
10
10
10
10
10
10
10
10
10
10
10
10
10
10
10
10
10
10
10
10
10
10
10
10
10
10
10
10
10
10
10
10
10
10
10
10
10
10
10
10
10
10
10
10
10
10
10
10
10
10
10
10
10
10
10
10
10
10
10
10
10
10
10
10
10
10
10
10
10
10
10
10
10
10
10
10
10
10
10
10
10
10
10
10
10
10
10
10
10
10
10
10
10
10
10
10
10
10
10
10
10
10
10
10
10
10
10
10
10
10
10
10
10
10
10
10
10
10
10
10
10
10
10
10
10
10
10
10
10
10
10
10
10
10
10
10
10
10
10
10
10
10
10
10
10
10
10
10
10
10
10
10
10
10
10
10
10
10
10
10
10
10
10
10
10
10
10
10
10
10
10
10
10
10
10
10
10
10
10
10
10
10
10
10
10
10
10
10
10
10
10
10
10
10
10
10
10
10
10
10
10
10
10
10
10
10
10
10
10
10
10
10
10
10
10
10
10
10
10
10
10
10
10
10
10
10
10
10
10
10
10
10
10
10
10
10
10
10
10
10
10
10
10
10
10
10
10
10
10
10
10
10
10
10
10
10
10
10
10
10
10
10
10
10
10
10
10
10
10
10
10
10
10
10
10
10
10
10
10
10
10
10
10
10
10
10
10
10
10
10
10
10
10
10
10
10
10
10
10
10
10
10
10
10
10
10
10
10
10
10
10
10
10
10
10
10
10
10
10
10
10
10
10
10
10
10
10
10
10
10
10
10
10
10
10
10
10
10
10
10
10
10
10
10
10
10
10
10
10
10
10
10
10
10
10
10
10
10
10
10
10
10
10
10
10
10
10
10
10
10
10
10
10
10
10
10
10
10
10
10
10
10
10
10
10
10
10
10
10
10
10
10
10
10
10
10
10
10
10
10
10
10
10
10
10
10
10
10
10
10
10
10
10
10
10
10
10
10
10
10
10
10
10
10
10
10
10
10
10
10
10
10
10
10
10
10
10
10
10
10
10
10
10
10
10
10
10
10
10
10
10
10
10
10
10
10
10
10
10
10
10
10
10
10
10
10
10
10
10
10
10
10
10
10
10
10
10
10
10
10
10
10
10
10
10
10
10
10
10
10
10
10
10
10
10
10
10
10
10
10
10
10
10
10
10
10
10
10
10
10
10
10
10
10
10
10
10
10
10
10
10
10
10
10
10
10
10
10
10
10
10
10
10
10
10
10
10
10
10
10
10
10
10
10
10
10
10
10
10
10
10
10
10
10
10
10
10
10
10
10
10
10
10
10
10
10
10
10
10
10
10
10
10
10
10
10
10
10
10
10
10
10
10
10
10
10
10
10
10
10
10
10
10
10
10
10
10
10
10
10
10
10
10
10
10
10
10
10
10
10
10
10
10
10
10
10
10
10
10
10
10
10
10
10
10
10
10
10
10
10
10
10
10
10
10
10
10
10
10
10
10
10
10
10
10
10
10
10
10
10
10
10
10
10
10
10
10
10
10
10
10
10
10
10
10
10
10
10
10
10
CELL_DATA 2144
POINT_DATA 8576
SCALARS StressX float 
LOOKUP_TABLE default
9.58421e-14 9.58421e-14 9.58421e-14 9.58421e-14 -9.16548e-14 -9.16548e-14 -9.16548e-14 -9.16548e-14 -1.62328e-14 -1.62328e-14 -1.62328e-14 -1.62328e-14 1.63317e-13 1.63317e-13 1.63317e-13 1.63317e-13 8.75963e-14 8.75963e-14 8.75963e-14 8.75963e-14 -5.37687e-15 -5.37687e-15 -5.37687e-15 -5.37687e-15 1.28029e-14 1.28029e-14 1.28029e-14 1.28029e-14 -2.94886e-14 -2.94886e-14 -2.94886e-14 -2.94886e-14 9.98672e-15 9.98672e-15 9.98672e-15 9.98672e-15 9.39709e-14 9.39709e-14 9.39709e-14 9.39709e-14 1.15608e-13 1.15608e-13 1.15608e-13 1.15608e-13 6.46626e-14 6.46626e-14 6.46626e-14 6.46626e-14 6.14725e-14 6.14725e-14 6.14725e-14 6.14725e-14 5.97986e-14 5.97986e-14 5.97986e-14 5.97986e-14 -1.2422e-14 -1.2422e-14 -1.2422e-14 -1.2422e-14 -1.06892e-13 -1.06892e-13 -1.06892e-13 -1.06892e-13 2.79689e-14 2.79689e-14 2.79689e-14 2.79689e-14 1.70031e-13 1.70031e-13 1.70031e-13 1.70031e-13 -4.94751e-14 -4.94751e-14 -4.94751e-14 -4.94751e-14 1.13759e-13 1.13759e-13 1.13759e-13 1.13759e-13 -7.46657e-14 -7.46657e-14 -7.46657e-14 -7.46657e-14 1.34555e-13 1.34555e-13 1.34555e-13 1.34555e-13 -7.63685e-15 -7.63685e-15 -7.63685e-15 -7.63685e-15 8.35245e-14 8.35245e-14 8.35245e-14 8.35245e-14 8.72796e-14 8.72796e-14 8.72796e-14 8.72796e-14 -2.18747e-13 -2.18747e-13 -2.18747e-13 -2.18747e-13 1.15716e-13 1.15716e-13 1.15716e-13 1.15716e-13 2.99193e-16 2.99193e-16 2.99193e-16 2.99193e-16 -1.79085e-13 -1.79085e-13 -1.79085e-13 -1.79085e-13 -3.93167e-14 -3.93167e-14 -3.93167e-14 -3.93167e-14 1.09849e-13 1.09849e-13 1.09849e-13 1.09849e-13 1.27768e-14 1.27768e-14 1.27768e-14 1.27768e-14 2.04115e-15 2.04115e-15 2.04115e-15 2.04115e-15 -5.63851e-14 -5.63851e-14 -5.63851e-14 -5.63851e-14 -2.98248e-14 -2.98248e-14 -2.98248e-14 -2.98248e-14 -8.97369e-14 -8.97369e-14 -8.97369e-14 -8.97369e-14 -5.16891e-14 -5.16891e-14 -5.16891e-14 -5.16891e-14 1.06837e-13 1.06837e-13 1.06837e-13 1.06837e-13 3.60375e-14 3.60375e-14 3.60375e-14 3.60375e-14 2.60224e-14 2.60224e-14 2.60224e-14 2.60224e-14 -1.9192e-14 -1.9192e-14 -1.9192e-14 -1.9192e-14 6.04961e-14 6.04961e-14 6.04961e-14 6.04961e-14 -7.32739e-14 -7.32739e-14 -7.32739e-14 -7.32739e-14 -4.62887e-14 -4.62887e-14 -4.62887e-14 -4.62887e-14 -5.05476e-14 -5.05476e-14 -5.05476e-14 -5.05476e-14 -1.09248e-13 -1.09248e-13 -1.09248e-13 -1.09248e-13 -1.15512e-13 -1.15512e-13 -1.15512e-13 -1.15512e-13 5.14933e-14 5.14933e-14 5.14933e-14 5.14933e-14 -4.31228e-14 -4.31228e-14 -4.31228e-14 -4.31228e-14 1.18227e-13 1.18227e-13 1.18227e-13 1.18227e-13 -1.30319e-13 -1.30319e-13 -1.30319e-13 -1.30319e-13 8.15204e-14 8.15204e-14 8.15204e-14 8.15204e-14 -3.44184e-14 -3.44184e-14 -3.44184e-14 -3.44184e-14 -5.35225e-14 -5.35225e-14 -5.35225e-14 -5.35225e-14 -1.12389e-13 -1.12389e-13 -1.12389e-13 -1.12389e-13 -4.65401e-14 -4.65401e-14 -4.65401e-14 -4.65401e-14 4.73785e-14 4.73785e-14 4.73785e-14 4.73785e-14 -4.63404e-14 -4.63404e-14 -4.63404e-14 -4.63404e-14 9.60286e-14 9.60286e-14 9.60286e-14 9.60286e-14 1.99434e-13 1.99434e-13 1.99434e-13 1.99434e-13 -1.58484e-14 -1.58484e-14 -1.58484e-14 -1.58484e-14 -6.48882e-14 -6.48882e-14 -6.48882e-14 -6.48882e-14 -6.56935e-14 -6.56935e-14 -6.56935e-14 -6.56935e-14 -1.55203e-13 -1.55203e-13 -1.55203e-13 -1.55203e-13 -3.41195e-14 -3.41195e-14 -3.41195e-14 -3.41195e-14 2.0614e-14 2.0614e-14 2.0614e-14 2.0614e-14 7.51128e-14 7.51128e-14 7.51128e-14 7.51128e-14 -2.97423e-14 -2.97423e-14 -2.97423e-14 -2.97423e-14 5.18562e-15 5.18562e-15 5.18562e-15 5.18562e-15 -2.12129e-14 -2.12129e-14 -2.12129e-14 -2.12129e-14 -5.52512e-14 -5.52512e-14 -5.52512e-14 -5.52512e-14 1.17457e-13 1.17457e-13 1.17457e-13 1.17457e-13 -4.94076e-14 -4.94076e-14 -4.94076e-14 -4.94076e-14 1.98252e-14 1.98252e-14 1.98252e-14 1.98252e-14 4.1023e-14 4.1023e-14 4.1023e-14 4.1023e-14 -5.966e-14 -5.966e-14 -5.966e-14 -5.966e-14 -7.90731e-14 -7.90731e-14 -7.90731e-14 -7.90731e-14 -2.51682e-14 -2.51682e-14 -2.51682e-14 -2.51682e-14 7.45482e-14 7.45482e-14 7.45482e-14 7.45482e-14 2.88574e-14 2.88574e-14 2.88574e-14 2.88574e-14 1.34267e-13 1.34267e-13 1.34267e-13 1.34267e-13 3.26223e-14 3.26223e-14 3.26223e-14 3.26223e-14 8.73796e-15 8.73796e-15 8.73796e-15 8.73796e-15 -3.99899e-14 -3.99899e-14 -3.99899e-14 -3.99899e-14 -6.59369e-14 -6.59369e-14 -6.59369e-14 -6.59369e-14 -4.0283e-15 -4.0283e-15 -4.0283e-15 -4.0283e-15 1.09272e-13 1.09272e-13 1.09272e-13 1.09272e-13 -4.08233e-14 -4.08233e-14 -4.08233e-14 -4.08233e-14 -6.46606e-15 -6.46606e-15 -6.46606e-15 -6.46606e-15 -7.05857e-14 -7.05857e-14 -7.05857e-14 -7.05857e-14 -6.11125e-14 -6.11125e-14 -6.11125e-14 -6.11125e-14 -2.12386e-13 -2.12386e-13 -2.12386e-13 -2.12386e-13 -2.44709e-16 -2.44709e-16 -2.44709e-16 -2.44709e-16 -7.04324e-15 -7.04324e-15 -7.04324e-15 -7.04324e-15 -3.40003e-15 -3.40003e-15 -3.40003e-15 -3.40003e-15 -9.58902e-15 -9.58902e-15 -9.58902e-15 -9.58902e-15 -1.89641e-14 -1.89641e-14 -1.89641e-14 -1.89641e-14 -7.15793e-14 -7.15793e-14 -7.15793e-14 -7.15793e-14 -9.92682e-14 -9.92682e-14 -9.92682e-14 -9.92682e-14 -6.03696e-14 -6.03696e-14 -6.03696e-14 -6.03696e-14 -1.66981e-13 -1.66981e-13 -1.66981e-13 -1.66981e-13 1.13114e-13 1.13114e-13 1.13114e-13 1.13114e-13 -9.64814e-14 -9.64814e-14 -9.64814e-14 -9.64814e-14 2.48209e-14 2.48209e-14 2.48209e-14 2.48209e-14 1.59946e-14 1.59946e-14 1.59946e-14 1.59946e-14 1.55547e-14 1.55547e-14 1.55547e-14 1.55547e-14 6.67396e-14 6.67396e-14 6.67396e-14 6.67396e-14 -3.25986e-14 -3.25986e-14 -3.25986e-14 -3.25986e-14 1.91865e-14 1.91865e-14 1.91865e-14 1.91865e-14 -3.00939e-14 -3.00939e-14 -3.00939e-14 -3.00939e-14 -1.19736e-13 -1.19736e-13 -1.19736e-13 -1.19736e-13 -3.35391e-14 -3.35391e-14 -3.35391e-14 -3.35391e-14 3.2523e-14 3.2523e-14 3.2523e-14 3.2523e-14 -8.82402e-14 -8.82402e-14 -8.82402e-14 -8.82402e-14 1.04031e-13 1.04031e-13 1.04031e-13 1.04031e-13 -5.11124e-14 -5.11124e-14 -5.11124e-14 -5.11124e-14 8.56556e-14 8.56556e-14 8.56556e-14 8.56556e-14 5.21299e-14 5.21299e-14 5.21299e-14 5.21299e-14 6.64731e-14 6.64731e-14 6.64731e-14 6.64731e-14 -4.122e-14 -4.122e-14 -4.122e-14 -4.122e-14 -1.54929e-13 -1.54929e-13 -1.54929e-13 -1.54929e-13 8.07493e-14 8.07493e-14 8.07493e-14 8.07493e-14 -4.66641e-14 -4.66641e-14 -4.66641e-14 -4.66641e-14 2.14479e-14 2.14479e-14 2.14479e-14 2.14479e-14 -1.61778e-13 -1.61778e-13 -1.61778e-13 -1.61778e-13 1.44502e-13 1.44502e-13 1.44502e-13 1.44502e-13 2.06184e-13 2.06184e-13 2.06184e-13 2.06184e-13 -1.81745e-13 -1.81745e-13 -1.81745e-13 -1.81745e-13 3.39394e-14 3.39394e-14 3.39394e-14 3.39394e-14 -1.65071e-13 -1.65071e-13 -1.65071e-13 -1.65071e-13 1.87348e-14 1.87348e-14 1.87348e-14 1.87348e-14 1.03062e-13 1.03062e-13 1.03062e-13 1.03062e-13 -3.86039e-14 -3.86039e-14 -3.86039e-14 -3.86039e-14 2.27822e-14 2.27822e-14 2.27822e-14 2.27822e-14 -3.20394e-14 -3.20394e-14 -3.20394e-14 -3.20394e-14 -5.24395e-14 -5.24395e-14 -5.24395e-14 -5.24395e-14 -7.48433e-14 -7.48433e-14 -7.48433e-14 -7.48433e-14 2.44256e-14 2.44256e-14 2.44256e-14 2.44256e-14 4.01273e-14 4.01273e-14 4.01273e-14 4.01273e-14 -6.4792e-14 -6.4792e-14 -6.4792e-14 -6.4792e-14 8.21358e-14 8.21358e-14 8.21358e-14 8.21358e-14 -4.0517e-14 -4.0517e-14 -4.0517e-14 -4.0517e-14 -2.18031e-14 -2.18031e-14 -2.18031e-14 -2.18031e-14 -1.65331e-14 -1.65331e-14 -1.65331e-14 -1.65331e-14 1.5617e-13 1.5617e-13 1.5617e-13 1.5617e-13 1.05673e-13 1.05673e-13 1.05673e-13 1.05673e-13 -1.29406e-13 -1.29406e-13 -1.29406e-13 -1.29406e-13 -7.41256e-14 -7.41256e-14 -7.41256e-14 -7.41256e-14 -1.03895e-15 -1.03895e-15 -1.03895e-15 -1.03895e-15 2.95797e-14 2.95797e-14 2.95797e-14 2.95797e-14 -6.92762e-14 -6.92762e-14 -6.92762e-14 -6.92762e-14 1.34196e-13 1.34196e-13 1.34196e-13 1.34196e-13 -5.17784e-14 -5.17784e-14 -5.17784e-14 -5.17784e-14 6.62038e-15 6.62038e-15 6.62038e-15 6.62038e-15 1.32743e-14 1.32743e-14 1.32743e-14 1.32743e-14 -1.51468e-13 -1.51468e-13 -1.51468e-13 -1.51468e-13 1.34525e-13 1.34525e-13 1.34525e-13 1.34525e-13 -5.70909e-14 -5.70909e-14 -5.70909e-14 -5.70909e-14 -1.22876e-13 -1.22876e-13 -1.22876e-13 -1.22876e-13 -4.77998e-14 -4.77998e-14 -4.77998e-14 -4.77998e-14 -7.20863e-15 -7.20863e-15 -7.20863e-15 -7.20863e-15 -3.53623e-14 -3.53623e-14 -3.53623e-14 -3.53623e-14 -2.57245e-14 -2.57245e-14 -2.57245e-14 -2.57245e-14 -4.41982e-15 -4.41982e-15 -4.41982e-15 -4.41982e-15 -1.40793e-13 -1.40793e-13 -1.40793e-13 -1.40793e-13 6.65714e-15 6.65714e-15 6.65714e-15 6.65714e-15 -8.51543e-14 -8.51543e-14 -8.51543e-14 -8.51543e-14 4.3931e-14 4.3931e-14 4.3931e-14 4.3931e-14 5.48271e-14 5.48271e-14 5.48271e-14 5.48271e-14 -5.00223e-14 -5.00223e-14 -5.00223e-14 -5.00223e-14 3.37398e-14 3.37398e-14 3.37398e-14 3.37398e-14 -1.29125e-13 -1.29125e-13 -1.29125e-13 -1.29125e-13 5.05423e-14 5.05423e-14 5.05423e-14 5.05423e-14 5.00961e-14 5.00961e-14 5.00961e-14 5.00961e-14 -4.96076e-14 -4.96076e-14 -4.96076e-14 -4.96076e-14 -8.44494e-14 -8.44494e-14 -8.44494e-14 -8.44494e-14 -2.49362e-14 -2.49362e-14 -2.49362e-14 -2.49362e-14 4.72166e-14 4.72166e-14 4.72166e-14 4.72166e-14 -8.38994e-14 -8.38994e-14 -8.38994e-14 -8.38994e-14 1.47715e-13 1.47715e-13 1.47715e-13 1.47715e-13 -3.62261e-14 -3.62261e-14 -3.62261e-14 -3.62261e-14 -6.25744e-14 -6.25744e-14 -6.25744e-14 -6.25744e-14 1.02462e-13 1.02462e-13 1.02462e-13 1.02462e-13 4.72762e-14 4.72762e-14 4.72762e-14 4.72762e-14 1.75563e-14 1.75563e-14 1.75563e-14 1.75563e-14 -4.30824e-14 -4.30824e-14 -4.30824e-14 -4.30824e-14 -1.4462e-14 -1.4462e-14 -1.4462e-14 -1.4462e-14 -2.19978e-14 -2.19978e-14 -2.19978e-14 -2.19978e-14 1.53019e-14 1.53019e-14 1.53019e-14 1.53019e-14 1.13424e-13 1.13424e-13 1.13424e-13 1.13424e-13 1.6462e-13 1.6462e-13 1.6462e-13 1.6462e-13 -1.03703e-13 -1.03703e-13 -1.03703e-13 -1.03703e-13 3.21403e-14 3.21403e-14 3.21403e-14 3.21403e-14 4.41716e-14 4.41716e-14 4.41716e-14 4.41716e-14 -5.81052e-16 -5.81052e-16 -5.81052e-16 -5.81052e-16 -1.13658e-13 -1.13658e-13 -1.13658e-13 -1.13658e-13 -3.29859e-14 -3.29859e-14 -3.29859e-14 -3.29859e-14 -5.14989e-14 -5.14989e-14 -5.14989e-14 -5.14989e-14 1.08179e-13 1.08179e-13 1.08179e-13 1.08179e-13 4.50467e-14 4.50467e-14 4.50467e-14 4.50467e-14 -1.19834e-13 -1.19834e-13 -1.19834e-13 -1.19834e-13 6.16486e-14 6.16486e-14 6.16486e-14 6.16486e-14 -3.48061e-14 -3.48061e-14 -3.48061e-14 -3.48061e-14 7.53171e-14 7.53171e-14 7.53171e-14 7.53171e-14 5.12149e-14 5.12149e-14 5.12149e-14 5.12149e-14 -1.90978e-13 -1.90978e-13 -1.90978e-13 -1.90978e-13 -8.63941e-15 -8.63941e-15 -8.63941e-15 -8.63941e-15 2.60346e-14 2.60346e-14 2.60346e-14 2.60346e-14 4.37277e-14 4.37277e-14 4.37277e-14 4.37277e-14 -1.56422e-14 -1.56422e-14 -1.56422e-14 -1.56422e-14 9.91397e-14 9.91397e-14 9.91397e-14 9.91397e-14 -4.37259e-14 -4.37259e-14 -4.37259e-14 -4.37259e-14 -1.60129e-13 -1.60129e-13 -1.60129e-13 -1.60129e-13 5.39382e-14 5.39382e-14 5.39382e-14 5.39382e-14 -6.0649e-14 -6.0649e-14 -6.0649e-14 -6.0649e-14 -6.24445e-14 -6.24445e-14 -6.24445e-14 -6.24445e-14 -8.37077e-14 -8.37077e-14 -8.37077e-14 -8.37077e-14 -1.25857e-14 -1.25857e-14 -1.25857e-14 -1.25857e-14 -1.31072e-14 -1.31072e-14 -1.31072e-14 -1.31072e-14 7.30006e-14 7.30006e-14 7.30006e-14 7.30006e-14 -4.4427e-14 -4.4427e-14 -4.4427e-14 -4.4427e-14 1.78804e-13 1.78804e-13 1.78804e-13 1.78804e-13 -9.23244e-15 -9.23244e-15 -9.23244e-15 -9.23244e-15 -9.67369e-14 -9.67369e-14 -9.67369e-14 -9.67369e-14 1.97205e-13 1.97205e-13 1.97205e-13 1.97205e-13 4.62977e-15 4.62977e-15 4.62977e-15 4.62977e-15 -2.98133e-14 -2.98133e-14 -2.98133e-14 -2.98133e-14 0 0 0 0 5.35792e-15 5.35792e-15 5.35792e-15 5.35792e-15 9.8341e-14 9.8341e-14 9.8341e-14 9.8341e-14 4.6411e-14 4.6411e-14 4.6411e-14 4.6411e-14 5.84993e-14 5.84993e-14 5.84993e-14 5.84993e-14 7.94912e-14 7.94912e-14 7.94912e-14 7.94912e-14 -7.54805e-14 -7.54805e-14 -7.54805e-14 -7.54805e-14 -2.81953e-14 -2.81953e-14 -2.81953e-14 -2.81953e-14 -1.36034e-13 -1.36034e-13 -1.36034e-13 -1.36034e-13 7.09871e-14 7.09871e-14 7.09871e-14 7.09871e-14 6.3417e-14 6.3417e-14 6.3417e-14 6.3417e-14 -1.58744e-14 -1.58744e-14 -1.58744e-14 -1.58744e-14 -2.99215e-14 -2.99215e-14 -2.99215e-14 -2.99215e-14 -6.04682e-14 -6.04682e-14 -6.04682e-14 -6.04682e-14 -1.74326e-15 -1.74326e-15 -1.74326e-15 -1.74326e-15 7.03391e-14 7.03391e-14 7.03391e-14 7.03391e-14 -1.53839e-14 -1.53839e-14 -1.53839e-14 -1.53839e-14 8.10781e-14 8.10781e-14 8.10781e-14 8.10781e-14 -2.92077e-14 -2.92077e-14 -2.92077e-14 -2.92077e-14 -2.94115e-14 -2.94115e-14 -2.94115e-14 -2.94115e-14 4.54158e-14 4.54158e-14 4.54158e-14 4.54158e-14 4.78665e-14 4.78665e-14 4.78665e-14 4.78665e-14 5.73277e-14 5.73277e-14 5.73277e-14 5.73277e-14 2.96736e-14 2.96736e-14 2.96736e-14 2.96736e-14 -1.83199e-14 -1.83199e-14 -1.83199e-14 -1.83199e-14 3.79631e-14 3.79631e-14 3.79631e-14 3.79631e-14 7.21021e-14 7.21021e-14 7.21021e-14 7.21021e-14 3.90879e-14 3.90879e-14 3.90879e-14 3.90879e-14 -1.42224e-14 -1.42224e-14 -1.42224e-14 -1.42224e-14 -2.68252e-15 -2.68252e-15 -2.68252e-15 -2.68252e-15 -6.36351e-14 -6.36351e-14 -6.36351e-14 -6.36351e-14 5.04138e-14 5.04138e-14 5.04138e-14 5.04138e-14 4.19195e-14 4.19195e-14 4.19195e-14 4.19195e-14 -1.29873e-14 -1.29873e-14 -1.29873e-14 -1.29873e-14 4.68233e-14 4.68233e-14 4.68233e-14 4.68233e-14 2.2562e-13 2.2562e-13 2.2562e-13 2.2562e-13 -8.1275e-14 -8.1275e-14 -8.1275e-14 -8.1275e-14 -2.84783e-14 -2.84783e-14 -2.84783e-14 -2.84783e-14 -3.82936e-14 -3.82936e-14 -3.82936e-14 -3.82936e-14 -3.07514e-14 -3.07514e-14 -3.07514e-14 -3.07514e-14 -2.97539e-14 -2.97539e-14 -2.97539e-14 -2.97539e-14 -6.03255e-14 -6.03255e-14 -6.03255e-14 -6.03255e-14 2.58468e-14 2.58468e-14 2.58468e-14 2.58468e-14 -4.86114e-14 -4.86114e-14 -4.86114e-14 -4.86114e-14 -9.65844e-14 -9.65844e-14 -9.65844e-14 -9.65844e-14 2.26199e-13 2.26199e-13 2.26199e-13 2.26199e-13 2.30566e-13 2.30566e-13 2.30566e-13 2.30566e-13 0 0 0 0 -1.34418e-13 -1.34418e-13 -1.34418e-13 -1.34418e-13 5.58692e-14 5.58692e-14 5.58692e-14 5.58692e-14 1.83675e-14 1.83675e-14 1.83675e-14 1.83675e-14 1.91236e-15 1.91236e-15 1.91236e-15 1.91236e-15 2.04634e-14 2.04634e-14 2.04634e-14 2.04634e-14 3.80409e-14 3.80409e-14 3.80409e-14 3.80409e-14 6.26754e-14 6.26754e-14 6.26754e-14 6.26754e-14 -5.25293e-14 -5.25293e-14 -5.25293e-14 -5.25293e-14 -7.01632e-15 -7.01632e-15 -7.01632e-15 -7.01632e-15 3.51992e-14 3.51992e-14 3.51992e-14 3.51992e-14 -8.27879e-15 -8.27879e-15 -8.27879e-15 -8.27879e-15 -1.71155e-16 -1.71155e-16 -1.71155e-16 -1.71155e-16 4.8514e-14 4.8514e-14 4.8514e-14 4.8514e-14 6.33177e-14 6.33177e-14 6.33177e-14 6.33177e-14 2.31576e-14 2.31576e-14 2.31576e-14 2.31576e-14 2.03958e-14 2.03958e-14 2.03958e-14 2.03958e-14 8.3559e-15 8.3559e-15 8.3559e-15 8.3559e-15 -3.08453e-14 -3.08453e-14 -3.08453e-14 -3.08453e-14 -7.26972e-14 -7.26972e-14 -7.26972e-14 -7.26972e-14 -4.39059e-14 -4.39059e-14 -4.39059e-14 -4.39059e-14 -5.67925e-14 -5.67925e-14 -5.67925e-14 -5.67925e-14 3.94694e-14 3.94694e-14 3.94694e-14 3.94694e-14 -9.08845e-14 -9.08845e-14 -9.08845e-14 -9.08845e-14 1.11606e-13 1.11606e-13 1.11606e-13 1.11606e-13 8.28646e-14 8.28646e-14 8.28646e-14 8.28646e-14 -8.39855e-16 -8.39855e-16 -8.39855e-16 -8.39855e-16 -1.88071e-13 -1.88071e-13 -1.88071e-13 -1.88071e-13 1.08921e-13 1.08921e-13 1.08921e-13 1.08921e-13 7.03177e-14 7.03177e-14 7.03177e-14 7.03177e-14 4.07795e-14 4.07795e-14 4.07795e-14 4.07795e-14 -2.89093e-14 -2.89093e-14 -2.89093e-14 -2.89093e-14 8.7151e-15 8.7151e-15 8.7151e-15 8.7151e-15 3.69451e-15 3.69451e-15 3.69451e-15 3.69451e-15 3.86743e-14 3.86743e-14 3.86743e-14 3.86743e-14 -6.78717e-15 -6.78717e-15 -6.78717e-15 -6.78717e-15 -4.61974e-13 -4.61974e-13 -4.61974e-13 -4.61974e-13 4.80683e-15 4.80683e-15 4.80683e-15 4.80683e-15 -1.07245e-16 -1.07245e-16 -1.07245e-16 -1.07245e-16 -3.95841e-14 -3.95841e-14 -3.95841e-14 -3.95841e-14 1.64115e-14 1.64115e-14 1.64115e-14 1.64115e-14 1.32868e-13 1.32868e-13 1.32868e-13 1.32868e-13 6.54516e-15 6.54516e-15 6.54516e-15 6.54516e-15 9.636e-16 9.636e-16 9.636e-16 9.636e-16 -1.38794e-14 -1.38794e-14 -1.38794e-14 -1.38794e-14 -2.20692e-13 -2.20692e-13 -2.20692e-13 -2.20692e-13 8.54421e-14 8.54421e-14 8.54421e-14 8.54421e-14 -1.54346e-14 -1.54346e-14 -1.54346e-14 -1.54346e-14 -1.36004e-13 -1.36004e-13 -1.36004e-13 -1.36004e-13 1.51337e-14 1.51337e-14 1.51337e-14 1.51337e-14 -1.28702e-13 -1.28702e-13 -1.28702e-13 -1.28702e-13 -5.67578e-14 -5.67578e-14 -5.67578e-14 -5.67578e-14 1.17427e-14 1.17427e-14 1.17427e-14 1.17427e-14 8.01249e-15 8.01249e-15 8.01249e-15 8.01249e-15 4.15186e-14 4.15186e-14 4.15186e-14 4.15186e-14 1.49592e-14 1.49592e-14 1.49592e-14 1.49592e-14 1.02881e-13 1.02881e-13 1.02881e-13 1.02881e-13 -6.94045e-14 -6.94045e-14 -6.94045e-14 -6.94045e-14 -6.81783e-14 -6.81783e-14 -6.81783e-14 -6.81783e-14 1.46293e-14 1.46293e-14 1.46293e-14 1.46293e-14 2.64332e-14 2.64332e-14 2.64332e-14 2.64332e-14 6.45796e-14 6.45796e-14 6.45796e-14 6.45796e-14 -3.43907e-14 -3.43907e-14 -3.43907e-14 -3.43907e-14 7.8541e-14 7.8541e-14 7.8541e-14 7.8541e-14 6.73912e-14 6.73912e-14 6.73912e-14 6.73912e-14 4.77737e-14 4.77737e-14 4.77737e-14 4.77737e-14 -2.79545e-14 -2.79545e-14 -2.79545e-14 -2.79545e-14 2.95802e-16 2.95802e-16 2.95802e-16 2.95802e-16 -5.20826e-15 -5.20826e-15 -5.20826e-15 -5.20826e-15 -1.60974e-13 -1.60974e-13 -1.60974e-13 -1.60974e-13 -2.36613e-15 -2.36613e-15 -2.36613e-15 -2.36613e-15 9.24188e-14 9.24188e-14 9.24188e-14 9.24188e-14 1.95121e-14 1.95121e-14 1.95121e-14 1.95121e-14 1.24596e-14 1.24596e-14 1.24596e-14 1.24596e-14 -3.80296e-14 -3.80296e-14 -3.80296e-14 -3.80296e-14 1.78543e-13 1.78543e-13 1.78543e-13 1.78543e-13 -4.50082e-14 -4.50082e-14 -4.50082e-14 -4.50082e-14 4.58762e-14 4.58762e-14 4.58762e-14 4.58762e-14 4.9923e-14 4.9923e-14 4.9923e-14 4.9923e-14 -7.57879e-14 -7.57879e-14 -7.57879e-14 -7.57879e-14 2.97051e-14 2.97051e-14 2.97051e-14 2.97051e-14 2.49937e-14 2.49937e-14 2.49937e-14 2.49937e-14 1.79682e-13 1.79682e-13 1.79682e-13 1.79682e-13 6.13776e-14 6.13776e-14 6.13776e-14 6.13776e-14 5.94876e-14 5.94876e-14 5.94876e-14 5.94876e-14 -7.7386e-14 -7.7386e-14 -7.7386e-14 -7.7386e-14 -3.32158e-14 -3.32158e-14 -3.32158e-14 -3.32158e-14 5.76674e-14 5.76674e-14 5.76674e-14 5.76674e-14 -5.14434e-14 -5.14434e-14 -5.14434e-14 -5.14434e-14 -4.25943e-14 -4.25943e-14 -4.25943e-14 -4.25943e-14 9.60301e-15 9.60301e-15 9.60301e-15 9.60301e-15 -8.41382e-14 -8.41382e-14 -8.41382e-14 -8.41382e-14 -1.07402e-13 -1.07402e-13 -1.07402e-13 -1.07402e-13 -4.06702e-14 -4.06702e-14 -4.06702e-14 -4.06702e-14 8.00191e-14 8.00191e-14 8.00191e-14 8.00191e-14 -4.01188e-14 -4.01188e-14 -4.01188e-14 -4.01188e-14 -1.04613e-13 -1.04613e-13 -1.04613e-13 -1.04613e-13 1.34256e-14 1.34256e-14 1.34256e-14 1.34256e-14 4.57835e-14 4.57835e-14 4.57835e-14 4.57835e-14 1.09645e-13 1.09645e-13 1.09645e-13 1.09645e-13 1.38073e-14 1.38073e-14 1.38073e-14 1.38073e-14 8.68659e-14 8.68659e-14 8.68659e-14 8.68659e-14 1.1226e-13 1.1226e-13 1.1226e-13 1.1226e-13 -2.92387e-14 -2.92387e-14 -2.92387e-14 -2.92387e-14 -6.36554e-14 -6.36554e-14 -6.36554e-14 -6.36554e-14 4.78945e-14 4.78945e-14 4.78945e-14 4.78945e-14 9.94315e-16 9.94315e-16 9.94315e-16 9.94315e-16 -5.28235e-14 -5.28235e-14 -5.28235e-14 -5.28235e-14 -8.81718e-14 -8.81718e-14 -8.81718e-14 -8.81718e-14 -1.47814e-14 -1.47814e-14 -1.47814e-14 -1.47814e-14 8.64402e-15 8.64402e-15 8.64402e-15 8.64402e-15 -1.66573e-14 -1.66573e-14 -1.66573e-14 -1.66573e-14 1.62173e-14 1.62173e-14 1.62173e-14 1.62173e-14 -1.41679e-13 -1.41679e-13 -1.41679e-13 -1.41679e-13 6.13681e-14 6.13681e-14 6.13681e-14 6.13681e-14 -1.64624e-14 -1.64624e-14 -1.64624e-14 -1.64624e-14 -2.56286e-14 -2.56286e-14 -2.56286e-14 -2.56286e-14 4.31958e-14 4.31958e-14 4.31958e-14 4.31958e-14 -5.08228e-13 -5.08228e-13 -5.08228e-13 -5.08228e-13 -4.53531e-15 -4.53531e-15 -4.53531e-15 -4.53531e-15 3.05667e-14 3.05667e-14 3.05667e-14 3.05667e-14 6.06953e-15 6.06953e-15 6.06953e-15 6.06953e-15 1.94268e-14 1.94268e-14 1.94268e-14 1.94268e-14 1.50748e-14 1.50748e-14 1.50748e-14 1.50748e-14 -8.73127e-14 -8.73127e-14 -8.73127e-14 -8.73127e-14 4.29264e-14 4.29264e-14 4.29264e-14 4.29264e-14 -2.04203e-14 -2.04203e-14 -2.04203e-14 -2.04203e-14 2.11345e-13 2.11345e-13 2.11345e-13 2.11345e-13 -5.26661e-14 -5.26661e-14 -5.26661e-14 -5.26661e-14 5.70817e-15 5.70817e-15 5.70817e-15 5.70817e-15 -7.65734e-14 -7.65734e-14 -7.65734e-14 -7.65734e-14 -1.718e-13 -1.718e-13 -1.718e-13 -1.718e-13 4.56888e-14 4.56888e-14 4.56888e-14 4.56888e-14 -5.87051e-14 -5.87051e-14 -5.87051e-14 -5.87051e-14 1.59682e-14 1.59682e-14 1.59682e-14 1.59682e-14 -2.79399e-14 -2.79399e-14 -2.79399e-14 -2.79399e-14 -2.32673e-14 -2.32673e-14 -2.32673e-14 -2.32673e-14 -3.39264e-14 -3.39264e-14 -3.39264e-14 -3.39264e-14 2.7345e-14 2.7345e-14 2.7345e-14 2.7345e-14 2.30628e-14 2.30628e-14 2.30628e-14 2.30628e-14 8.42038e-14 8.42038e-14 8.42038e-14 8.42038e-14 -1.03655e-13 -1.03655e-13 -1.03655e-13 -1.03655e-13 1.17524e-13 1.17524e-13 1.17524e-13 1.17524e-13 5.00891e-14 5.00891e-14 5.00891e-14 5.00891e-14 -2.97535e-14 -2.97535e-14 -2.97535e-14 -2.97535e-14 1.05683e-14 1.05683e-14 1.05683e-14 1.05683e-14 7.72919e-14 7.72919e-14 7.72919e-14 7.72919e-14 1.73494e-13 1.73494e-13 1.73494e-13 1.73494e-13 -1.40899e-13 -1.40899e-13 -1.40899e-13 -1.40899e-13 -1.09213e-14 -1.09213e-14 -1.09213e-14 -1.09213e-14 -2.50318e-13 -2.50318e-13 -2.50318e-13 -2.50318e-13 7.59232e-15 7.59232e-15 7.59232e-15 7.59232e-15 -8.80869e-14 -8.80869e-14 -8.80869e-14 -8.80869e-14 2.97688e-14 2.97688e-14 2.97688e-14 2.97688e-14 7.36017e-14 7.36017e-14 7.36017e-14 7.36017e-14 5.24165e-14 5.24165e-14 5.24165e-14 5.24165e-14 -2.74667e-14 -2.74667e-14 -2.74667e-14 -2.74667e-14 2.79285e-13 2.79285e-13 2.79285e-13 2.79285e-13 2.78122e-14 2.78122e-14 2.78122e-14 2.78122e-14 1.09095e-14 1.09095e-14 1.09095e-14 1.09095e-14 1.19558e-14 1.19558e-14 1.19558e-14 1.19558e-14 5.43497e-14 5.43497e-14 5.43497e-14 5.43497e-14 1.13169e-13 1.13169e-13 1.13169e-13 1.13169e-13 2.34766e-15 2.34766e-15 2.34766e-15 2.34766e-15 -2.55791e-15 -2.55791e-15 -2.55791e-15 -2.55791e-15 4.1925e-14 4.1925e-14 4.1925e-14 4.1925e-14 -6.10856e-14 -6.10856e-14 -6.10856e-14 -6.10856e-14 -5.84836e-14 -5.84836e-14 -5.84836e-14 -5.84836e-14 1.17871e-14 1.17871e-14 1.17871e-14 1.17871e-14 -7.08749e-15 -7.08749e-15 -7.08749e-15 -7.08749e-15 3.48093e-15 3.48093e-15 3.48093e-15 3.48093e-15 -2.15976e-14 -2.15976e-14 -2.15976e-14 -2.15976e-14 -1.00314e-13 -1.00314e-13 -1.00314e-13 -1.00314e-13 9.51124e-15 9.51124e-15 9.51124e-15 9.51124e-15 1.27215e-13 1.27215e-13 1.27215e-13 1.27215e-13 -6.91046e-15 -6.91046e-15 -6.91046e-15 -6.91046e-15 -1.88855e-14 -1.88855e-14 -1.88855e-14 -1.88855e-14 -4.42216e-14 -4.42216e-14 -4.42216e-14 -4.42216e-14 -3.66785e-15 -3.66785e-15 -3.66785e-15 -3.66785e-15 -1.19757e-14 -1.19757e-14 -1.19757e-14 -1.19757e-14 -5.95272e-14 -5.95272e-14 -5.95272e-14 -5.95272e-14 4.04934e-14 4.04934e-14 4.04934e-14 4.04934e-14 -5.78415e-14 -5.78415e-14 -5.78415e-14 -5.78415e-14 4.45932e-14 4.45932e-14 4.45932e-14 4.45932e-14 -9.10379e-14 -9.10379e-14 -9.10379e-14 -9.10379e-14 -3.46362e-14 -3.46362e-14 -3.46362e-14 -3.46362e-14 4.52515e-14 4.52515e-14 4.52515e-14 4.52515e-14 -2.41836e-14 -2.41836e-14 -2.41836e-14 -2.41836e-14 -4.12499e-13 -4.12499e-13 -4.12499e-13 -4.12499e-13 2.62197e-14 2.62197e-14 2.62197e-14 2.62197e-14 1.07404e-13 1.07404e-13 1.07404e-13 1.07404e-13 1.48102e-14 1.48102e-14 1.48102e-14 1.48102e-14 7.25219e-15 7.25219e-15 7.25219e-15 7.25219e-15 4.23331e-14 4.23331e-14 4.23331e-14 4.23331e-14 -8.71158e-15 -8.71158e-15 -8.71158e-15 -8.71158e-15 -2.59183e-14 -2.59183e-14 -2.59183e-14 -2.59183e-14 8.21536e-14 8.21536e-14 8.21536e-14 8.21536e-14 -2.14008e-14 -2.14008e-14 -2.14008e-14 -2.14008e-14 -2.61028e-15 -2.61028e-15 -2.61028e-15 -2.61028e-15 -4.91883e-14 -4.91883e-14 -4.91883e-14 -4.91883e-14 -2.78234e-14 -2.78234e-14 -2.78234e-14 -2.78234e-14 -2.1762e-14 -2.1762e-14 -2.1762e-14 -2.1762e-14 2.61573e-14 2.61573e-14 2.61573e-14 2.61573e-14 -1.03181e-13 -1.03181e-13 -1.03181e-13 -1.03181e-13 6.5345e-14 6.5345e-14 6.5345e-14 6.5345e-14 -8.41855e-14 -8.41855e-14 -8.41855e-14 -8.41855e-14 -6.33215e-14 -6.33215e-14 -6.33215e-14 -6.33215e-14 -9.92646e-14 -9.92646e-14 -9.92646e-14 -9.92646e-14 3.69512e-14 3.69512e-14 3.69512e-14 3.69512e-14 2.63791e-13 2.63791e-13 2.63791e-13 2.63791e-13 8.82534e-14 8.82534e-14 8.82534e-14 8.82534e-14 -2.25863e-14 -2.25863e-14 -2.25863e-14 -2.25863e-14 -1.37016e-13 -1.37016e-13 -1.37016e-13 -1.37016e-13 -3.36004e-14 -3.36004e-14 -3.36004e-14 -3.36004e-14 2.98691e-14 2.98691e-14 2.98691e-14 2.98691e-14 1.15249e-13 1.15249e-13 1.15249e-13 1.15249e-13 6.22102e-14 6.22102e-14 6.22102e-14 6.22102e-14 -5.06457e-15 -5.06457e-15 -5.06457e-15 -5.06457e-15 2.13826e-14 2.13826e-14 2.13826e-14 2.13826e-14 -3.68716e-14 -3.68716e-14 -3.68716e-14 -3.68716e-14 -2.25333e-13 -2.25333e-13 -2.25333e-13 -2.25333e-13 -1.87842e-13 -1.87842e-13 -1.87842e-13 -1.87842e-13 3.67148e-14 3.67148e-14 3.67148e-14 3.67148e-14 7.8548e-15 7.8548e-15 7.8548e-15 7.8548e-15 -2.00438e-14 -2.00438e-14 -2.00438e-14 -2.00438e-14 4.03411e-14 4.03411e-14 4.03411e-14 4.03411e-14 1.8553e-13 1.8553e-13 1.8553e-13 1.8553e-13 1.04038e-13 1.04038e-13 1.04038e-13 1.04038e-13 9.09518e-14 9.09518e-14 9.09518e-14 9.09518e-14 7.74002e-14 7.74002e-14 7.74002e-14 7.74002e-14 1.96025e-14 1.96025e-14 1.96025e-14 1.96025e-14 6.06346e-14 6.06346e-14 6.06346e-14 6.06346e-14 -2.42466e-14 -2.42466e-14 -2.42466e-14 -2.42466e-14 1.18486e-14 1.18486e-14 1.18486e-14 1.18486e-14 -7.74684e-14 -7.74684e-14 -7.74684e-14 -7.74684e-14 -4.52301e-14 -4.52301e-14 -4.52301e-14 -4.52301e-14 -5.53854e-16 -5.53854e-16 -5.53854e-16 -5.53854e-16 -1.99995e-14 -1.99995e-14 -1.99995e-14 -1.99995e-14 4.25143e-14 4.25143e-14 4.25143e-14 4.25143e-14 -3.64909e-14 -3.64909e-14 -3.64909e-14 -3.64909e-14 -1.13326e-14 -1.13326e-14 -1.13326e-14 -1.13326e-14 5.94668e-14 5.94668e-14 5.94668e-14 5.94668e-14 2.15344e-14 2.15344e-14 2.15344e-14 2.15344e-14 -5.65811e-14 -5.65811e-14 -5.65811e-14 -5.65811e-14 -1.27179e-13 -1.27179e-13 -1.27179e-13 -1.27179e-13 -1.69597e-13 -1.69597e-13 -1.69597e-13 -1.69597e-13 -1.01389e-13 -1.01389e-13 -1.01389e-13 -1.01389e-13 -1.3156e-13 -1.3156e-13 -1.3156e-13 -1.3156e-13 9.4692e-15 9.4692e-15 9.4692e-15 9.4692e-15 -3.94903e-15 -3.94903e-15 -3.94903e-15 -3.94903e-15 1.03827e-14 1.03827e-14 1.03827e-14 1.03827e-14 5.35874e-14 5.35874e-14 5.35874e-14 5.35874e-14 1.38791e-14 1.38791e-14 1.38791e-14 1.38791e-14 -4.18713e-16 -4.18713e-16 -4.18713e-16 -4.18713e-16 -4.54423e-14 -4.54423e-14 -4.54423e-14 -4.54423e-14 4.42394e-14 4.42394e-14 4.42394e-14 4.42394e-14 -2.81276e-14 -2.81276e-14 -2.81276e-14 -2.81276e-14 -1.03789e-14 -1.03789e-14 -1.03789e-14 -1.03789e-14 2.46913e-14 2.46913e-14 2.46913e-14 2.46913e-14 -5.72193e-14 -5.72193e-14 -5.72193e-14 -5.72193e-14 6.8194e-14 6.8194e-14 6.8194e-14 6.8194e-14 -2.74765e-14 -2.74765e-14 -2.74765e-14 -2.74765e-14 -1.05926e-13 -1.05926e-13 -1.05926e-13 -1.05926e-13 -6.71499e-14 -6.71499e-14 -6.71499e-14 -6.71499e-14 -3.0328e-14 -3.0328e-14 -3.0328e-14 -3.0328e-14 -7.37743e-14 -7.37743e-14 -7.37743e-14 -7.37743e-14 9.59648e-14 9.59648e-14 9.59648e-14 9.59648e-14 -1.42867e-14 -1.42867e-14 -1.42867e-14 -1.42867e-14 -3.02277e-14 -3.02277e-14 -3.02277e-14 -3.02277e-14 -2.48964e-14 -2.48964e-14 -2.48964e-14 -2.48964e-14 -5.95464e-14 -5.95464e-14 -5.95464e-14 -5.95464e-14 -5.52631e-14 -5.52631e-14 -5.52631e-14 -5.52631e-14 -3.35043e-14 -3.35043e-14 -3.35043e-14 -3.35043e-14 -6.4666e-14 -6.4666e-14 -6.4666e-14 -6.4666e-14 3.72048e-14 3.72048e-14 3.72048e-14 3.72048e-14 6.11903e-14 6.11903e-14 6.11903e-14 6.11903e-14 4.32358e-15 4.32358e-15 4.32358e-15 4.32358e-15 4.90744e-14 4.90744e-14 4.90744e-14 4.90744e-14 -2.61723e-14 -2.61723e-14 -2.61723e-14 -2.61723e-14 -5.06212e-14 -5.06212e-14 -5.06212e-14 -5.06212e-14 1.49506e-13 1.49506e-13 1.49506e-13 1.49506e-13 3.76998e-14 3.76998e-14 3.76998e-14 3.76998e-14 -2.04584e-14 -2.04584e-14 -2.04584e-14 -2.04584e-14 1.99901e-15 1.99901e-15 1.99901e-15 1.99901e-15 -4.08595e-14 -4.08595e-14 -4.08595e-14 -4.08595e-14 -1.19201e-13 -1.19201e-13 -1.19201e-13 -1.19201e-13 -1.94921e-14 -1.94921e-14 -1.94921e-14 -1.94921e-14 5.80217e-14 5.80217e-14 5.80217e-14 5.80217e-14 -6.8732e-14 -6.8732e-14 -6.8732e-14 -6.8732e-14 2.09146e-14 2.09146e-14 2.09146e-14 2.09146e-14 2.37105e-15 2.37105e-15 2.37105e-15 2.37105e-15 3.5238e-14 3.5238e-14 3.5238e-14 3.5238e-14 1.09101e-13 1.09101e-13 1.09101e-13 1.09101e-13 -5.59356e-14 -5.59356e-14 -5.59356e-14 -5.59356e-14 3.95539e-14 3.95539e-14 3.95539e-14 3.95539e-14 1.65755e-14 1.65755e-14 1.65755e-14 1.65755e-14 -7.64634e-15 -7.64634e-15 -7.64634e-15 -7.64634e-15 -6.59689e-14 -6.59689e-14 -6.59689e-14 -6.59689e-14 2.12923e-14 2.12923e-14 2.12923e-14 2.12923e-14 -1.42117e-14 -1.42117e-14 -1.42117e-14 -1.42117e-14 -4.32687e-14 -4.32687e-14 -4.32687e-14 -4.32687e-14 1.36592e-14 1.36592e-14 1.36592e-14 1.36592e-14 -1.36673e-14 -1.36673e-14 -1.36673e-14 -1.36673e-14 -3.11991e-14 -3.11991e-14 -3.11991e-14 -3.11991e-14 -1.33058e-13 -1.33058e-13 -1.33058e-13 -1.33058e-13 -7.16197e-15 -7.16197e-15 -7.16197e-15 -7.16197e-15 -3.06194e-14 -3.06194e-14 -3.06194e-14 -3.06194e-14 6.81118e-14 6.81118e-14 6.81118e-14 6.81118e-14 5.71196e-14 5.71196e-14 5.71196e-14 5.71196e-14 -1.12688e-14 -1.12688e-14 -1.12688e-14 -1.12688e-14 -1.18248e-14 -1.18248e-14 -1.18248e-14 -1.18248e-14 -2.47382e-14 -2.47382e-14 -2.47382e-14 -2.47382e-14 5.92712e-14 5.92712e-14 5.92712e-14 5.92712e-14 7.97873e-14 7.97873e-14 7.97873e-14 7.97873e-14 1.23768e-13 1.23768e-13 1.23768e-13 1.23768e-13 6.00591e-14 6.00591e-14 6.00591e-14 6.00591e-14 1.9727e-14 1.9727e-14 1.9727e-14 1.9727e-14 -8.92744e-14 -8.92744e-14 -8.92744e-14 -8.92744e-14 -9.43432e-14 -9.43432e-14 -9.43432e-14 -9.43432e-14 -2.06235e-14 -2.06235e-14 -2.06235e-14 -2.06235e-14 -5.01003e-14 -5.01003e-14 -5.01003e-14 -5.01003e-14 -1.30955e-14 -1.30955e-14 -1.30955e-14 -1.30955e-14 -1.92647e-13 -1.92647e-13 -1.92647e-13 -1.92647e-13 -1.89837e-13 -1.89837e-13 -1.89837e-13 -1.89837e-13 -5.12517e-14 -5.12517e-14 -5.12517e-14 -5.12517e-14 2.88467e-14 2.88467e-14 2.88467e-14 2.88467e-14 8.38795e-14 8.38795e-14 8.38795e-14 8.38795e-14 2.97116e-14 2.97116e-14 2.97116e-14 2.97116e-14 -3.6692e-14 -3.6692e-14 -3.6692e-14 -3.6692e-14 7.09079e-15 7.09079e-15 7.09079e-15 7.09079e-15 4.3745e-15 4.3745e-15 4.3745e-15 4.3745e-15 7.5316e-14 7.5316e-14 7.5316e-14 7.5316e-14 3.52101e-15 3.52101e-15 3.52101e-15 3.52101e-15 -1.16145e-14 -1.16145e-14 -1.16145e-14 -1.16145e-14 1.63761e-14 1.63761e-14 1.63761e-14 1.63761e-14 -4.51709e-14 -4.51709e-14 -4.51709e-14 -4.51709e-14 5.61143e-14 5.61143e-14 5.61143e-14 5.61143e-14 6.5781e-14 6.5781e-14 6.5781e-14 6.5781e-14 3.97254e-14 3.97254e-14 3.97254e-14 3.97254e-14 2.33549e-16 2.33549e-16 2.33549e-16 2.33549e-16 6.67824e-14 6.67824e-14 6.67824e-14 6.67824e-14 2.57379e-14 2.57379e-14 2.57379e-14 2.57379e-14 6.74987e-14 6.74987e-14 6.74987e-14 6.74987e-14 1.38013e-14 1.38013e-14 1.38013e-14 1.38013e-14 -1.56341e-14 -1.56341e-14 -1.56341e-14 -1.56341e-14 7.48198e-14 7.48198e-14 7.48198e-14 7.48198e-14 -2.11556e-14 -2.11556e-14 -2.11556e-14 -2.11556e-14 6.07144e-14 6.07144e-14 6.07144e-14 6.07144e-14 5.62883e-14 5.62883e-14 5.62883e-14 5.62883e-14 -1.30702e-13 -1.30702e-13 -1.30702e-13 -1.30702e-13 3.0103e-14 3.0103e-14 3.0103e-14 3.0103e-14 -4.98906e-14 -4.98906e-14 -4.98906e-14 -4.98906e-14 -1.80444e-13 -1.80444e-13 -1.80444e-13 -1.80444e-13 -7.60734e-14 -7.60734e-14 -7.60734e-14 -7.60734e-14 -7.82813e-14 -7.82813e-14 -7.82813e-14 -7.82813e-14 -9.96543e-15 -9.96543e-15 -9.96543e-15 -9.96543e-15 -4.95254e-14 -4.95254e-14 -4.95254e-14 -4.95254e-14 6.35169e-14 6.35169e-14 6.35169e-14 6.35169e-14 1.34001e-13 1.34001e-13 1.34001e-13 1.34001e-13 -5.55383e-15 -5.55383e-15 -5.55383e-15 -5.55383e-15 -2.09062e-14 -2.09062e-14 -2.09062e-14 -2.09062e-14 2.0927e-14 2.0927e-14 2.0927e-14 2.0927e-14 4.00578e-14 4.00578e-14 4.00578e-14 4.00578e-14 8.61779e-14 8.61779e-14 8.61779e-14 8.61779e-14 -5.98209e-14 -5.98209e-14 -5.98209e-14 -5.98209e-14 -2.97198e-15 -2.97198e-15 -2.97198e-15 -2.97198e-15 4.69155e-14 4.69155e-14 4.69155e-14 4.69155e-14 4.8752e-14 4.8752e-14 4.8752e-14 4.8752e-14 -2.43146e-14 -2.43146e-14 -2.43146e-14 -2.43146e-14 1.69545e-15 1.69545e-15 1.69545e-15 1.69545e-15 7.00265e-14 7.00265e-14 7.00265e-14 7.00265e-14 4.96354e-14 4.96354e-14 4.96354e-14 4.96354e-14 3.63865e-14 3.63865e-14 3.63865e-14 3.63865e-14 5.57548e-14 5.57548e-14 5.57548e-14 5.57548e-14 -8.55407e-15 -8.55407e-15 -8.55407e-15 -8.55407e-15 -2.6795e-14 -2.6795e-14 -2.6795e-14 -2.6795e-14 -1.17842e-14 -1.17842e-14 -1.17842e-14 -1.17842e-14 8.45941e-15 8.45941e-15 8.45941e-15 8.45941e-15 5.20116e-14 5.20116e-14 5.20116e-14 5.20116e-14 -2.5273e-14 -2.5273e-14 -2.5273e-14 -2.5273e-14 2.79265e-14 2.79265e-14 2.79265e-14 2.79265e-14 1.32598e-13 1.32598e-13 1.32598e-13 1.32598e-13 -5.25663e-14 -5.25663e-14 -5.25663e-14 -5.25663e-14 -4.51688e-14 -4.51688e-14 -4.51688e-14 -4.51688e-14 3.58168e-14 3.58168e-14 3.58168e-14 3.58168e-14 1.30134e-14 1.30134e-14 1.30134e-14 1.30134e-14 2.79806e-14 2.79806e-14 2.79806e-14 2.79806e-14 -1.70672e-13 -1.70672e-13 -1.70672e-13 -1.70672e-13 -2.60378e-14 -2.60378e-14 -2.60378e-14 -2.60378e-14 1.55509e-14 1.55509e-14 1.55509e-14 1.55509e-14 -3.02805e-14 -3.02805e-14 -3.02805e-14 -3.02805e-14 1.0784e-14 1.0784e-14 1.0784e-14 1.0784e-14 -9.55523e-14 -9.55523e-14 -9.55523e-14 -9.55523e-14 2.30201e-14 2.30201e-14 2.30201e-14 2.30201e-14 -7.70734e-15 -7.70734e-15 -7.70734e-15 -7.70734e-15 -7.99397e-15 -7.99397e-15 -7.99397e-15 -7.99397e-15 -4.95715e-15 -4.95715e-15 -4.95715e-15 -4.95715e-15 -4.3677e-14 -4.3677e-14 -4.3677e-14 -4.3677e-14 1.43234e-15 1.43234e-15 1.43234e-15 1.43234e-15 -2.66905e-14 -2.66905e-14 -2.66905e-14 -2.66905e-14 5.8437e-14 5.8437e-14 5.8437e-14 5.8437e-14 -3.54131e-14 -3.54131e-14 -3.54131e-14 -3.54131e-14 2.19775e-14 2.19775e-14 2.19775e-14 2.19775e-14 -3.91883e-14 -3.91883e-14 -3.91883e-14 -3.91883e-14 -7.65238e-15 -7.65238e-15 -7.65238e-15 -7.65238e-15 -7.34304e-15 -7.34304e-15 -7.34304e-15 -7.34304e-15 6.33351e-15 6.33351e-15 6.33351e-15 6.33351e-15 -2.37835e-14 -2.37835e-14 -2.37835e-14 -2.37835e-14 7.78074e-14 7.78074e-14 7.78074e-14 7.78074e-14 3.15188e-14 3.15188e-14 3.15188e-14 3.15188e-14 5.57823e-14 5.57823e-14 5.57823e-14 5.57823e-14 1.96136e-14 1.96136e-14 1.96136e-14 1.96136e-14 7.71851e-14 7.71851e-14 7.71851e-14 7.71851e-14 -5.46765e-14 -5.46765e-14 -5.46765e-14 -5.46765e-14 -5.46825e-14 -5.46825e-14 -5.46825e-14 -5.46825e-14 -2.52245e-14 -2.52245e-14 -2.52245e-14 -2.52245e-14 1.89612e-13 1.89612e-13 1.89612e-13 1.89612e-13 4.1861e-14 4.1861e-14 4.1861e-14 4.1861e-14 -2.29582e-14 -2.29582e-14 -2.29582e-14 -2.29582e-14 -8.01035e-14 -8.01035e-14 -8.01035e-14 -8.01035e-14 -2.22083e-14 -2.22083e-14 -2.22083e-14 -2.22083e-14 3.40412e-14 3.40412e-14 3.40412e-14 3.40412e-14 1.37992e-13 1.37992e-13 1.37992e-13 1.37992e-13 -1.79799e-13 -1.79799e-13 -1.79799e-13 -1.79799e-13 3.65532e-14 3.65532e-14 3.65532e-14 3.65532e-14 5.92275e-14 5.92275e-14 5.92275e-14 5.92275e-14 5.27558e-14 5.27558e-14 5.27558e-14 5.27558e-14 -1.11182e-13 -1.11182e-13 -1.11182e-13 -1.11182e-13 -1.39954e-13 -1.39954e-13 -1.39954e-13 -1.39954e-13 5.63769e-14 5.63769e-14 5.63769e-14 5.63769e-14 4.14953e-14 4.14953e-14 4.14953e-14 4.14953e-14 1.25934e-14 1.25934e-14 1.25934e-14 1.25934e-14 -1.52724e-13 -1.52724e-13 -1.52724e-13 -1.52724e-13 -4.38102e-14 -4.38102e-14 -4.38102e-14 -4.38102e-14 7.97618e-14 7.97618e-14 7.97618e-14 7.97618e-14 -1.72324e-14 -1.72324e-14 -1.72324e-14 -1.72324e-14 3.15135e-14 3.15135e-14 3.15135e-14 3.15135e-14 -7.42393e-14 -7.42393e-14 -7.42393e-14 -7.42393e-14 3.96909e-14 3.96909e-14 3.96909e-14 3.96909e-14 -9.70709e-14 -9.70709e-14 -9.70709e-14 -9.70709e-14 2.0717e-14 2.0717e-14 2.0717e-14 2.0717e-14 -2.62066e-14 -2.62066e-14 -2.62066e-14 -2.62066e-14 -7.98918e-14 -7.98918e-14 -7.98918e-14 -7.98918e-14 5.00095e-14 5.00095e-14 5.00095e-14 5.00095e-14 6.55915e-15 6.55915e-15 6.55915e-15 6.55915e-15 4.01201e-14 4.01201e-14 4.01201e-14 4.01201e-14 6.84833e-14 6.84833e-14 6.84833e-14 6.84833e-14 6.14863e-14 6.14863e-14 6.14863e-14 6.14863e-14 -3.07332e-14 -3.07332e-14 -3.07332e-14 -3.07332e-14 1.53431e-14 1.53431e-14 1.53431e-14 1.53431e-14 4.12915e-14 4.12915e-14 4.12915e-14 4.12915e-14 -2.80967e-14 -2.80967e-14 -2.80967e-14 -2.80967e-14 -1.84885e-13 -1.84885e-13 -1.84885e-13 -1.84885e-13 4.04031e-14 4.04031e-14 4.04031e-14 4.04031e-14 -9.39284e-14 -9.39284e-14 -9.39284e-14 -9.39284e-14 3.6789e-14 3.6789e-14 3.6789e-14 3.6789e-14 1.69827e-14 1.69827e-14 1.69827e-14 1.69827e-14 -4.94046e-15 -4.94046e-15 -4.94046e-15 -4.94046e-15 -1.08977e-14 -1.08977e-14 -1.08977e-14 -1.08977e-14 1.39955e-13 1.39955e-13 1.39955e-13 1.39955e-13 1.34742e-14 1.34742e-14 1.34742e-14 1.34742e-14 8.32697e-14 8.32697e-14 8.32697e-14 8.32697e-14 -1.04306e-13 -1.04306e-13 -1.04306e-13 -1.04306e-13 3.10646e-15 3.10646e-15 3.10646e-15 3.10646e-15 -1.58263e-14 -1.58263e-14 -1.58263e-14 -1.58263e-14 -3.69388e-14 -3.69388e-14 -3.69388e-14 -3.69388e-14 -5.49117e-15 -5.49117e-15 -5.49117e-15 -5.49117e-15 -4.03672e-14 -4.03672e-14 -4.03672e-14 -4.03672e-14 7.51897e-14 7.51897e-14 7.51897e-14 7.51897e-14 -1.35239e-14 -1.35239e-14 -1.35239e-14 -1.35239e-14 4.61413e-14 4.61413e-14 4.61413e-14 4.61413e-14 -5.7172e-14 -5.7172e-14 -5.7172e-14 -5.7172e-14 -2.46874e-14 -2.46874e-14 -2.46874e-14 -2.46874e-14 -2.15209e-13 -2.15209e-13 -2.15209e-13 -2.15209e-13 3.65459e-14 3.65459e-14 3.65459e-14 3.65459e-14 6.38798e-14 6.38798e-14 6.38798e-14 6.38798e-14 -1.17183e-14 -1.17183e-14 -1.17183e-14 -1.17183e-14 9.41492e-15 9.41492e-15 9.41492e-15 9.41492e-15 -2.1962e-14 -2.1962e-14 -2.1962e-14 -2.1962e-14 9.46548e-14 9.46548e-14 9.46548e-14 9.46548e-14 -1.21654e-13 -1.21654e-13 -1.21654e-13 -1.21654e-13 -5.05694e-14 -5.05694e-14 -5.05694e-14 -5.05694e-14 -9.83897e-14 -9.83897e-14 -9.83897e-14 -9.83897e-14 9.91035e-14 9.91035e-14 9.91035e-14 9.91035e-14 -7.11909e-16 -7.11909e-16 -7.11909e-16 -7.11909e-16 3.45308e-14 3.45308e-14 3.45308e-14 3.45308e-14 -2.93482e-14 -2.93482e-14 -2.93482e-14 -2.93482e-14 -3.38473e-14 -3.38473e-14 -3.38473e-14 -3.38473e-14 1.35317e-14 1.35317e-14 1.35317e-14 1.35317e-14 -5.25814e-14 -5.25814e-14 -5.25814e-14 -5.25814e-14 -4.03838e-14 -4.03838e-14 -4.03838e-14 -4.03838e-14 5.85412e-14 5.85412e-14 5.85412e-14 5.85412e-14 1.47575e-14 1.47575e-14 1.47575e-14 1.47575e-14 6.79478e-14 6.79478e-14 6.79478e-14 6.79478e-14 6.41732e-14 6.41732e-14 6.41732e-14 6.41732e-14 2.27926e-14 2.27926e-14 2.27926e-14 2.27926e-14 -1.52767e-14 -1.52767e-14 -1.52767e-14 -1.52767e-14 4.73523e-15 4.73523e-15 4.73523e-15 4.73523e-15 2.1708e-14 2.1708e-14 2.1708e-14 2.1708e-14 -3.90897e-14 -3.90897e-14 -3.90897e-14 -3.90897e-14 -8.61981e-15 -8.61981e-15 -8.61981e-15 -8.61981e-15 2.9298e-14 2.9298e-14 2.9298e-14 2.9298e-14 1.87187e-14 1.87187e-14 1.87187e-14 1.87187e-14 3.33988e-14 3.33988e-14 3.33988e-14 3.33988e-14 2.08895e-13 2.08895e-13 2.08895e-13 2.08895e-13 6.32285e-14 6.32285e-14 6.32285e-14 6.32285e-14 -1.90411e-15 -1.90411e-15 -1.90411e-15 -1.90411e-15 1.23819e-15 1.23819e-15 1.23819e-15 1.23819e-15 1.3507e-14 1.3507e-14 1.3507e-14 1.3507e-14 -2.20803e-13 -2.20803e-13 -2.20803e-13 -2.20803e-13 -5.91508e-14 -5.91508e-14 -5.91508e-14 -5.91508e-14 -2.5364e-14 -2.5364e-14 -2.5364e-14 -2.5364e-14 8.57727e-15 8.57727e-15 8.57727e-15 8.57727e-15 1.61048e-14 1.61048e-14 1.61048e-14 1.61048e-14 -7.71809e-14 -7.71809e-14 -7.71809e-14 -7.71809e-14 2.82274e-14 2.82274e-14 2.82274e-14 2.82274e-14 1.10295e-14 1.10295e-14 1.10295e-14 1.10295e-14 -1.89467e-14 -1.89467e-14 -1.89467e-14 -1.89467e-14 -2.72906e-14 -2.72906e-14 -2.72906e-14 -2.72906e-14 -9.74796e-15 -9.74796e-15 -9.74796e-15 -9.74796e-15 -1.55798e-13 -1.55798e-13 -1.55798e-13 -1.55798e-13 2.12003e-13 2.12003e-13 2.12003e-13 2.12003e-13 2.87918e-14 2.87918e-14 2.87918e-14 2.87918e-14 3.71091e-14 3.71091e-14 3.71091e-14 3.71091e-14 6.15321e-14 6.15321e-14 6.15321e-14 6.15321e-14 -2.8824e-14 -2.8824e-14 -2.8824e-14 -2.8824e-14 -3.08433e-14 -3.08433e-14 -3.08433e-14 -3.08433e-14 -6.84653e-15 -6.84653e-15 -6.84653e-15 -6.84653e-15 3.69618e-14 3.69618e-14 3.69618e-14 3.69618e-14 -4.95476e-14 -4.95476e-14 -4.95476e-14 -4.95476e-14 6.86273e-15 6.86273e-15 6.86273e-15 6.86273e-15 -2.79362e-14 -2.79362e-14 -2.79362e-14 -2.79362e-14 1.57461e-13 1.57461e-13 1.57461e-13 1.57461e-13 -8.64465e-14 -8.64465e-14 -8.64465e-14 -8.64465e-14 2.75707e-14 2.75707e-14 2.75707e-14 2.75707e-14 -9.22559e-14 -9.22559e-14 -9.22559e-14 -9.22559e-14 -6.26616e-15 -6.26616e-15 -6.26616e-15 -6.26616e-15 -1.21596e-13 -1.21596e-13 -1.21596e-13 -1.21596e-13 2.61831e-14 2.61831e-14 2.61831e-14 2.61831e-14 -7.8349e-14 -7.8349e-14 -7.8349e-14 -7.8349e-14 1.43936e-13 1.43936e-13 1.43936e-13 1.43936e-13 2.63056e-14 2.63056e-14 2.63056e-14 2.63056e-14 3.23591e-14 3.23591e-14 3.23591e-14 3.23591e-14 6.9564e-15 6.9564e-15 6.9564e-15 6.9564e-15 3.80451e-14 3.80451e-14 3.80451e-14 3.80451e-14 -4.66296e-14 -4.66296e-14 -4.66296e-14 -4.66296e-14 2.41297e-14 2.41297e-14 2.41297e-14 2.41297e-14 3.10803e-14 3.10803e-14 3.10803e-14 3.10803e-14 1.14902e-15 1.14902e-15 1.14902e-15 1.14902e-15 1.38446e-14 1.38446e-14 1.38446e-14 1.38446e-14 1.19791e-13 1.19791e-13 1.19791e-13 1.19791e-13 -5.74674e-14 -5.74674e-14 -5.74674e-14 -5.74674e-14 2.67355e-14 2.67355e-14 2.67355e-14 2.67355e-14 -7.01663e-14 -7.01663e-14 -7.01663e-14 -7.01663e-14 4.11063e-14 4.11063e-14 4.11063e-14 4.11063e-14 -3.97315e-14 -3.97315e-14 -3.97315e-14 -3.97315e-14 -2.62879e-14 -2.62879e-14 -2.62879e-14 -2.62879e-14 -1.59253e-14 -1.59253e-14 -1.59253e-14 -1.59253e-14 -3.00113e-14 -3.00113e-14 -3.00113e-14 -3.00113e-14 1.02626e-14 1.02626e-14 1.02626e-14 1.02626e-14 -2.66062e-14 -2.66062e-14 -2.66062e-14 -2.66062e-14 1.08018e-13 1.08018e-13 1.08018e-13 1.08018e-13 9.22157e-14 9.22157e-14 9.22157e-14 9.22157e-14 -4.92996e-14 -4.92996e-14 -4.92996e-14 -4.92996e-14 6.00586e-14 6.00586e-14 6.00586e-14 6.00586e-14 1.09637e-14 1.09637e-14 1.09637e-14 1.09637e-14 3.89848e-14 3.89848e-14 3.89848e-14 3.89848e-14 7.60369e-14 7.60369e-14 7.60369e-14 7.60369e-14 -6.61187e-14 -6.61187e-14 -6.61187e-14 -6.61187e-14 1.36464e-14 1.36464e-14 1.36464e-14 1.36464e-14 1.33648e-13 1.33648e-13 1.33648e-13 1.33648e-13 7.17043e-14 7.17043e-14 7.17043e-14 7.17043e-14 1.99686e-14 1.99686e-14 1.99686e-14 1.99686e-14 -1.37415e-14 -1.37415e-14 -1.37415e-14 -1.37415e-14 -5.77043e-15 -5.77043e-15 -5.77043e-15 -5.77043e-15 1.25772e-14 1.25772e-14 1.25772e-14 1.25772e-14 1.02539e-13 1.02539e-13 1.02539e-13 1.02539e-13 -6.99671e-14 -6.99671e-14 -6.99671e-14 -6.99671e-14 5.74279e-14 5.74279e-14 5.74279e-14 5.74279e-14 -1.76112e-15 -1.76112e-15 -1.76112e-15 -1.76112e-15 5.84568e-14 5.84568e-14 5.84568e-14 5.84568e-14 2.8291e-14 2.8291e-14 2.8291e-14 2.8291e-14 4.05605e-14 4.05605e-14 4.05605e-14 4.05605e-14 -3.53248e-14 -3.53248e-14 -3.53248e-14 -3.53248e-14 -3.54509e-14 -3.54509e-14 -3.54509e-14 -3.54509e-14 -2.48118e-14 -2.48118e-14 -2.48118e-14 -2.48118e-14 -8.85431e-15 -8.85431e-15 -8.85431e-15 -8.85431e-15 -2.23047e-14 -2.23047e-14 -2.23047e-14 -2.23047e-14 5.89128e-14 5.89128e-14 5.89128e-14 5.89128e-14 -3.15139e-14 -3.15139e-14 -3.15139e-14 -3.15139e-14 3.56884e-14 3.56884e-14 3.56884e-14 3.56884e-14 -3.37689e-15 -3.37689e-15 -3.37689e-15 -3.37689e-15 -9.00288e-15 -9.00288e-15 -9.00288e-15 -9.00288e-15 -3.32839e-14 -3.32839e-14 -3.32839e-14 -3.32839e-14 -7.37266e-14 -7.37266e-14 -7.37266e-14 -7.37266e-14 -7.49222e-14 -7.49222e-14 -7.49222e-14 -7.49222e-14 -9.28988e-14 -9.28988e-14 -9.28988e-14 -9.28988e-14 4.15879e-14 4.15879e-14 4.15879e-14 4.15879e-14 5.00008e-14 5.00008e-14 5.00008e-14 5.00008e-14 3.07313e-14 3.07313e-14 3.07313e-14 3.07313e-14 -2.96578e-14 -2.96578e-14 -2.96578e-14 -2.96578e-14 -1.26102e-14 -1.26102e-14 -1.26102e-14 -1.26102e-14 -4.33906e-14 -4.33906e-14 -4.33906e-14 -4.33906e-14 7.57877e-14 7.57877e-14 7.57877e-14 7.57877e-14 8.92694e-14 8.92694e-14 8.92694e-14 8.92694e-14 2.21614e-14 2.21614e-14 2.21614e-14 2.21614e-14 -5.367e-14 -5.367e-14 -5.367e-14 -5.367e-14 -1.02157e-13 -1.02157e-13 -1.02157e-13 -1.02157e-13 -1.65894e-14 -1.65894e-14 -1.65894e-14 -1.65894e-14 4.09897e-15 4.09897e-15 4.09897e-15 4.09897e-15 3.36764e-15 3.36764e-15 3.36764e-15 3.36764e-15 -2.44558e-14 -2.44558e-14 -2.44558e-14 -2.44558e-14 -6.67331e-14 -6.67331e-14 -6.67331e-14 -6.67331e-14 1.104e-14 1.104e-14 1.104e-14 1.104e-14 -1.57308e-14 -1.57308e-14 -1.57308e-14 -1.57308e-14 -1.64887e-13 -1.64887e-13 -1.64887e-13 -1.64887e-13 4.89921e-14 4.89921e-14 4.89921e-14 4.89921e-14 -3.09457e-14 -3.09457e-14 -3.09457e-14 -3.09457e-14 9.16244e-14 9.16244e-14 9.16244e-14 9.16244e-14 4.0624e-14 4.0624e-14 4.0624e-14 4.0624e-14 3.39394e-14 3.39394e-14 3.39394e-14 3.39394e-14 -2.01009e-14 -2.01009e-14 -2.01009e-14 -2.01009e-14 -9.0086e-15 -9.0086e-15 -9.0086e-15 -9.0086e-15 5.04716e-15 5.04716e-15 5.04716e-15 5.04716e-15 1.5587e-14 1.5587e-14 1.5587e-14 1.5587e-14 6.2453e-15 6.2453e-15 6.2453e-15 6.2453e-15 6.14261e-15 6.14261e-15 6.14261e-15 6.14261e-15 -2.70358e-14 -2.70358e-14 -2.70358e-14 -2.70358e-14 -2.66468e-14 -2.66468e-14 -2.66468e-14 -2.66468e-14 3.73944e-14 3.73944e-14 3.73944e-14 3.73944e-14 -5.6577e-14 -5.6577e-14 -5.6577e-14 -5.6577e-14 -3.4635e-14 -3.4635e-14 -3.4635e-14 -3.4635e-14 -7.46077e-14 -7.46077e-14 -7.46077e-14 -7.46077e-14 -3.80962e-14 -3.80962e-14 -3.80962e-14 -3.80962e-14 8.30487e-15 8.30487e-15 8.30487e-15 8.30487e-15 3.39484e-14 3.39484e-14 3.39484e-14 3.39484e-14 -1.05719e-13 -1.05719e-13 -1.05719e-13 -1.05719e-13 2.71075e-14 2.71075e-14 2.71075e-14 2.71075e-14 1.87632e-14 1.87632e-14 1.87632e-14 1.87632e-14 -1.0461e-13 -1.0461e-13 -1.0461e-13 -1.0461e-13 1.12864e-14 1.12864e-14 1.12864e-14 1.12864e-14 -6.69937e-14 -6.69937e-14 -6.69937e-14 -6.69937e-14 -1.85952e-13 -1.85952e-13 -1.85952e-13 -1.85952e-13 3.6173e-14 3.6173e-14 3.6173e-14 3.6173e-14 -3.85405e-14 -3.85405e-14 -3.85405e-14 -3.85405e-14 2.08584e-14 2.08584e-14 2.08584e-14 2.08584e-14 1.57282e-14 1.57282e-14 1.57282e-14 1.57282e-14 2.45006e-14 2.45006e-14 2.45006e-14 2.45006e-14 -1.82853e-14 -1.82853e-14 -1.82853e-14 -1.82853e-14 2.03132e-14 2.03132e-14 2.03132e-14 2.03132e-14 5.38571e-14 5.38571e-14 5.38571e-14 5.38571e-14 1.99576e-14 1.99576e-14 1.99576e-14 1.99576e-14 -2.54674e-14 -2.54674e-14 -2.54674e-14 -2.54674e-14 1.51165e-14 1.51165e-14 1.51165e-14 1.51165e-14 3.96485e-15 3.96485e-15 3.96485e-15 3.96485e-15 7.10108e-15 7.10108e-15 7.10108e-15 7.10108e-15 -3.3637e-14 -3.3637e-14 -3.3637e-14 -3.3637e-14 9.70906e-14 9.70906e-14 9.70906e-14 9.70906e-14 -2.67202e-14 -2.67202e-14 -2.67202e-14 -2.67202e-14 -7.83846e-15 -7.83846e-15 -7.83846e-15 -7.83846e-15 -2.49081e-14 -2.49081e-14 -2.49081e-14 -2.49081e-14 3.31718e-14 3.31718e-14 3.31718e-14 3.31718e-14 1.41935e-15 1.41935e-15 1.41935e-15 1.41935e-15 -3.3246e-14 -3.3246e-14 -3.3246e-14 -3.3246e-14 -1.3231e-15 -1.3231e-15 -1.3231e-15 -1.3231e-15 1.22232e-13 1.22232e-13 1.22232e-13 1.22232e-13 1.38505e-14 1.38505e-14 1.38505e-14 1.38505e-14 3.6898e-14 3.6898e-14 3.6898e-14 3.6898e-14 7.92613e-14 7.92613e-14 7.92613e-14 7.92613e-14 4.11532e-15 4.11532e-15 4.11532e-15 4.11532e-15 7.80592e-15 7.80592e-15 7.80592e-15 7.80592e-15 3.60814e-14 3.60814e-14 3.60814e-14 3.60814e-14 -4.34505e-14 -4.34505e-14 -4.34505e-14 -4.34505e-14 3.65685e-15 3.65685e-15 3.65685e-15 3.65685e-15 5.50405e-14 5.50405e-14 5.50405e-14 5.50405e-14 7.50166e-14 7.50166e-14 7.50166e-14 7.50166e-14 -2.98563e-14 -2.98563e-14 -2.98563e-14 -2.98563e-14 -2.47894e-14 -2.47894e-14 -2.47894e-14 -2.47894e-14 -2.50815e-14 -2.50815e-14 -2.50815e-14 -2.50815e-14 -5.83217e-15 -5.83217e-15 -5.83217e-15 -5.83217e-15 6.59936e-14 6.59936e-14 6.59936e-14 6.59936e-14 -2.77699e-14 -2.77699e-14 -2.77699e-14 -2.77699e-14 9.92114e-14 9.92114e-14 9.92114e-14 9.92114e-14 3.33129e-14 3.33129e-14 3.33129e-14 3.33129e-14 1.51011e-13 1.51011e-13 1.51011e-13 1.51011e-13 1.48449e-14 1.48449e-14 1.48449e-14 1.48449e-14 6.44979e-14 6.44979e-14 6.44979e-14 6.44979e-14 -4.79967e-15 -4.79967e-15 -4.79967e-15 -4.79967e-15 3.67261e-14 3.67261e-14 3.67261e-14 3.67261e-14 1.33535e-14 1.33535e-14 1.33535e-14 1.33535e-14 -6.18672e-14 -6.18672e-14 -6.18672e-14 -6.18672e-14 4.08369e-14 4.08369e-14 4.08369e-14 4.08369e-14 -1.42915e-14 -1.42915e-14 -1.42915e-14 -1.42915e-14 -5.08441e-14 -5.08441e-14 -5.08441e-14 -5.08441e-14 3.62877e-14 3.62877e-14 3.62877e-14 3.62877e-14 3.67113e-15 3.67113e-15 3.67113e-15 3.67113e-15 1.92003e-14 1.92003e-14 1.92003e-14 1.92003e-14 0 0 0 0 1.64392e-14 1.64392e-14 1.64392e-14 1.64392e-14 2.82632e-14 2.82632e-14 2.82632e-14 2.82632e-14 -1.04603e-14 -1.04603e-14 -1.04603e-14 -1.04603e-14 -4.48324e-15 -4.48324e-15 -4.48324e-15 -4.48324e-15 -1.2943e-14 -1.2943e-14 -1.2943e-14 -1.2943e-14 2.21256e-14 2.21256e-14 2.21256e-14 2.21256e-14 2.61409e-14 2.61409e-14 2.61409e-14 2.61409e-14 -4.11622e-14 -4.11622e-14 -4.11622e-14 -4.11622e-14 -6.754e-14 -6.754e-14 -6.754e-14 -6.754e-14 -2.92952e-14 -2.92952e-14 -2.92952e-14 -2.92952e-14 -1.43576e-14 -1.43576e-14 -1.43576e-14 -1.43576e-14 -1.59279e-14 -1.59279e-14 -1.59279e-14 -1.59279e-14 -2.90708e-14 -2.90708e-14 -2.90708e-14 -2.90708e-14 -4.37464e-15 -4.37464e-15 -4.37464e-15 -4.37464e-15 6.32856e-14 6.32856e-14 6.32856e-14 6.32856e-14 2.24754e-14 2.24754e-14 2.24754e-14 2.24754e-14 -2.55473e-14 -2.55473e-14 -2.55473e-14 -2.55473e-14 -3.71292e-14 -3.71292e-14 -3.71292e-14 -3.71292e-14 1.55877e-14 1.55877e-14 1.55877e-14 1.55877e-14 4.02221e-14 4.02221e-14 4.02221e-14 4.02221e-14 1.70268e-14 1.70268e-14 1.70268e-14 1.70268e-14 5.43184e-14 5.43184e-14 5.43184e-14 5.43184e-14 -6.38044e-15 -6.38044e-15 -6.38044e-15 -6.38044e-15 4.23006e-14 4.23006e-14 4.23006e-14 4.23006e-14 -2.88516e-15 -2.88516e-15 -2.88516e-15 -2.88516e-15 1.81391e-14 1.81391e-14 1.81391e-14 1.81391e-14 5.00273e-14 5.00273e-14 5.00273e-14 5.00273e-14 7.74711e-15 7.74711e-15 7.74711e-15 7.74711e-15 -2.27784e-14 -2.27784e-14 -2.27784e-14 -2.27784e-14 5.95746e-15 5.95746e-15 5.95746e-15 5.95746e-15 4.66019e-14 4.66019e-14 4.66019e-14 4.66019e-14 -4.32506e-14 -4.32506e-14 -4.32506e-14 -4.32506e-14 -4.85723e-14 -4.85723e-14 -4.85723e-14 -4.85723e-14 2.55773e-14 2.55773e-14 2.55773e-14 2.55773e-14 -2.08208e-13 -2.08208e-13 -2.08208e-13 -2.08208e-13 2.87474e-14 2.87474e-14 2.87474e-14 2.87474e-14 5.17074e-16 5.17074e-16 5.17074e-16 5.17074e-16 1.15227e-14 1.15227e-14 1.15227e-14 1.15227e-14 -1.87753e-14 -1.87753e-14 -1.87753e-14 -1.87753e-14 6.14508e-15 6.14508e-15 6.14508e-15 6.14508e-15 -1.81588e-14 -1.81588e-14 -1.81588e-14 -1.81588e-14 4.36314e-14 4.36314e-14 4.36314e-14 4.36314e-14 5.13652e-14 5.13652e-14 5.13652e-14 5.13652e-14 3.66446e-14 3.66446e-14 3.66446e-14 3.66446e-14 6.01665e-15 6.01665e-15 6.01665e-15 6.01665e-15 5.56801e-14 5.56801e-14 5.56801e-14 5.56801e-14 8.05995e-14 8.05995e-14 8.05995e-14 8.05995e-14 -4.29512e-14 -4.29512e-14 -4.29512e-14 -4.29512e-14 -9.90318e-14 -9.90318e-14 -9.90318e-14 -9.90318e-14 8.81759e-14 8.81759e-14 8.81759e-14 8.81759e-14 6.29607e-14 6.29607e-14 6.29607e-14 6.29607e-14 -4.44809e-14 -4.44809e-14 -4.44809e-14 -4.44809e-14 -3.75937e-14 -3.75937e-14 -3.75937e-14 -3.75937e-14 9.95596e-14 9.95596e-14 9.95596e-14 9.95596e-14 -9.33076e-15 -9.33076e-15 -9.33076e-15 -9.33076e-15 -6.9397e-14 -6.9397e-14 -6.9397e-14 -6.9397e-14 -5.33898e-14 -5.33898e-14 -5.33898e-14 -5.33898e-14 2.75865e-14 2.75865e-14 2.75865e-14 2.75865e-14 5.49313e-14 5.49313e-14 5.49313e-14 5.49313e-14 -4.47986e-14 -4.47986e-14 -4.47986e-14 -4.47986e-14 1.93362e-16 1.93362e-16 1.93362e-16 1.93362e-16 -8.43803e-14 -8.43803e-14 -8.43803e-14 -8.43803e-14 1.33633e-14 1.33633e-14 1.33633e-14 1.33633e-14 -1.41674e-14 -1.41674e-14 -1.41674e-14 -1.41674e-14 3.30067e-14 3.30067e-14 3.30067e-14 3.30067e-14 3.54602e-14 3.54602e-14 3.54602e-14 3.54602e-14 1.2536e-13 1.2536e-13 1.2536e-13 1.2536e-13 -1.11388e-14 -1.11388e-14 -1.11388e-14 -1.11388e-14 3.34991e-14 3.34991e-14 3.34991e-14 3.34991e-14 3.19348e-14 3.19348e-14 3.19348e-14 3.19348e-14 3.29546e-14 3.29546e-14 3.29546e-14 3.29546e-14 2.09327e-13 2.09327e-13 2.09327e-13 2.09327e-13 2.21339e-14 2.21339e-14 2.21339e-14 2.21339e-14 -1.4667e-14 -1.4667e-14 -1.4667e-14 -1.4667e-14 2.82186e-14 2.82186e-14 2.82186e-14 2.82186e-14 5.59234e-14 5.59234e-14 5.59234e-14 5.59234e-14 -4.30232e-14 -4.30232e-14 -4.30232e-14 -4.30232e-14 -2.31659e-14 -2.31659e-14 -2.31659e-14 -2.31659e-14 -4.0436e-14 -4.0436e-14 -4.0436e-14 -4.0436e-14 -1.03378e-13 -1.03378e-13 -1.03378e-13 -1.03378e-13 1.5277e-15 1.5277e-15 1.5277e-15 1.5277e-15 7.67441e-15 7.67441e-15 7.67441e-15 7.67441e-15 -8.87928e-14 -8.87928e-14 -8.87928e-14 -8.87928e-14 -1.63916e-13 -1.63916e-13 -1.63916e-13 -1.63916e-13 2.27447e-14 2.27447e-14 2.27447e-14 2.27447e-14 -4.09111e-15 -4.09111e-15 -4.09111e-15 -4.09111e-15 -3.00555e-14 -3.00555e-14 -3.00555e-14 -3.00555e-14 -2.91112e-14 -2.91112e-14 -2.91112e-14 -2.91112e-14 7.63705e-15 7.63705e-15 7.63705e-15 7.63705e-15 -2.43504e-14 -2.43504e-14 -2.43504e-14 -2.43504e-14 2.43552e-13 2.43552e-13 2.43552e-13 2.43552e-13 2.64444e-13 2.64444e-13 2.64444e-13 2.64444e-13 7.25116e-17 7.25116e-17 7.25116e-17 7.25116e-17 -2.00616e-16 -2.00616e-16 -2.00616e-16 -2.00616e-16 4.3717e-14 4.3717e-14 4.3717e-14 4.3717e-14 8.22e-14 8.22e-14 8.22e-14 8.22e-14 -6.83503e-14 -6.83503e-14 -6.83503e-14 -6.83503e-14 -5.84656e-14 -5.84656e-14 -5.84656e-14 -5.84656e-14 -2.83362e-14 -2.83362e-14 -2.83362e-14 -2.83362e-14 6.03342e-14 6.03342e-14 6.03342e-14 6.03342e-14 9.58421e-14 9.58421e-14 9.58421e-14 9.58421e-14 -9.16548e-14 -9.16548e-14 -9.16548e-14 -9.16548e-14 -1.62328e-14 -1.62328e-14 -1.62328e-14 -1.62328e-14 1.63317e-13 1.63317e-13 1.63317e-13 1.63317e-13 8.75963e-14 8.75963e-14 8.75963e-14 8.75963e-14 5.8524e-14 5.8524e-14 5.8524e-14 5.8524e-14 -2.94886e-14 -2.94886e-14 -2.94886e-14 -2.94886e-14 9.98672e-15 9.98672e-15 9.98672e-15 9.98672e-15 9.39709e-14 9.39709e-14 9.39709e-14 9.39709e-14 1.15608e-13 1.15608e-13 1.15608e-13 1.15608e-13 6.46626e-14 6.46626e-14 6.46626e-14 6.46626e-14 6.14725e-14 6.14725e-14 6.14725e-14 6.14725e-14 3.33558e-14 3.33558e-14 3.33558e-14 3.33558e-14 -1.2422e-14 -1.2422e-14 -1.2422e-14 -1.2422e-14 -1.06892e-13 -1.06892e-13 -1.06892e-13 -1.06892e-13 2.79689e-14 2.79689e-14 2.79689e-14 2.79689e-14 1.70031e-13 1.70031e-13 1.70031e-13 1.70031e-13 -4.94751e-14 -4.94751e-14 -4.94751e-14 -4.94751e-14 1.13759e-13 1.13759e-13 1.13759e-13 1.13759e-13 -7.46657e-14 -7.46657e-14 -7.46657e-14 -7.46657e-14 1.14653e-13 1.14653e-13 1.14653e-13 1.14653e-13 4.65548e-14 4.65548e-14 4.65548e-14 4.65548e-14 3.69377e-14 3.69377e-14 3.69377e-14 3.69377e-14 8.72796e-14 8.72796e-14 8.72796e-14 8.72796e-14 -2.18747e-13 -2.18747e-13 -2.18747e-13 -2.18747e-13 1.15716e-13 1.15716e-13 1.15716e-13 1.15716e-13 2.99193e-16 2.99193e-16 2.99193e-16 2.99193e-16 -1.79085e-13 -1.79085e-13 -1.79085e-13 -1.79085e-13 -3.93167e-14 -3.93167e-14 -3.93167e-14 -3.93167e-14 6.65503e-14 6.65503e-14 6.65503e-14 6.65503e-14 1.27768e-14 1.27768e-14 1.27768e-14 1.27768e-14 2.04115e-15 2.04115e-15 2.04115e-15 2.04115e-15 -5.63851e-14 -5.63851e-14 -5.63851e-14 -5.63851e-14 -2.98248e-14 -2.98248e-14 -2.98248e-14 -2.98248e-14 -3.91282e-15 -3.91282e-15 -3.91282e-15 -3.91282e-15 -5.16891e-14 -5.16891e-14 -5.16891e-14 -5.16891e-14 1.06837e-13 1.06837e-13 1.06837e-13 1.06837e-13 3.60375e-14 3.60375e-14 3.60375e-14 3.60375e-14 8.00629e-14 8.00629e-14 8.00629e-14 8.00629e-14 -1.9192e-14 -1.9192e-14 -1.9192e-14 -1.9192e-14 6.04961e-14 6.04961e-14 6.04961e-14 6.04961e-14 -7.32739e-14 -7.32739e-14 -7.32739e-14 -7.32739e-14 -4.62887e-14 -4.62887e-14 -4.62887e-14 -4.62887e-14 6.92355e-14 6.92355e-14 6.92355e-14 6.92355e-14 -1.09248e-13 -1.09248e-13 -1.09248e-13 -1.09248e-13 -1.15512e-13 -1.15512e-13 -1.15512e-13 -1.15512e-13 5.14933e-14 5.14933e-14 5.14933e-14 5.14933e-14 -4.31228e-14 -4.31228e-14 -4.31228e-14 -4.31228e-14 1.18227e-13 1.18227e-13 1.18227e-13 1.18227e-13 -1.30319e-13 -1.30319e-13 -1.30319e-13 -1.30319e-13 8.15204e-14 8.15204e-14 8.15204e-14 8.15204e-14 -5.5241e-14 -5.5241e-14 -5.5241e-14 -5.5241e-14 -5.35225e-14 -5.35225e-14 -5.35225e-14 -5.35225e-14 -1.12389e-13 -1.12389e-13 -1.12389e-13 -1.12389e-13 1.70235e-13 1.70235e-13 1.70235e-13 1.70235e-13 4.73785e-14 4.73785e-14 4.73785e-14 4.73785e-14 -4.63404e-14 -4.63404e-14 -4.63404e-14 -4.63404e-14 9.60286e-14 9.60286e-14 9.60286e-14 9.60286e-14 1.99434e-13 1.99434e-13 1.99434e-13 1.99434e-13 -1.58484e-14 -1.58484e-14 -1.58484e-14 -1.58484e-14 -6.48882e-14 -6.48882e-14 -6.48882e-14 -6.48882e-14 -9.42247e-14 -9.42247e-14 -9.42247e-14 -9.42247e-14 -1.55203e-13 -1.55203e-13 -1.55203e-13 -1.55203e-13 5.91528e-14 5.91528e-14 5.91528e-14 5.91528e-14 2.0614e-14 2.0614e-14 2.0614e-14 2.0614e-14 7.51128e-14 7.51128e-14 7.51128e-14 7.51128e-14 -2.97423e-14 -2.97423e-14 -2.97423e-14 -2.97423e-14 -9.29153e-14 -9.29153e-14 -9.29153e-14 -9.29153e-14 -2.12129e-14 -2.12129e-14 -2.12129e-14 -2.12129e-14 -5.52512e-14 -5.52512e-14 -5.52512e-14 -5.52512e-14 2.07309e-13 2.07309e-13 2.07309e-13 2.07309e-13 -4.94076e-14 -4.94076e-14 -4.94076e-14 -4.94076e-14 1.98252e-14 1.98252e-14 1.98252e-14 1.98252e-14 4.1023e-14 4.1023e-14 4.1023e-14 4.1023e-14 -5.966e-14 -5.966e-14 -5.966e-14 -5.966e-14 -7.90731e-14 -7.90731e-14 -7.90731e-14 -7.90731e-14 7.45482e-14 7.45482e-14 7.45482e-14 7.45482e-14 2.88574e-14 2.88574e-14 2.88574e-14 2.88574e-14 1.34267e-13 1.34267e-13 1.34267e-13 1.34267e-13 3.26223e-14 3.26223e-14 3.26223e-14 3.26223e-14 8.73796e-15 8.73796e-15 8.73796e-15 8.73796e-15 -3.99899e-14 -3.99899e-14 -3.99899e-14 -3.99899e-14 -9.87667e-14 -9.87667e-14 -9.87667e-14 -9.87667e-14 -4.0283e-15 -4.0283e-15 -4.0283e-15 -4.0283e-15 9.79232e-14 9.79232e-14 9.79232e-14 9.79232e-14 -4.08233e-14 -4.08233e-14 -4.08233e-14 -4.08233e-14 -6.46606e-15 -6.46606e-15 -6.46606e-15 -6.46606e-15 -7.05857e-14 -7.05857e-14 -7.05857e-14 -7.05857e-14 -6.11125e-14 -6.11125e-14 -6.11125e-14 -6.11125e-14 -2.16484e-13 -2.16484e-13 -2.16484e-13 -2.16484e-13 -4.12951e-14 -4.12951e-14 -4.12951e-14 -4.12951e-14 -2.44709e-16 -2.44709e-16 -2.44709e-16 -2.44709e-16 -3.40003e-15 -3.40003e-15 -3.40003e-15 -3.40003e-15 -9.58902e-15 -9.58902e-15 -9.58902e-15 -9.58902e-15 5.97071e-15 5.97071e-15 5.97071e-15 5.97071e-15 2.55186e-14 2.55186e-14 2.55186e-14 2.55186e-14 -9.92682e-14 -9.92682e-14 -9.92682e-14 -9.92682e-14 -6.03696e-14 -6.03696e-14 -6.03696e-14 -6.03696e-14 -1.66981e-13 -1.66981e-13 -1.66981e-13 -1.66981e-13 -9.64814e-14 -9.64814e-14 -9.64814e-14 -9.64814e-14 8.98934e-14 8.98934e-14 8.98934e-14 8.98934e-14 1.59946e-14 1.59946e-14 1.59946e-14 1.59946e-14 1.55547e-14 1.55547e-14 1.55547e-14 1.55547e-14 1.12403e-13 1.12403e-13 1.12403e-13 1.12403e-13 -1.55531e-13 -1.55531e-13 -1.55531e-13 -1.55531e-13 -3.00939e-14 -3.00939e-14 -3.00939e-14 -3.00939e-14 -1.4323e-13 -1.4323e-13 -1.4323e-13 -1.4323e-13 -4.77622e-14 -4.77622e-14 -4.77622e-14 -4.77622e-14 2.98448e-15 2.98448e-15 2.98448e-15 2.98448e-15 -1.11391e-14 -1.11391e-14 -1.11391e-14 -1.11391e-14 1.04031e-13 1.04031e-13 1.04031e-13 1.04031e-13 -5.11124e-14 -5.11124e-14 -5.11124e-14 -5.11124e-14 -1.76774e-14 -1.76774e-14 -1.76774e-14 -1.76774e-14 5.21299e-14 5.21299e-14 5.21299e-14 5.21299e-14 6.64731e-14 6.64731e-14 6.64731e-14 6.64731e-14 -5.09788e-14 -5.09788e-14 -5.09788e-14 -5.09788e-14 -7.0688e-14 -7.0688e-14 -7.0688e-14 -7.0688e-14 8.07493e-14 8.07493e-14 8.07493e-14 8.07493e-14 1.09533e-13 1.09533e-13 1.09533e-13 1.09533e-13 9.26174e-15 9.26174e-15 9.26174e-15 9.26174e-15 -1.61778e-13 -1.61778e-13 -1.61778e-13 -1.61778e-13 1.44502e-13 1.44502e-13 1.44502e-13 1.44502e-13 -2.11114e-13 -2.11114e-13 -2.11114e-13 -2.11114e-13 3.39394e-14 3.39394e-14 3.39394e-14 3.39394e-14 -1.65071e-13 -1.65071e-13 -1.65071e-13 -1.65071e-13 -1.58005e-13 -1.58005e-13 -1.58005e-13 -1.58005e-13 6.81349e-14 6.81349e-14 6.81349e-14 6.81349e-14 -3.86039e-14 -3.86039e-14 -3.86039e-14 -3.86039e-14 1.32137e-13 1.32137e-13 1.32137e-13 1.32137e-13 -1.1583e-14 -1.1583e-14 -1.1583e-14 -1.1583e-14 2.41043e-13 2.41043e-13 2.41043e-13 2.41043e-13 -7.48433e-14 -7.48433e-14 -7.48433e-14 -7.48433e-14 8.81072e-14 8.81072e-14 8.81072e-14 8.81072e-14 7.5114e-14 7.5114e-14 7.5114e-14 7.5114e-14 7.6014e-14 7.6014e-14 7.6014e-14 7.6014e-14 8.21358e-14 8.21358e-14 8.21358e-14 8.21358e-14 -4.0517e-14 -4.0517e-14 -4.0517e-14 -4.0517e-14 -7.17614e-15 -7.17614e-15 -7.17614e-15 -7.17614e-15 -1.65331e-14 -1.65331e-14 -1.65331e-14 -1.65331e-14 1.5617e-13 1.5617e-13 1.5617e-13 1.5617e-13 1.3275e-13 1.3275e-13 1.3275e-13 1.3275e-13 -1.45091e-13 -1.45091e-13 -1.45091e-13 -1.45091e-13 -7.41256e-14 -7.41256e-14 -7.41256e-14 -7.41256e-14 -1.03895e-15 -1.03895e-15 -1.03895e-15 -1.03895e-15 2.95797e-14 2.95797e-14 2.95797e-14 2.95797e-14 -6.92762e-14 -6.92762e-14 -6.92762e-14 -6.92762e-14 1.34196e-13 1.34196e-13 1.34196e-13 1.34196e-13 -5.17784e-14 -5.17784e-14 -5.17784e-14 -5.17784e-14 -1.77127e-14 -1.77127e-14 -1.77127e-14 -1.77127e-14 -5.05006e-14 -5.05006e-14 -5.05006e-14 -5.05006e-14 -1.51468e-13 -1.51468e-13 -1.51468e-13 -1.51468e-13 1.72361e-13 1.72361e-13 1.72361e-13 1.72361e-13 -5.70909e-14 -5.70909e-14 -5.70909e-14 -5.70909e-14 -1.22876e-13 -1.22876e-13 -1.22876e-13 -1.22876e-13 5.08018e-14 5.08018e-14 5.08018e-14 5.08018e-14 -7.20863e-15 -7.20863e-15 -7.20863e-15 -7.20863e-15 -1.47856e-13 -1.47856e-13 -1.47856e-13 -1.47856e-13 -2.57245e-14 -2.57245e-14 -2.57245e-14 -2.57245e-14 6.42883e-15 6.42883e-15 6.42883e-15 6.42883e-15 -1.40793e-13 -1.40793e-13 -1.40793e-13 -1.40793e-13 -1.30669e-13 -1.30669e-13 -1.30669e-13 -1.30669e-13 -6.02297e-14 -6.02297e-14 -6.02297e-14 -6.02297e-14 4.3931e-14 4.3931e-14 4.3931e-14 4.3931e-14 5.48271e-14 5.48271e-14 5.48271e-14 5.48271e-14 1.58518e-13 1.58518e-13 1.58518e-13 1.58518e-13 3.37398e-14 3.37398e-14 3.37398e-14 3.37398e-14 -1.29125e-13 -1.29125e-13 -1.29125e-13 -1.29125e-13 1.69163e-14 1.69163e-14 1.69163e-14 1.69163e-14 5.00961e-14 5.00961e-14 5.00961e-14 5.00961e-14 -4.96076e-14 -4.96076e-14 -4.96076e-14 -4.96076e-14 -8.44494e-14 -8.44494e-14 -8.44494e-14 -8.44494e-14 -4.39631e-14 -4.39631e-14 -4.39631e-14 -4.39631e-14 3.09947e-14 3.09947e-14 3.09947e-14 3.09947e-14 -8.38994e-14 -8.38994e-14 -8.38994e-14 -8.38994e-14 2.06696e-14 2.06696e-14 2.06696e-14 2.06696e-14 7.29704e-14 7.29704e-14 7.29704e-14 7.29704e-14 -1.10481e-13 -1.10481e-13 -1.10481e-13 -1.10481e-13 -6.25744e-14 -6.25744e-14 -6.25744e-14 -6.25744e-14 1.02462e-13 1.02462e-13 1.02462e-13 1.02462e-13 4.72762e-14 4.72762e-14 4.72762e-14 4.72762e-14 1.75563e-14 1.75563e-14 1.75563e-14 1.75563e-14 1.12726e-13 1.12726e-13 1.12726e-13 1.12726e-13 -1.4462e-14 -1.4462e-14 -1.4462e-14 -1.4462e-14 3.69755e-14 3.69755e-14 3.69755e-14 3.69755e-14 -1.77285e-14 -1.77285e-14 -1.77285e-14 -1.77285e-14 1.13424e-13 1.13424e-13 1.13424e-13 1.13424e-13 1.81035e-13 1.81035e-13 1.81035e-13 1.81035e-13 -1.03703e-13 -1.03703e-13 -1.03703e-13 -1.03703e-13 2.87812e-13 2.87812e-13 2.87812e-13 2.87812e-13 4.41716e-14 4.41716e-14 4.41716e-14 4.41716e-14 1.29756e-13 1.29756e-13 1.29756e-13 1.29756e-13 -1.13658e-13 -1.13658e-13 -1.13658e-13 -1.13658e-13 -3.29859e-14 -3.29859e-14 -3.29859e-14 -3.29859e-14 -5.14989e-14 -5.14989e-14 -5.14989e-14 -5.14989e-14 1.42855e-13 1.42855e-13 1.42855e-13 1.42855e-13 2.78012e-14 2.78012e-14 2.78012e-14 2.78012e-14 -1.19834e-13 -1.19834e-13 -1.19834e-13 -1.19834e-13 6.16486e-14 6.16486e-14 6.16486e-14 6.16486e-14 -6.95709e-14 -6.95709e-14 -6.95709e-14 -6.95709e-14 7.53171e-14 7.53171e-14 7.53171e-14 7.53171e-14 7.95157e-15 7.95157e-15 7.95157e-15 7.95157e-15 -4.03903e-13 -4.03903e-13 -4.03903e-13 -4.03903e-13 -8.63941e-15 -8.63941e-15 -8.63941e-15 -8.63941e-15 2.60346e-14 2.60346e-14 2.60346e-14 2.60346e-14 0 0 0 0 -3.82312e-14 -3.82312e-14 -3.82312e-14 -3.82312e-14 9.91397e-14 9.91397e-14 9.91397e-14 9.91397e-14 -6.1695e-14 -6.1695e-14 -6.1695e-14 -6.1695e-14 -2.00912e-13 -2.00912e-13 -2.00912e-13 -2.00912e-13 5.39382e-14 5.39382e-14 5.39382e-14 5.39382e-14 -6.0649e-14 -6.0649e-14 -6.0649e-14 -6.0649e-14 -1.27716e-13 -1.27716e-13 -1.27716e-13 -1.27716e-13 -1.79622e-13 -1.79622e-13 -1.79622e-13 -1.79622e-13 -1.25857e-14 -1.25857e-14 -1.25857e-14 -1.25857e-14 -1.01992e-13 -1.01992e-13 -1.01992e-13 -1.01992e-13 -1.31072e-14 -1.31072e-14 -1.31072e-14 -1.31072e-14 7.30006e-14 7.30006e-14 7.30006e-14 7.30006e-14 2.10243e-13 2.10243e-13 2.10243e-13 2.10243e-13 -9.23244e-15 -9.23244e-15 -9.23244e-15 -9.23244e-15 -9.67369e-14 -9.67369e-14 -9.67369e-14 -9.67369e-14 -2.48547e-14 -2.48547e-14 -2.48547e-14 -2.48547e-14 -4.91005e-14 -4.91005e-14 -4.91005e-14 -4.91005e-14 -2.98133e-14 -2.98133e-14 -2.98133e-14 -2.98133e-14 -2.61118e-14 -2.61118e-14 -2.61118e-14 -2.61118e-14 5.35792e-15 5.35792e-15 5.35792e-15 5.35792e-15 9.8341e-14 9.8341e-14 9.8341e-14 9.8341e-14 2.20925e-14 2.20925e-14 2.20925e-14 2.20925e-14 -1.6647e-13 -1.6647e-13 -1.6647e-13 -1.6647e-13 7.94912e-14 7.94912e-14 7.94912e-14 7.94912e-14 2.78563e-13 2.78563e-13 2.78563e-13 2.78563e-13 -2.81953e-14 -2.81953e-14 -2.81953e-14 -2.81953e-14 -1.17902e-13 -1.17902e-13 -1.17902e-13 -1.17902e-13 7.09871e-14 7.09871e-14 7.09871e-14 7.09871e-14 -8.13747e-14 -8.13747e-14 -8.13747e-14 -8.13747e-14 6.78995e-14 6.78995e-14 6.78995e-14 6.78995e-14 -7.45374e-14 -7.45374e-14 -7.45374e-14 -7.45374e-14 -1.91624e-13 -1.91624e-13 -1.91624e-13 -1.91624e-13 -1.12824e-13 -1.12824e-13 -1.12824e-13 -1.12824e-13 7.03391e-14 7.03391e-14 7.03391e-14 7.03391e-14 -1.53839e-14 -1.53839e-14 -1.53839e-14 -1.53839e-14 8.10781e-14 8.10781e-14 8.10781e-14 8.10781e-14 -1.00815e-14 -1.00815e-14 -1.00815e-14 -1.00815e-14 -3.42757e-14 -3.42757e-14 -3.42757e-14 -3.42757e-14 4.54158e-14 4.54158e-14 4.54158e-14 4.54158e-14 6.66705e-14 6.66705e-14 6.66705e-14 6.66705e-14 1.80559e-13 1.80559e-13 1.80559e-13 1.80559e-13 2.96736e-14 2.96736e-14 2.96736e-14 2.96736e-14 1.88026e-13 1.88026e-13 1.88026e-13 1.88026e-13 3.79631e-14 3.79631e-14 3.79631e-14 3.79631e-14 1.82436e-14 1.82436e-14 1.82436e-14 1.82436e-14 3.90879e-14 3.90879e-14 3.90879e-14 3.90879e-14 -3.22009e-14 -3.22009e-14 -3.22009e-14 -3.22009e-14 -4.74357e-14 -4.74357e-14 -4.74357e-14 -4.74357e-14 -6.36351e-14 -6.36351e-14 -6.36351e-14 -6.36351e-14 4.59839e-14 4.59839e-14 4.59839e-14 4.59839e-14 2.75301e-14 2.75301e-14 2.75301e-14 2.75301e-14 -6.06396e-14 -6.06396e-14 -6.06396e-14 -6.06396e-14 2.09327e-13 2.09327e-13 2.09327e-13 2.09327e-13 1.05462e-13 1.05462e-13 1.05462e-13 1.05462e-13 2.2562e-13 2.2562e-13 2.2562e-13 2.2562e-13 -8.1275e-14 -8.1275e-14 -8.1275e-14 -8.1275e-14 5.7125e-14 5.7125e-14 5.7125e-14 5.7125e-14 -1.23627e-13 -1.23627e-13 -1.23627e-13 -1.23627e-13 1.1166e-14 1.1166e-14 1.1166e-14 1.1166e-14 -5.24306e-14 -5.24306e-14 -5.24306e-14 -5.24306e-14 -1.23006e-13 -1.23006e-13 -1.23006e-13 -1.23006e-13 -6.03255e-14 -6.03255e-14 -6.03255e-14 -6.03255e-14 -1.05076e-15 -1.05076e-15 -1.05076e-15 -1.05076e-15 1.68186e-13 1.68186e-13 1.68186e-13 1.68186e-13 -7.67322e-14 -7.67322e-14 -7.67322e-14 -7.67322e-14 2.26199e-13 2.26199e-13 2.26199e-13 2.26199e-13 2.44935e-13 2.44935e-13 2.44935e-13 2.44935e-13 5.27536e-14 5.27536e-14 5.27536e-14 5.27536e-14 -5.43358e-14 -5.43358e-14 -5.43358e-14 -5.43358e-14 -1.34418e-13 -1.34418e-13 -1.34418e-13 -1.34418e-13 5.58692e-14 5.58692e-14 5.58692e-14 5.58692e-14 -9.74549e-15 -9.74549e-15 -9.74549e-15 -9.74549e-15 -4.95734e-14 -4.95734e-14 -4.95734e-14 -4.95734e-14 1.91236e-15 1.91236e-15 1.91236e-15 1.91236e-15 -2.0735e-13 -2.0735e-13 -2.0735e-13 -2.0735e-13 3.80409e-14 3.80409e-14 3.80409e-14 3.80409e-14 6.26754e-14 6.26754e-14 6.26754e-14 6.26754e-14 -2.5787e-14 -2.5787e-14 -2.5787e-14 -2.5787e-14 -1.60543e-14 -1.60543e-14 -1.60543e-14 -1.60543e-14 3.10114e-13 3.10114e-13 3.10114e-13 3.10114e-13 -8.27879e-15 -8.27879e-15 -8.27879e-15 -8.27879e-15 -1.28366e-16 -1.28366e-16 -1.28366e-16 -1.28366e-16 -1.96887e-13 -1.96887e-13 -1.96887e-13 -1.96887e-13 8.23038e-14 8.23038e-14 8.23038e-14 8.23038e-14 -1.9662e-14 -1.9662e-14 -1.9662e-14 -1.9662e-14 -2.41714e-14 -2.41714e-14 -2.41714e-14 -2.41714e-14 2.96215e-15 2.96215e-15 2.96215e-15 2.96215e-15 6.34958e-14 6.34958e-14 6.34958e-14 6.34958e-14 1.36371e-14 1.36371e-14 1.36371e-14 1.36371e-14 3.94694e-14 3.94694e-14 3.94694e-14 3.94694e-14 -1.78169e-14 -1.78169e-14 -1.78169e-14 -1.78169e-14 5.46534e-14 5.46534e-14 5.46534e-14 5.46534e-14 2.55145e-13 2.55145e-13 2.55145e-13 2.55145e-13 -8.39855e-16 -8.39855e-16 -8.39855e-16 -8.39855e-16 -1.88071e-13 -1.88071e-13 -1.88071e-13 -1.88071e-13 1.3034e-13 1.3034e-13 1.3034e-13 1.3034e-13 8.97112e-14 8.97112e-14 8.97112e-14 8.97112e-14 1.01122e-13 1.01122e-13 1.01122e-13 1.01122e-13 -2.89093e-14 -2.89093e-14 -2.89093e-14 -2.89093e-14 5.4073e-14 5.4073e-14 5.4073e-14 5.4073e-14 3.69451e-15 3.69451e-15 3.69451e-15 3.69451e-15 1.13186e-13 1.13186e-13 1.13186e-13 1.13186e-13 -1.3693e-13 -1.3693e-13 -1.3693e-13 -1.3693e-13 -2.50526e-13 -2.50526e-13 -2.50526e-13 -2.50526e-13 2.76403e-14 2.76403e-14 2.76403e-14 2.76403e-14 -1.07245e-16 -1.07245e-16 -1.07245e-16 -1.07245e-16 -2.88287e-15 -2.88287e-15 -2.88287e-15 -2.88287e-15 -4.47139e-14 -4.47139e-14 -4.47139e-14 -4.47139e-14 1.69694e-13 1.69694e-13 1.69694e-13 1.69694e-13 6.54516e-15 6.54516e-15 6.54516e-15 6.54516e-15 8.28523e-14 8.28523e-14 8.28523e-14 8.28523e-14 7.68304e-14 7.68304e-14 7.68304e-14 7.68304e-14 -3.18043e-13 -3.18043e-13 -3.18043e-13 -3.18043e-13 6.12494e-15 6.12494e-15 6.12494e-15 6.12494e-15 -4.80142e-14 -4.80142e-14 -4.80142e-14 -4.80142e-14 -8.48492e-14 -8.48492e-14 -8.48492e-14 -8.48492e-14 1.53161e-13 1.53161e-13 1.53161e-13 1.53161e-13 -1.47908e-13 -1.47908e-13 -1.47908e-13 -1.47908e-13 -9.89353e-14 -9.89353e-14 -9.89353e-14 -9.89353e-14 -1.10194e-13 -1.10194e-13 -1.10194e-13 -1.10194e-13 2.54135e-14 2.54135e-14 2.54135e-14 2.54135e-14 -2.58577e-14 -2.58577e-14 -2.58577e-14 -2.58577e-14 -4.06091e-14 -4.06091e-14 -4.06091e-14 -4.06091e-14 1.02881e-13 1.02881e-13 1.02881e-13 1.02881e-13 -1.07022e-13 -1.07022e-13 -1.07022e-13 -1.07022e-13 -8.77753e-14 -8.77753e-14 -8.77753e-14 -8.77753e-14 1.46293e-14 1.46293e-14 1.46293e-14 1.46293e-14 6.41275e-14 6.41275e-14 6.41275e-14 6.41275e-14 6.45796e-14 6.45796e-14 6.45796e-14 6.45796e-14 5.51638e-14 5.51638e-14 5.51638e-14 5.51638e-14 2.14414e-13 2.14414e-13 2.14414e-13 2.14414e-13 3.11987e-14 3.11987e-14 3.11987e-14 3.11987e-14 -3.28082e-14 -3.28082e-14 -3.28082e-14 -3.28082e-14 2.95802e-16 2.95802e-16 2.95802e-16 2.95802e-16 -3.83866e-14 -3.83866e-14 -3.83866e-14 -3.83866e-14 -7.94518e-14 -7.94518e-14 -7.94518e-14 -7.94518e-14 -1.26137e-14 -1.26137e-14 -1.26137e-14 -1.26137e-14 6.69882e-14 6.69882e-14 6.69882e-14 6.69882e-14 -4.15603e-14 -4.15603e-14 -4.15603e-14 -4.15603e-14 -2.41994e-14 -2.41994e-14 -2.41994e-14 -2.41994e-14 -3.80296e-14 -3.80296e-14 -3.80296e-14 -3.80296e-14 -1.78546e-15 -1.78546e-15 -1.78546e-15 -1.78546e-15 -4.50082e-14 -4.50082e-14 -4.50082e-14 -4.50082e-14 -5.26646e-14 -5.26646e-14 -5.26646e-14 -5.26646e-14 -1.59424e-13 -1.59424e-13 -1.59424e-13 -1.59424e-13 -2.4173e-13 -2.4173e-13 -2.4173e-13 -2.4173e-13 -1.39106e-13 -1.39106e-13 -1.39106e-13 -1.39106e-13 3.4347e-13 3.4347e-13 3.4347e-13 3.4347e-13 1.59903e-13 1.59903e-13 1.59903e-13 1.59903e-13 -8.28826e-14 -8.28826e-14 -8.28826e-14 -8.28826e-14 6.67204e-14 6.67204e-14 6.67204e-14 6.67204e-14 -7.7386e-14 -7.7386e-14 -7.7386e-14 -7.7386e-14 -5.13621e-15 -5.13621e-15 -5.13621e-15 -5.13621e-15 1.13285e-13 1.13285e-13 1.13285e-13 1.13285e-13 -5.67235e-14 -5.67235e-14 -5.67235e-14 -5.67235e-14 4.04473e-14 4.04473e-14 4.04473e-14 4.04473e-14 1.14365e-13 1.14365e-13 1.14365e-13 1.14365e-13 -1.02829e-13 -1.02829e-13 -1.02829e-13 -1.02829e-13 -4.9797e-14 -4.9797e-14 -4.9797e-14 -4.9797e-14 -4.06702e-14 -4.06702e-14 -4.06702e-14 -4.06702e-14 8.00191e-14 8.00191e-14 8.00191e-14 8.00191e-14 -4.01188e-14 -4.01188e-14 -4.01188e-14 -4.01188e-14 -1.01445e-13 -1.01445e-13 -1.01445e-13 -1.01445e-13 -7.64993e-14 -7.64993e-14 -7.64993e-14 -7.64993e-14 4.57835e-14 4.57835e-14 4.57835e-14 4.57835e-14 -5.32292e-15 -5.32292e-15 -5.32292e-15 -5.32292e-15 3.45184e-14 3.45184e-14 3.45184e-14 3.45184e-14 7.20735e-14 7.20735e-14 7.20735e-14 7.20735e-14 1.1226e-13 1.1226e-13 1.1226e-13 1.1226e-13 -2.92387e-14 -2.92387e-14 -2.92387e-14 -2.92387e-14 -6.36554e-14 -6.36554e-14 -6.36554e-14 -6.36554e-14 8.83464e-14 8.83464e-14 8.83464e-14 8.83464e-14 -1.97323e-14 -1.97323e-14 -1.97323e-14 -1.97323e-14 -5.28235e-14 -5.28235e-14 -5.28235e-14 -5.28235e-14 -2.64434e-15 -2.64434e-15 -2.64434e-15 -2.64434e-15 -1.18251e-13 -1.18251e-13 -1.18251e-13 -1.18251e-13 -3.45761e-14 -3.45761e-14 -3.45761e-14 -3.45761e-14 -1.88266e-14 -1.88266e-14 -1.88266e-14 -1.88266e-14 -1.36978e-13 -1.36978e-13 -1.36978e-13 -1.36978e-13 -1.22698e-13 -1.22698e-13 -1.22698e-13 -1.22698e-13 -8.27404e-14 -8.27404e-14 -8.27404e-14 -8.27404e-14 5.59234e-14 5.59234e-14 5.59234e-14 5.59234e-14 -1.64624e-14 -1.64624e-14 -1.64624e-14 -1.64624e-14 -1.04509e-13 -1.04509e-13 -1.04509e-13 -1.04509e-13 3.036e-14 3.036e-14 3.036e-14 3.036e-14 -1.96268e-13 -1.96268e-13 -1.96268e-13 -1.96268e-13 -1.55979e-13 -1.55979e-13 -1.55979e-13 -1.55979e-13 9.36137e-14 9.36137e-14 9.36137e-14 9.36137e-14 1.1394e-13 1.1394e-13 1.1394e-13 1.1394e-13 5.18049e-14 5.18049e-14 5.18049e-14 5.18049e-14 7.06478e-15 7.06478e-15 7.06478e-15 7.06478e-15 -5.13604e-14 -5.13604e-14 -5.13604e-14 -5.13604e-14 4.29264e-14 4.29264e-14 4.29264e-14 4.29264e-14 2.07213e-13 2.07213e-13 2.07213e-13 2.07213e-13 2.24628e-13 2.24628e-13 2.24628e-13 2.24628e-13 2.8082e-13 2.8082e-13 2.8082e-13 2.8082e-13 2.10502e-14 2.10502e-14 2.10502e-14 2.10502e-14 -2.96054e-14 -2.96054e-14 -2.96054e-14 -2.96054e-14 -1.73654e-13 -1.73654e-13 -1.73654e-13 -1.73654e-13 5.19059e-14 5.19059e-14 5.19059e-14 5.19059e-14 -5.87051e-14 -5.87051e-14 -5.87051e-14 -5.87051e-14 -1.43651e-13 -1.43651e-13 -1.43651e-13 -1.43651e-13 -1.3317e-13 -1.3317e-13 -1.3317e-13 -1.3317e-13 -3.42024e-14 -3.42024e-14 -3.42024e-14 -3.42024e-14 4.1084e-14 4.1084e-14 4.1084e-14 4.1084e-14 2.7345e-14 2.7345e-14 2.7345e-14 2.7345e-14 2.30628e-14 2.30628e-14 2.30628e-14 2.30628e-14 6.16683e-14 6.16683e-14 6.16683e-14 6.16683e-14 -1.03655e-13 -1.03655e-13 -1.03655e-13 -1.03655e-13 -1.88128e-13 -1.88128e-13 -1.88128e-13 -1.88128e-13 -7.15417e-15 -7.15417e-15 -7.15417e-15 -7.15417e-15 4.49445e-14 4.49445e-14 4.49445e-14 4.49445e-14 -8.52075e-14 -8.52075e-14 -8.52075e-14 -8.52075e-14 7.72919e-14 7.72919e-14 7.72919e-14 7.72919e-14 1.91057e-13 1.91057e-13 1.91057e-13 1.91057e-13 -1.40899e-13 -1.40899e-13 -1.40899e-13 -1.40899e-13 -9.13295e-14 -9.13295e-14 -9.13295e-14 -9.13295e-14 -2.50318e-13 -2.50318e-13 -2.50318e-13 -2.50318e-13 7.59232e-15 7.59232e-15 7.59232e-15 7.59232e-15 1.92767e-14 1.92767e-14 1.92767e-14 1.92767e-14 2.97688e-14 2.97688e-14 2.97688e-14 2.97688e-14 -1.53275e-14 -1.53275e-14 -1.53275e-14 -1.53275e-14 8.66482e-15 8.66482e-15 8.66482e-15 8.66482e-15 -1.0658e-13 -1.0658e-13 -1.0658e-13 -1.0658e-13 2.29521e-13 2.29521e-13 2.29521e-13 2.29521e-13 2.6995e-14 2.6995e-14 2.6995e-14 2.6995e-14 5.26517e-14 5.26517e-14 5.26517e-14 5.26517e-14 1.19558e-14 1.19558e-14 1.19558e-14 1.19558e-14 -1.49692e-14 -1.49692e-14 -1.49692e-14 -1.49692e-14 1.13169e-13 1.13169e-13 1.13169e-13 1.13169e-13 -1.00184e-13 -1.00184e-13 -1.00184e-13 -1.00184e-13 -2.55791e-15 -2.55791e-15 -2.55791e-15 -2.55791e-15 -2.11563e-14 -2.11563e-14 -2.11563e-14 -2.11563e-14 -8.71399e-14 -8.71399e-14 -8.71399e-14 -8.71399e-14 9.86002e-14 9.86002e-14 9.86002e-14 9.86002e-14 1.17871e-14 1.17871e-14 1.17871e-14 1.17871e-14 -7.08749e-15 -7.08749e-15 -7.08749e-15 -7.08749e-15 -6.96186e-15 -6.96186e-15 -6.96186e-15 -6.96186e-15 -5.71001e-14 -5.71001e-14 -5.71001e-14 -5.71001e-14 -8.95442e-14 -8.95442e-14 -8.95442e-14 -8.95442e-14 9.51124e-15 9.51124e-15 9.51124e-15 9.51124e-15 7.80125e-14 7.80125e-14 7.80125e-14 7.80125e-14 9.99436e-15 9.99436e-15 9.99436e-15 9.99436e-15 -6.83362e-14 -6.83362e-14 -6.83362e-14 -6.83362e-14 2.10833e-13 2.10833e-13 2.10833e-13 2.10833e-13 -1.4981e-14 -1.4981e-14 -1.4981e-14 -1.4981e-14 1.28186e-13 1.28186e-13 1.28186e-13 1.28186e-13 5.61176e-14 5.61176e-14 5.61176e-14 5.61176e-14 4.04934e-14 4.04934e-14 4.04934e-14 4.04934e-14 -5.78415e-14 -5.78415e-14 -5.78415e-14 -5.78415e-14 3.42512e-15 3.42512e-15 3.42512e-15 3.42512e-15 1.53306e-13 1.53306e-13 1.53306e-13 1.53306e-13 -5.2668e-14 -5.2668e-14 -5.2668e-14 -5.2668e-14 8.4074e-15 8.4074e-15 8.4074e-15 8.4074e-15 -7.06268e-14 -7.06268e-14 -7.06268e-14 -7.06268e-14 -3.08531e-13 -3.08531e-13 -3.08531e-13 -3.08531e-13 -4.5033e-16 -4.5033e-16 -4.5033e-16 -4.5033e-16 1.02911e-13 1.02911e-13 1.02911e-13 1.02911e-13 -4.01522e-14 -4.01522e-14 -4.01522e-14 -4.01522e-14 -2.81434e-14 -2.81434e-14 -2.81434e-14 -2.81434e-14 3.30147e-15 3.30147e-15 3.30147e-15 3.30147e-15 -7.97298e-14 -7.97298e-14 -7.97298e-14 -7.97298e-14 -2.59183e-14 -2.59183e-14 -2.59183e-14 -2.59183e-14 4.96807e-14 4.96807e-14 4.96807e-14 4.96807e-14 1.46439e-14 1.46439e-14 1.46439e-14 1.46439e-14 4.75784e-14 4.75784e-14 4.75784e-14 4.75784e-14 -4.92289e-14 -4.92289e-14 -4.92289e-14 -4.92289e-14 -2.78234e-14 -2.78234e-14 -2.78234e-14 -2.78234e-14 2.11157e-14 2.11157e-14 2.11157e-14 2.11157e-14 4.3002e-14 4.3002e-14 4.3002e-14 4.3002e-14 -1.27965e-13 -1.27965e-13 -1.27965e-13 -1.27965e-13 4.77514e-14 4.77514e-14 4.77514e-14 4.77514e-14 -6.18788e-14 -6.18788e-14 -6.18788e-14 -6.18788e-14 -1.11325e-13 -1.11325e-13 -1.11325e-13 -1.11325e-13 -9.6381e-14 -9.6381e-14 -9.6381e-14 -9.6381e-14 4.04725e-13 4.04725e-13 4.04725e-13 4.04725e-13 1.662e-13 1.662e-13 1.662e-13 1.662e-13 -2.36452e-14 -2.36452e-14 -2.36452e-14 -2.36452e-14 4.57416e-15 4.57416e-15 4.57416e-15 4.57416e-15 -1.17614e-13 -1.17614e-13 -1.17614e-13 -1.17614e-13 -3.36004e-14 -3.36004e-14 -3.36004e-14 -3.36004e-14 -5.80095e-15 -5.80095e-15 -5.80095e-15 -5.80095e-15 1.15249e-13 1.15249e-13 1.15249e-13 1.15249e-13 9.6551e-14 9.6551e-14 9.6551e-14 9.6551e-14 9.02375e-14 9.02375e-14 9.02375e-14 9.02375e-14 -2.92073e-14 -2.92073e-14 -2.92073e-14 -2.92073e-14 -2.60858e-14 -2.60858e-14 -2.60858e-14 -2.60858e-14 -3.99071e-13 -3.99071e-13 -3.99071e-13 -3.99071e-13 -1.1085e-13 -1.1085e-13 -1.1085e-13 -1.1085e-13 8.64241e-14 8.64241e-14 8.64241e-14 8.64241e-14 -2.00317e-13 -2.00317e-13 -2.00317e-13 -2.00317e-13 -4.60903e-14 -4.60903e-14 -4.60903e-14 -4.60903e-14 1.72041e-14 1.72041e-14 1.72041e-14 1.72041e-14 2.52177e-13 2.52177e-13 2.52177e-13 2.52177e-13 6.49577e-14 6.49577e-14 6.49577e-14 6.49577e-14 0 0 0 0 7.74002e-14 7.74002e-14 7.74002e-14 7.74002e-14 5.24367e-14 5.24367e-14 5.24367e-14 5.24367e-14 -3.77488e-14 -3.77488e-14 -3.77488e-14 -3.77488e-14 9.08296e-14 9.08296e-14 9.08296e-14 9.08296e-14 1.18486e-14 1.18486e-14 1.18486e-14 1.18486e-14 -2.57551e-15 -2.57551e-15 -2.57551e-15 -2.57551e-15 -4.52301e-14 -4.52301e-14 -4.52301e-14 -4.52301e-14 -5.53854e-16 -5.53854e-16 -5.53854e-16 -5.53854e-16 -3.86541e-14 -3.86541e-14 -3.86541e-14 -3.86541e-14 4.25143e-14 4.25143e-14 4.25143e-14 4.25143e-14 -5.01404e-14 -5.01404e-14 -5.01404e-14 -5.01404e-14 9.83853e-14 9.83853e-14 9.83853e-14 9.83853e-14 -3.18442e-14 -3.18442e-14 -3.18442e-14 -3.18442e-14 4.63588e-14 4.63588e-14 4.63588e-14 4.63588e-14 7.14491e-16 7.14491e-16 7.14491e-16 7.14491e-16 -1.27179e-13 -1.27179e-13 -1.27179e-13 -1.27179e-13 -1.69597e-13 -1.69597e-13 -1.69597e-13 -1.69597e-13 -1.01389e-13 -1.01389e-13 -1.01389e-13 -1.01389e-13 -1.3156e-13 -1.3156e-13 -1.3156e-13 -1.3156e-13 1.85781e-14 1.85781e-14 1.85781e-14 1.85781e-14 -2.4636e-14 -2.4636e-14 -2.4636e-14 -2.4636e-14 2.13692e-14 2.13692e-14 2.13692e-14 2.13692e-14 -1.15162e-14 -1.15162e-14 -1.15162e-14 -1.15162e-14 -6.67482e-14 -6.67482e-14 -6.67482e-14 -6.67482e-14 -4.68514e-14 -4.68514e-14 -4.68514e-14 -4.68514e-14 -1.11932e-13 -1.11932e-13 -1.11932e-13 -1.11932e-13 4.42394e-14 4.42394e-14 4.42394e-14 4.42394e-14 3.90079e-14 3.90079e-14 3.90079e-14 3.90079e-14 -4.33499e-15 -4.33499e-15 -4.33499e-15 -4.33499e-15 8.34203e-14 8.34203e-14 8.34203e-14 8.34203e-14 9.83686e-14 9.83686e-14 9.83686e-14 9.83686e-14 -3.62295e-15 -3.62295e-15 -3.62295e-15 -3.62295e-15 -1.46426e-13 -1.46426e-13 -1.46426e-13 -1.46426e-13 -8.46955e-14 -8.46955e-14 -8.46955e-14 -8.46955e-14 -1.77852e-13 -1.77852e-13 -1.77852e-13 -1.77852e-13 -9.809e-14 -9.809e-14 -9.809e-14 -9.809e-14 1.13499e-14 1.13499e-14 1.13499e-14 1.13499e-14 4.14324e-14 4.14324e-14 4.14324e-14 4.14324e-14 -3.07698e-14 -3.07698e-14 -3.07698e-14 -3.07698e-14 -2.15737e-13 -2.15737e-13 -2.15737e-13 -2.15737e-13 -2.48964e-14 -2.48964e-14 -2.48964e-14 -2.48964e-14 -1.86388e-14 -1.86388e-14 -1.86388e-14 -1.86388e-14 -5.52631e-14 -5.52631e-14 -5.52631e-14 -5.52631e-14 3.90305e-14 3.90305e-14 3.90305e-14 3.90305e-14 -7.07912e-14 -7.07912e-14 -7.07912e-14 -7.07912e-14 3.72048e-14 3.72048e-14 3.72048e-14 3.72048e-14 -4.51486e-15 -4.51486e-15 -4.51486e-15 -4.51486e-15 5.53419e-14 5.53419e-14 5.53419e-14 5.53419e-14 -1.40737e-14 -1.40737e-14 -1.40737e-14 -1.40737e-14 1.89425e-13 1.89425e-13 1.89425e-13 1.89425e-13 -1.89265e-13 -1.89265e-13 -1.89265e-13 -1.89265e-13 1.49506e-13 1.49506e-13 1.49506e-13 1.49506e-13 9.25113e-15 9.25113e-15 9.25113e-15 9.25113e-15 -7.92446e-14 -7.92446e-14 -7.92446e-14 -7.92446e-14 -1.16771e-14 -1.16771e-14 -1.16771e-14 -1.16771e-14 -4.08595e-14 -4.08595e-14 -4.08595e-14 -4.08595e-14 -1.36518e-13 -1.36518e-13 -1.36518e-13 -1.36518e-13 4.64533e-14 4.64533e-14 4.64533e-14 4.64533e-14 -1.68996e-14 -1.68996e-14 -1.68996e-14 -1.68996e-14 -3.12117e-15 -3.12117e-15 -3.12117e-15 -3.12117e-15 -4.16031e-14 -4.16031e-14 -4.16031e-14 -4.16031e-14 6.75576e-14 6.75576e-14 6.75576e-14 6.75576e-14 3.11221e-13 3.11221e-13 3.11221e-13 3.11221e-13 2.04079e-13 2.04079e-13 2.04079e-13 2.04079e-13 -5.59356e-14 -5.59356e-14 -5.59356e-14 -5.59356e-14 1.34661e-13 1.34661e-13 1.34661e-13 1.34661e-13 -4.93038e-30 -4.93038e-30 -4.93038e-30 -4.93038e-30 3.0511e-14 3.0511e-14 3.0511e-14 3.0511e-14 -1.40183e-13 -1.40183e-13 -1.40183e-13 -1.40183e-13 7.20414e-14 7.20414e-14 7.20414e-14 7.20414e-14 -5.40993e-14 -5.40993e-14 -5.40993e-14 -5.40993e-14 6.21491e-14 6.21491e-14 6.21491e-14 6.21491e-14 -2.7947e-14 -2.7947e-14 -2.7947e-14 -2.7947e-14 1.39449e-13 1.39449e-13 1.39449e-13 1.39449e-13 5.82071e-14 5.82071e-14 5.82071e-14 5.82071e-14 -1.33058e-13 -1.33058e-13 -1.33058e-13 -1.33058e-13 -1.46406e-13 -1.46406e-13 -1.46406e-13 -1.46406e-13 -4.95479e-14 -4.95479e-14 -4.95479e-14 -4.95479e-14 6.81118e-14 6.81118e-14 6.81118e-14 6.81118e-14 -2.07959e-14 -2.07959e-14 -2.07959e-14 -2.07959e-14 -1.00296e-13 -1.00296e-13 -1.00296e-13 -1.00296e-13 -4.73105e-14 -4.73105e-14 -4.73105e-14 -4.73105e-14 -8.00113e-14 -8.00113e-14 -8.00113e-14 -8.00113e-14 1.00261e-13 1.00261e-13 1.00261e-13 1.00261e-13 1.49811e-14 1.49811e-14 1.49811e-14 1.49811e-14 1.23768e-13 1.23768e-13 1.23768e-13 1.23768e-13 6.00591e-14 6.00591e-14 6.00591e-14 6.00591e-14 -2.48463e-14 -2.48463e-14 -2.48463e-14 -2.48463e-14 -9.0177e-14 -9.0177e-14 -9.0177e-14 -9.0177e-14 -9.57015e-14 -9.57015e-14 -9.57015e-14 -9.57015e-14 -8.095e-14 -8.095e-14 -8.095e-14 -8.095e-14 -5.01003e-14 -5.01003e-14 -5.01003e-14 -5.01003e-14 -2.56885e-14 -2.56885e-14 -2.56885e-14 -2.56885e-14 -1.92647e-13 -1.92647e-13 -1.92647e-13 -1.92647e-13 -8.3876e-14 -8.3876e-14 -8.3876e-14 -8.3876e-14 -5.12517e-14 -5.12517e-14 -5.12517e-14 -5.12517e-14 -5.31726e-15 -5.31726e-15 -5.31726e-15 -5.31726e-15 8.38795e-14 8.38795e-14 8.38795e-14 8.38795e-14 -1.01675e-13 -1.01675e-13 -1.01675e-13 -1.01675e-13 -2.32066e-14 -2.32066e-14 -2.32066e-14 -2.32066e-14 1.57658e-14 1.57658e-14 1.57658e-14 1.57658e-14 -1.00795e-13 -1.00795e-13 -1.00795e-13 -1.00795e-13 7.5316e-14 7.5316e-14 7.5316e-14 7.5316e-14 1.58142e-13 1.58142e-13 1.58142e-13 1.58142e-13 -5.25313e-14 -5.25313e-14 -5.25313e-14 -5.25313e-14 -3.84563e-14 -3.84563e-14 -3.84563e-14 -3.84563e-14 -2.14168e-13 -2.14168e-13 -2.14168e-13 -2.14168e-13 1.48578e-13 1.48578e-13 1.48578e-13 1.48578e-13 -4.06993e-15 -4.06993e-15 -4.06993e-15 -4.06993e-15 1.10067e-13 1.10067e-13 1.10067e-13 1.10067e-13 1.55242e-13 1.55242e-13 1.55242e-13 1.55242e-13 -2.41565e-13 -2.41565e-13 -2.41565e-13 -2.41565e-13 -3.74704e-14 -3.74704e-14 -3.74704e-14 -3.74704e-14 -6.39176e-14 -6.39176e-14 -6.39176e-14 -6.39176e-14 6.1594e-14 6.1594e-14 6.1594e-14 6.1594e-14 -2.92495e-14 -2.92495e-14 -2.92495e-14 -2.92495e-14 0 0 0 0 -2.11556e-14 -2.11556e-14 -2.11556e-14 -2.11556e-14 5.62883e-14 5.62883e-14 5.62883e-14 5.62883e-14 1.11331e-13 1.11331e-13 1.11331e-13 1.11331e-13 -1.30702e-13 -1.30702e-13 -1.30702e-13 -1.30702e-13 -4.28572e-14 -4.28572e-14 -4.28572e-14 -4.28572e-14 -4.00004e-15 -4.00004e-15 -4.00004e-15 -4.00004e-15 -1.6889e-13 -1.6889e-13 -1.6889e-13 -1.6889e-13 1.5318e-13 1.5318e-13 1.5318e-13 1.5318e-13 -7.82813e-14 -7.82813e-14 -7.82813e-14 -7.82813e-14 -2.44058e-14 -2.44058e-14 -2.44058e-14 -2.44058e-14 3.75967e-14 3.75967e-14 3.75967e-14 3.75967e-14 1.34001e-13 1.34001e-13 1.34001e-13 1.34001e-13 6.35169e-14 6.35169e-14 6.35169e-14 6.35169e-14 -3.6739e-14 -3.6739e-14 -3.6739e-14 -3.6739e-14 -4.10357e-14 -4.10357e-14 -4.10357e-14 -4.10357e-14 3.78968e-15 3.78968e-15 3.78968e-15 3.78968e-15 4.00578e-14 4.00578e-14 4.00578e-14 4.00578e-14 8.61779e-14 8.61779e-14 8.61779e-14 8.61779e-14 -1.20676e-13 -1.20676e-13 -1.20676e-13 -1.20676e-13 -7.67861e-14 -7.67861e-14 -7.67861e-14 -7.67861e-14 1.10622e-13 1.10622e-13 1.10622e-13 1.10622e-13 -9.09885e-15 -9.09885e-15 -9.09885e-15 -9.09885e-15 -1.15486e-13 -1.15486e-13 -1.15486e-13 -1.15486e-13 1.69545e-15 1.69545e-15 1.69545e-15 1.69545e-15 7.00265e-14 7.00265e-14 7.00265e-14 7.00265e-14 4.96354e-14 4.96354e-14 4.96354e-14 4.96354e-14 2.05314e-14 2.05314e-14 2.05314e-14 2.05314e-14 5.57548e-14 5.57548e-14 5.57548e-14 5.57548e-14 -8.18308e-14 -8.18308e-14 -8.18308e-14 -8.18308e-14 -1.0445e-13 -1.0445e-13 -1.0445e-13 -1.0445e-13 1.76041e-14 1.76041e-14 1.76041e-14 1.76041e-14 -8.30924e-14 -8.30924e-14 -8.30924e-14 -8.30924e-14 5.20116e-14 5.20116e-14 5.20116e-14 5.20116e-14 -4.08782e-14 -4.08782e-14 -4.08782e-14 -4.08782e-14 2.79265e-14 2.79265e-14 2.79265e-14 2.79265e-14 1.32598e-13 1.32598e-13 1.32598e-13 1.32598e-13 -5.25663e-14 -5.25663e-14 -5.25663e-14 -5.25663e-14 -1.78558e-14 -1.78558e-14 -1.78558e-14 -1.78558e-14 3.58168e-14 3.58168e-14 3.58168e-14 3.58168e-14 1.30134e-14 1.30134e-14 1.30134e-14 1.30134e-14 2.05953e-14 2.05953e-14 2.05953e-14 2.05953e-14 -1.70672e-13 -1.70672e-13 -1.70672e-13 -1.70672e-13 -2.60378e-14 -2.60378e-14 -2.60378e-14 -2.60378e-14 4.18029e-14 4.18029e-14 4.18029e-14 4.18029e-14 -9.19242e-17 -9.19242e-17 -9.19242e-17 -9.19242e-17 -4.76065e-14 -4.76065e-14 -4.76065e-14 -4.76065e-14 -9.55523e-14 -9.55523e-14 -9.55523e-14 -9.55523e-14 1.26064e-13 1.26064e-13 1.26064e-13 1.26064e-13 6.72104e-15 6.72104e-15 6.72104e-15 6.72104e-15 8.98356e-14 8.98356e-14 8.98356e-14 8.98356e-14 -2.04682e-14 -2.04682e-14 -2.04682e-14 -2.04682e-14 -4.3677e-14 -4.3677e-14 -4.3677e-14 -4.3677e-14 1.1124e-13 1.1124e-13 1.1124e-13 1.1124e-13 -1.10216e-13 -1.10216e-13 -1.10216e-13 -1.10216e-13 -1.05521e-13 -1.05521e-13 -1.05521e-13 -1.05521e-13 2.56292e-14 2.56292e-14 2.56292e-14 2.56292e-14 -3.06584e-14 -3.06584e-14 -3.06584e-14 -3.06584e-14 1.17177e-13 1.17177e-13 1.17177e-13 1.17177e-13 -7.65238e-15 -7.65238e-15 -7.65238e-15 -7.65238e-15 -1.31898e-13 -1.31898e-13 -1.31898e-13 -1.31898e-13 -5.47906e-14 -5.47906e-14 -5.47906e-14 -5.47906e-14 0 0 0 0 1.27811e-13 1.27811e-13 1.27811e-13 1.27811e-13 7.78074e-14 7.78074e-14 7.78074e-14 7.78074e-14 3.69668e-14 3.69668e-14 3.69668e-14 3.69668e-14 5.57823e-14 5.57823e-14 5.57823e-14 5.57823e-14 -5.83363e-14 -5.83363e-14 -5.83363e-14 -5.83363e-14 3.80128e-15 3.80128e-15 3.80128e-15 3.80128e-15 -5.10091e-14 -5.10091e-14 -5.10091e-14 -5.10091e-14 -5.46825e-14 -5.46825e-14 -5.46825e-14 -5.46825e-14 1.18468e-13 1.18468e-13 1.18468e-13 1.18468e-13 1.89612e-13 1.89612e-13 1.89612e-13 1.89612e-13 -1.60809e-14 -1.60809e-14 -1.60809e-14 -1.60809e-14 1.37743e-13 1.37743e-13 1.37743e-13 1.37743e-13 -8.01035e-14 -8.01035e-14 -8.01035e-14 -8.01035e-14 -7.85747e-14 -7.85747e-14 -7.85747e-14 -7.85747e-14 -7.87928e-14 -7.87928e-14 -7.87928e-14 -7.87928e-14 1.97258e-13 1.97258e-13 1.97258e-13 1.97258e-13 -1.79799e-13 -1.79799e-13 -1.79799e-13 -1.79799e-13 -1.17333e-13 -1.17333e-13 -1.17333e-13 -1.17333e-13 6.20643e-14 6.20643e-14 6.20643e-14 6.20643e-14 -1.62246e-13 -1.62246e-13 -1.62246e-13 -1.62246e-13 2.49049e-13 2.49049e-13 2.49049e-13 2.49049e-13 -1.39954e-13 -1.39954e-13 -1.39954e-13 -1.39954e-13 5.63769e-14 5.63769e-14 5.63769e-14 5.63769e-14 4.80983e-15 4.80983e-15 4.80983e-15 4.80983e-15 3.92639e-14 3.92639e-14 3.92639e-14 3.92639e-14 -1.30194e-13 -1.30194e-13 -1.30194e-13 -1.30194e-13 4.04271e-14 4.04271e-14 4.04271e-14 4.04271e-14 -5.31436e-14 -5.31436e-14 -5.31436e-14 -5.31436e-14 4.65844e-14 4.65844e-14 4.65844e-14 4.65844e-14 -1.46363e-13 -1.46363e-13 -1.46363e-13 -1.46363e-13 3.0698e-14 3.0698e-14 3.0698e-14 3.0698e-14 -2.42435e-13 -2.42435e-13 -2.42435e-13 -2.42435e-13 3.96909e-14 3.96909e-14 3.96909e-14 3.96909e-14 -1.02969e-13 -1.02969e-13 -1.02969e-13 -1.02969e-13 1.17871e-13 1.17871e-13 1.17871e-13 1.17871e-13 -2.13698e-14 -2.13698e-14 -2.13698e-14 -2.13698e-14 -7.98918e-14 -7.98918e-14 -7.98918e-14 -7.98918e-14 1.56177e-13 1.56177e-13 1.56177e-13 1.56177e-13 3.75847e-15 3.75847e-15 3.75847e-15 3.75847e-15 -4.73822e-14 -4.73822e-14 -4.73822e-14 -4.73822e-14 1.39361e-13 1.39361e-13 1.39361e-13 1.39361e-13 -7.02678e-14 -7.02678e-14 -7.02678e-14 -7.02678e-14 9.78558e-14 9.78558e-14 9.78558e-14 9.78558e-14 -1.87582e-14 -1.87582e-14 -1.87582e-14 -1.87582e-14 4.12915e-14 4.12915e-14 4.12915e-14 4.12915e-14 1.40949e-13 1.40949e-13 1.40949e-13 1.40949e-13 -1.84885e-13 -1.84885e-13 -1.84885e-13 -1.84885e-13 3.40042e-14 3.40042e-14 3.40042e-14 3.40042e-14 -9.39284e-14 -9.39284e-14 -9.39284e-14 -9.39284e-14 -1.38091e-13 -1.38091e-13 -1.38091e-13 -1.38091e-13 1.69827e-14 1.69827e-14 1.69827e-14 1.69827e-14 -4.94046e-15 -4.94046e-15 -4.94046e-15 -4.94046e-15 -1.27379e-13 -1.27379e-13 -1.27379e-13 -1.27379e-13 1.39955e-13 1.39955e-13 1.39955e-13 1.39955e-13 1.34742e-14 1.34742e-14 1.34742e-14 1.34742e-14 8.32697e-14 8.32697e-14 8.32697e-14 8.32697e-14 -1.04306e-13 -1.04306e-13 -1.04306e-13 -1.04306e-13 3.10646e-15 3.10646e-15 3.10646e-15 3.10646e-15 -4.76137e-14 -4.76137e-14 -4.76137e-14 -4.76137e-14 -3.69388e-14 -3.69388e-14 -3.69388e-14 -3.69388e-14 -1.01449e-13 -1.01449e-13 -1.01449e-13 -1.01449e-13 7.51897e-14 7.51897e-14 7.51897e-14 7.51897e-14 1.23587e-14 1.23587e-14 1.23587e-14 1.23587e-14 1.44799e-13 1.44799e-13 1.44799e-13 1.44799e-13 1.20662e-13 1.20662e-13 1.20662e-13 1.20662e-13 -5.7172e-14 -5.7172e-14 -5.7172e-14 -5.7172e-14 -5.91496e-14 -5.91496e-14 -5.91496e-14 -5.91496e-14 -8.15058e-14 -8.15058e-14 -8.15058e-14 -8.15058e-14 3.65459e-14 3.65459e-14 3.65459e-14 3.65459e-14 6.38798e-14 6.38798e-14 6.38798e-14 6.38798e-14 5.2716e-14 5.2716e-14 5.2716e-14 5.2716e-14 -1.39776e-14 -1.39776e-14 -1.39776e-14 -1.39776e-14 2.47419e-14 2.47419e-14 2.47419e-14 2.47419e-14 6.0919e-14 6.0919e-14 6.0919e-14 6.0919e-14 -3.88941e-14 -3.88941e-14 -3.88941e-14 -3.88941e-14 -2.08856e-13 -2.08856e-13 -2.08856e-13 -2.08856e-13 -9.83897e-14 -9.83897e-14 -9.83897e-14 -9.83897e-14 9.91035e-14 9.91035e-14 9.91035e-14 9.91035e-14 -1.06061e-13 -1.06061e-13 -1.06061e-13 -1.06061e-13 3.45308e-14 3.45308e-14 3.45308e-14 3.45308e-14 -5.60681e-14 -5.60681e-14 -5.60681e-14 -5.60681e-14 -1.46268e-13 -1.46268e-13 -1.46268e-13 -1.46268e-13 -6.77892e-14 -6.77892e-14 -6.77892e-14 -6.77892e-14 -1.54846e-14 -1.54846e-14 -1.54846e-14 -1.54846e-14 3.33166e-14 3.33166e-14 3.33166e-14 3.33166e-14 -7.81375e-14 -7.81375e-14 -7.81375e-14 -7.81375e-14 3.73933e-14 3.73933e-14 3.73933e-14 3.73933e-14 -4.37737e-14 -4.37737e-14 -4.37737e-14 -4.37737e-14 -7.2236e-14 -7.2236e-14 -7.2236e-14 -7.2236e-14 -3.8293e-14 -3.8293e-14 -3.8293e-14 -3.8293e-14 -3.38976e-14 -3.38976e-14 -3.38976e-14 -3.38976e-14 1.39078e-13 1.39078e-13 1.39078e-13 1.39078e-13 1.37501e-13 1.37501e-13 1.37501e-13 1.37501e-13 -6.18473e-14 -6.18473e-14 -6.18473e-14 -6.18473e-14 -1.31801e-13 -1.31801e-13 -1.31801e-13 -1.31801e-13 2.9298e-14 2.9298e-14 2.9298e-14 2.9298e-14 1.87187e-14 1.87187e-14 1.87187e-14 1.87187e-14 3.50869e-14 3.50869e-14 3.50869e-14 3.50869e-14 2.08895e-13 2.08895e-13 2.08895e-13 2.08895e-13 -1.06057e-13 -1.06057e-13 -1.06057e-13 -1.06057e-13 -1.90411e-15 -1.90411e-15 -1.90411e-15 -1.90411e-15 7.48797e-15 7.48797e-15 7.48797e-15 7.48797e-15 8.67119e-14 8.67119e-14 8.67119e-14 8.67119e-14 -1.61376e-13 -1.61376e-13 -1.61376e-13 -1.61376e-13 -1.7069e-13 -1.7069e-13 -1.7069e-13 -1.7069e-13 -1.11729e-15 -1.11729e-15 -1.11729e-15 -1.11729e-15 9.04973e-14 9.04973e-14 9.04973e-14 9.04973e-14 -8.41238e-14 -8.41238e-14 -8.41238e-14 -8.41238e-14 1.93187e-13 1.93187e-13 1.93187e-13 1.93187e-13 -7.71809e-14 -7.71809e-14 -7.71809e-14 -7.71809e-14 1.10295e-14 1.10295e-14 1.10295e-14 1.10295e-14 -1.11125e-13 -1.11125e-13 -1.11125e-13 -1.11125e-13 6.3901e-14 6.3901e-14 6.3901e-14 6.3901e-14 -7.1925e-14 -7.1925e-14 -7.1925e-14 -7.1925e-14 -1.55798e-13 -1.55798e-13 -1.55798e-13 -1.55798e-13 2.4285e-13 2.4285e-13 2.4285e-13 2.4285e-13 2.87918e-14 2.87918e-14 2.87918e-14 2.87918e-14 4.59695e-14 4.59695e-14 4.59695e-14 4.59695e-14 1.71537e-13 1.71537e-13 1.71537e-13 1.71537e-13 -2.8824e-14 -2.8824e-14 -2.8824e-14 -2.8824e-14 1.33453e-14 1.33453e-14 1.33453e-14 1.33453e-14 -1.71055e-14 -1.71055e-14 -1.71055e-14 -1.71055e-14 -8.41525e-15 -8.41525e-15 -8.41525e-15 -8.41525e-15 7.8101e-15 7.8101e-15 7.8101e-15 7.8101e-15 1.29027e-13 1.29027e-13 1.29027e-13 1.29027e-13 -1.73634e-15 -1.73634e-15 -1.73634e-15 -1.73634e-15 1.57461e-13 1.57461e-13 1.57461e-13 1.57461e-13 -8.64465e-14 -8.64465e-14 -8.64465e-14 -8.64465e-14 -6.76247e-14 -6.76247e-14 -6.76247e-14 -6.76247e-14 -4.20157e-14 -4.20157e-14 -4.20157e-14 -4.20157e-14 -9.22559e-14 -9.22559e-14 -9.22559e-14 -9.22559e-14 -1.21596e-13 -1.21596e-13 -1.21596e-13 -1.21596e-13 -2.33001e-13 -2.33001e-13 -2.33001e-13 -2.33001e-13 -7.8349e-14 -7.8349e-14 -7.8349e-14 -7.8349e-14 1.43936e-13 1.43936e-13 1.43936e-13 1.43936e-13 -1.17749e-14 -1.17749e-14 -1.17749e-14 -1.17749e-14 3.23591e-14 3.23591e-14 3.23591e-14 3.23591e-14 1.18747e-13 1.18747e-13 1.18747e-13 1.18747e-13 -7.93459e-14 -7.93459e-14 -7.93459e-14 -7.93459e-14 -4.66296e-14 -4.66296e-14 -4.66296e-14 -4.66296e-14 1.29804e-13 1.29804e-13 1.29804e-13 1.29804e-13 5.35653e-14 5.35653e-14 5.35653e-14 5.35653e-14 -1.74176e-13 -1.74176e-13 -1.74176e-13 -1.74176e-13 -2.39233e-14 -2.39233e-14 -2.39233e-14 -2.39233e-14 4.42715e-14 4.42715e-14 4.42715e-14 4.42715e-14 1.19791e-13 1.19791e-13 1.19791e-13 1.19791e-13 -6.38994e-14 -6.38994e-14 -6.38994e-14 -6.38994e-14 2.80662e-14 2.80662e-14 2.80662e-14 2.80662e-14 -3.12145e-15 -3.12145e-15 -3.12145e-15 -3.12145e-15 1.85425e-13 1.85425e-13 1.85425e-13 1.85425e-13 4.79793e-14 4.79793e-14 4.79793e-14 4.79793e-14 -4.15806e-14 -4.15806e-14 -4.15806e-14 -4.15806e-14 -3.00113e-14 -3.00113e-14 -3.00113e-14 -3.00113e-14 1.46229e-14 1.46229e-14 1.46229e-14 1.46229e-14 -2.66062e-14 -2.66062e-14 -2.66062e-14 -2.66062e-14 1.62119e-13 1.62119e-13 1.62119e-13 1.62119e-13 9.22157e-14 9.22157e-14 9.22157e-14 9.22157e-14 -4.92996e-14 -4.92996e-14 -4.92996e-14 -4.92996e-14 -5.57355e-14 -5.57355e-14 -5.57355e-14 -5.57355e-14 1.2117e-13 1.2117e-13 1.2117e-13 1.2117e-13 1.67593e-13 1.67593e-13 1.67593e-13 1.67593e-13 7.60369e-14 7.60369e-14 7.60369e-14 7.60369e-14 -6.61187e-14 -6.61187e-14 -6.61187e-14 -6.61187e-14 1.36464e-14 1.36464e-14 1.36464e-14 1.36464e-14 -4.49175e-16 -4.49175e-16 -4.49175e-16 -4.49175e-16 -1.32626e-14 -1.32626e-14 -1.32626e-14 -1.32626e-14 -4.15861e-14 -4.15861e-14 -4.15861e-14 -4.15861e-14 -1.10845e-14 -1.10845e-14 -1.10845e-14 -1.10845e-14 1.03741e-13 1.03741e-13 1.03741e-13 1.03741e-13 1.56616e-13 1.56616e-13 1.56616e-13 1.56616e-13 1.02539e-13 1.02539e-13 1.02539e-13 1.02539e-13 1.09991e-14 1.09991e-14 1.09991e-14 1.09991e-14 5.20309e-14 5.20309e-14 5.20309e-14 5.20309e-14 7.7237e-14 7.7237e-14 7.7237e-14 7.7237e-14 7.03453e-14 7.03453e-14 7.03453e-14 7.03453e-14 -1.18419e-13 -1.18419e-13 -1.18419e-13 -1.18419e-13 3.49645e-14 3.49645e-14 3.49645e-14 3.49645e-14 -3.53248e-14 -3.53248e-14 -3.53248e-14 -3.53248e-14 3.18502e-14 3.18502e-14 3.18502e-14 3.18502e-14 -2.20877e-13 -2.20877e-13 -2.20877e-13 -2.20877e-13 1.25378e-13 1.25378e-13 1.25378e-13 1.25378e-13 2.02796e-13 2.02796e-13 2.02796e-13 2.02796e-13 5.89128e-14 5.89128e-14 5.89128e-14 5.89128e-14 -2.22763e-13 -2.22763e-13 -2.22763e-13 -2.22763e-13 3.56884e-14 3.56884e-14 3.56884e-14 3.56884e-14 -2.71474e-13 -2.71474e-13 -2.71474e-13 -2.71474e-13 -9.00288e-15 -9.00288e-15 -9.00288e-15 -9.00288e-15 1.20601e-13 1.20601e-13 1.20601e-13 1.20601e-13 1.09088e-13 1.09088e-13 1.09088e-13 1.09088e-13 -7.49222e-14 -7.49222e-14 -7.49222e-14 -7.49222e-14 -9.28988e-14 -9.28988e-14 -9.28988e-14 -9.28988e-14 4.15879e-14 4.15879e-14 4.15879e-14 4.15879e-14 9.41497e-14 9.41497e-14 9.41497e-14 9.41497e-14 1.02129e-13 1.02129e-13 1.02129e-13 1.02129e-13 -1.53232e-13 -1.53232e-13 -1.53232e-13 -1.53232e-13 -1.90085e-14 -1.90085e-14 -1.90085e-14 -1.90085e-14 -4.33906e-14 -4.33906e-14 -4.33906e-14 -4.33906e-14 7.57877e-14 7.57877e-14 7.57877e-14 7.57877e-14 6.63263e-14 6.63263e-14 6.63263e-14 6.63263e-14 1.69091e-14 1.69091e-14 1.69091e-14 1.69091e-14 2.88638e-13 2.88638e-13 2.88638e-13 2.88638e-13 -1.02157e-13 -1.02157e-13 -1.02157e-13 -1.02157e-13 -1.16241e-14 -1.16241e-14 -1.16241e-14 -1.16241e-14 4.09897e-15 4.09897e-15 4.09897e-15 4.09897e-15 3.36764e-15 3.36764e-15 3.36764e-15 3.36764e-15 -8.50483e-14 -8.50483e-14 -8.50483e-14 -8.50483e-14 -1.84342e-13 -1.84342e-13 -1.84342e-13 -1.84342e-13 1.58554e-14 1.58554e-14 1.58554e-14 1.58554e-14 5.5372e-14 5.5372e-14 5.5372e-14 5.5372e-14 -1.64887e-13 -1.64887e-13 -1.64887e-13 -1.64887e-13 1.81224e-13 1.81224e-13 1.81224e-13 1.81224e-13 -3.09457e-14 -3.09457e-14 -3.09457e-14 -3.09457e-14 -1.61315e-14 -1.61315e-14 -1.61315e-14 -1.61315e-14 4.0624e-14 4.0624e-14 4.0624e-14 4.0624e-14 5.54116e-14 5.54116e-14 5.54116e-14 5.54116e-14 -1.83305e-14 -1.83305e-14 -1.83305e-14 -1.83305e-14 1.59901e-14 1.59901e-14 1.59901e-14 1.59901e-14 2.75835e-14 2.75835e-14 2.75835e-14 2.75835e-14 1.17673e-13 1.17673e-13 1.17673e-13 1.17673e-13 -3.60255e-14 -3.60255e-14 -3.60255e-14 -3.60255e-14 0 0 0 0 -1.76684e-14 -1.76684e-14 -1.76684e-14 -1.76684e-14 3.52651e-13 3.52651e-13 3.52651e-13 3.52651e-13 2.42562e-14 2.42562e-14 2.42562e-14 2.42562e-14 2.87637e-13 2.87637e-13 2.87637e-13 2.87637e-13 6.927e-14 6.927e-14 6.927e-14 6.927e-14 -1.92987e-13 -1.92987e-13 -1.92987e-13 -1.92987e-13 -6.65035e-14 -6.65035e-14 -6.65035e-14 -6.65035e-14 2.87597e-14 2.87597e-14 2.87597e-14 2.87597e-14 5.53534e-15 5.53534e-15 5.53534e-15 5.53534e-15 -1.05719e-13 -1.05719e-13 -1.05719e-13 -1.05719e-13 -2.79697e-14 -2.79697e-14 -2.79697e-14 -2.79697e-14 -7.10362e-14 -7.10362e-14 -7.10362e-14 -7.10362e-14 -1.09283e-13 -1.09283e-13 -1.09283e-13 -1.09283e-13 1.62176e-13 1.62176e-13 1.62176e-13 1.62176e-13 -1.85952e-13 -1.85952e-13 -1.85952e-13 -1.85952e-13 -6.69937e-14 -6.69937e-14 -6.69937e-14 -6.69937e-14 1.5573e-13 1.5573e-13 1.5573e-13 1.5573e-13 3.09161e-13 3.09161e-13 3.09161e-13 3.09161e-13 1.73433e-13 1.73433e-13 1.73433e-13 1.73433e-13 1.30224e-13 1.30224e-13 1.30224e-13 1.30224e-13 -5.56632e-14 -5.56632e-14 -5.56632e-14 -5.56632e-14 1.18632e-13 1.18632e-13 1.18632e-13 1.18632e-13 1.54208e-13 1.54208e-13 1.54208e-13 1.54208e-13 -1.78943e-13 -1.78943e-13 -1.78943e-13 -1.78943e-13 1.31517e-13 1.31517e-13 1.31517e-13 1.31517e-13 2.85614e-14 2.85614e-14 2.85614e-14 2.85614e-14 6.84642e-14 6.84642e-14 6.84642e-14 6.84642e-14 -2.65215e-14 -2.65215e-14 -2.65215e-14 -2.65215e-14 9.69834e-14 9.69834e-14 9.69834e-14 9.69834e-14 5.47541e-14 5.47541e-14 5.47541e-14 5.47541e-14 9.70906e-14 9.70906e-14 9.70906e-14 9.70906e-14 -1.63181e-14 -1.63181e-14 -1.63181e-14 -1.63181e-14 1.4766e-14 1.4766e-14 1.4766e-14 1.4766e-14 -2.49081e-14 -2.49081e-14 -2.49081e-14 -2.49081e-14 -8.19815e-14 -8.19815e-14 -8.19815e-14 -8.19815e-14 -1.10244e-13 -1.10244e-13 -1.10244e-13 -1.10244e-13 2.30084e-14 2.30084e-14 2.30084e-14 2.30084e-14 -1.3231e-15 -1.3231e-15 -1.3231e-15 -1.3231e-15 1.22232e-13 1.22232e-13 1.22232e-13 1.22232e-13 3.07683e-15 3.07683e-15 3.07683e-15 3.07683e-15 -1.62895e-14 -1.62895e-14 -1.62895e-14 -1.62895e-14 7.92613e-14 7.92613e-14 7.92613e-14 7.92613e-14 4.11532e-15 4.11532e-15 4.11532e-15 4.11532e-15 9.61227e-14 9.61227e-14 9.61227e-14 9.61227e-14 -2.84043e-14 -2.84043e-14 -2.84043e-14 -2.84043e-14 -4.34505e-14 -4.34505e-14 -4.34505e-14 -4.34505e-14 1.65528e-14 1.65528e-14 1.65528e-14 1.65528e-14 5.50405e-14 5.50405e-14 5.50405e-14 5.50405e-14 5.43354e-14 5.43354e-14 5.43354e-14 5.43354e-14 7.50166e-14 7.50166e-14 7.50166e-14 7.50166e-14 -2.47894e-14 -2.47894e-14 -2.47894e-14 -2.47894e-14 2.14547e-13 2.14547e-13 2.14547e-13 2.14547e-13 3.45777e-14 3.45777e-14 3.45777e-14 3.45777e-14 6.59936e-14 6.59936e-14 6.59936e-14 6.59936e-14 1.31344e-13 1.31344e-13 1.31344e-13 1.31344e-13 9.92114e-14 9.92114e-14 9.92114e-14 9.92114e-14 3.33129e-14 3.33129e-14 3.33129e-14 3.33129e-14 1.51011e-13 1.51011e-13 1.51011e-13 1.51011e-13 -6.49061e-14 -6.49061e-14 -6.49061e-14 -6.49061e-14 6.44979e-14 6.44979e-14 6.44979e-14 6.44979e-14 -4.48634e-14 -4.48634e-14 -4.48634e-14 -4.48634e-14 -1.39375e-13 -1.39375e-13 -1.39375e-13 -1.39375e-13 9.03258e-14 9.03258e-14 9.03258e-14 9.03258e-14 -6.18672e-14 -6.18672e-14 -6.18672e-14 -6.18672e-14 -1.42915e-14 -1.42915e-14 -1.42915e-14 -1.42915e-14 4.08369e-14 4.08369e-14 4.08369e-14 4.08369e-14 -2.10607e-13 -2.10607e-13 -2.10607e-13 -2.10607e-13 3.62877e-14 3.62877e-14 3.62877e-14 3.62877e-14 3.67113e-15 3.67113e-15 3.67113e-15 3.67113e-15 1.92003e-14 1.92003e-14 1.92003e-14 1.92003e-14 5.63331e-14 5.63331e-14 5.63331e-14 5.63331e-14 1.64392e-13 1.64392e-13 1.64392e-13 1.64392e-13 2.82632e-14 2.82632e-14 2.82632e-14 2.82632e-14 9.68553e-14 9.68553e-14 9.68553e-14 9.68553e-14 -4.16759e-14 -4.16759e-14 -4.16759e-14 -4.16759e-14 -1.2943e-14 -1.2943e-14 -1.2943e-14 -1.2943e-14 2.61409e-14 2.61409e-14 2.61409e-14 2.61409e-14 3.69613e-14 3.69613e-14 3.69613e-14 3.69613e-14 5.47114e-14 5.47114e-14 5.47114e-14 5.47114e-14 -2.11979e-13 -2.11979e-13 -2.11979e-13 -2.11979e-13 -2.92952e-14 -2.92952e-14 -2.92952e-14 -2.92952e-14 -1.29898e-13 -1.29898e-13 -1.29898e-13 -1.29898e-13 -1.59279e-14 -1.59279e-14 -1.59279e-14 -1.59279e-14 1.27778e-15 1.27778e-15 1.27778e-15 1.27778e-15 -4.37464e-15 -4.37464e-15 -4.37464e-15 -4.37464e-15 6.32856e-14 6.32856e-14 6.32856e-14 6.32856e-14 2.24754e-14 2.24754e-14 2.24754e-14 2.24754e-14 -2.55473e-14 -2.55473e-14 -2.55473e-14 -2.55473e-14 -3.71292e-14 -3.71292e-14 -3.71292e-14 -3.71292e-14 1.55877e-14 1.55877e-14 1.55877e-14 1.55877e-14 4.02221e-14 4.02221e-14 4.02221e-14 4.02221e-14 -1.3439e-13 -1.3439e-13 -1.3439e-13 -1.3439e-13 1.05181e-13 1.05181e-13 1.05181e-13 1.05181e-13 1.53981e-13 1.53981e-13 1.53981e-13 1.53981e-13 -1.12893e-13 -1.12893e-13 -1.12893e-13 -1.12893e-13 -4.5825e-14 -4.5825e-14 -4.5825e-14 -4.5825e-14 -4.06868e-14 -4.06868e-14 -4.06868e-14 -4.06868e-14 -1.9058e-13 -1.9058e-13 -1.9058e-13 -1.9058e-13 5.10094e-14 5.10094e-14 5.10094e-14 5.10094e-14 -2.27784e-14 -2.27784e-14 -2.27784e-14 -2.27784e-14 5.95746e-15 5.95746e-15 5.95746e-15 5.95746e-15 1.54882e-13 1.54882e-13 1.54882e-13 1.54882e-13 3.74397e-14 3.74397e-14 3.74397e-14 3.74397e-14 -4.85723e-14 -4.85723e-14 -4.85723e-14 -4.85723e-14 1.70541e-13 1.70541e-13 1.70541e-13 1.70541e-13 -2.08208e-13 -2.08208e-13 -2.08208e-13 -2.08208e-13 3.92874e-14 3.92874e-14 3.92874e-14 3.92874e-14 5.52097e-14 5.52097e-14 5.52097e-14 5.52097e-14 1.15227e-14 1.15227e-14 1.15227e-14 1.15227e-14 -1.63948e-13 -1.63948e-13 -1.63948e-13 -1.63948e-13 1.28029e-14 1.28029e-14 1.28029e-14 1.28029e-14 -4.09233e-14 -4.09233e-14 -4.09233e-14 -4.09233e-14 -2.51682e-14 -2.51682e-14 -2.51682e-14 -2.51682e-14 -6.172e-14 -6.172e-14 -6.172e-14 -6.172e-14 1.19616e-13 1.19616e-13 1.19616e-13 1.19616e-13 3.08556e-14 3.08556e-14 3.08556e-14 3.08556e-14 8.05995e-14 8.05995e-14 8.05995e-14 8.05995e-14 -3.82783e-15 -3.82783e-15 -3.82783e-15 -3.82783e-15 1.2974e-13 1.2974e-13 1.2974e-13 1.2974e-13 -4.29512e-14 -4.29512e-14 -4.29512e-14 -4.29512e-14 6.29607e-14 6.29607e-14 6.29607e-14 6.29607e-14 2.03893e-14 2.03893e-14 2.03893e-14 2.03893e-14 1.17186e-13 1.17186e-13 1.17186e-13 1.17186e-13 1.33383e-13 1.33383e-13 1.33383e-13 1.33383e-13 3.74744e-14 3.74744e-14 3.74744e-14 3.74744e-14 1.13114e-13 1.13114e-13 1.13114e-13 1.13114e-13 2.34794e-14 2.34794e-14 2.34794e-14 2.34794e-14 1.64086e-14 1.64086e-14 1.64086e-14 1.64086e-14 5.49313e-14 5.49313e-14 5.49313e-14 5.49313e-14 -2.86636e-14 -2.86636e-14 -2.86636e-14 -2.86636e-14 -4.47986e-14 -4.47986e-14 -4.47986e-14 -4.47986e-14 -8.62452e-14 -8.62452e-14 -8.62452e-14 -8.62452e-14 -8.43803e-14 -8.43803e-14 -8.43803e-14 -8.43803e-14 2.31374e-14 2.31374e-14 2.31374e-14 2.31374e-14 3.25484e-14 3.25484e-14 3.25484e-14 3.25484e-14 6.40547e-14 6.40547e-14 6.40547e-14 6.40547e-14 -2.01417e-15 -2.01417e-15 -2.01417e-15 -2.01417e-15 1.2536e-13 1.2536e-13 1.2536e-13 1.2536e-13 -6.90387e-14 -6.90387e-14 -6.90387e-14 -6.90387e-14 -7.45095e-15 -7.45095e-15 -7.45095e-15 -7.45095e-15 6.6978e-14 6.6978e-14 6.6978e-14 6.6978e-14 -4.35772e-15 -4.35772e-15 -4.35772e-15 -4.35772e-15 1.76479e-13 1.76479e-13 1.76479e-13 1.76479e-13 1.30475e-13 1.30475e-13 1.30475e-13 1.30475e-13 3.04986e-14 3.04986e-14 3.04986e-14 3.04986e-14 8.04986e-14 8.04986e-14 8.04986e-14 8.04986e-14 3.1899e-14 3.1899e-14 3.1899e-14 3.1899e-14 -1.24321e-13 -1.24321e-13 -1.24321e-13 -1.24321e-13 -2.31659e-14 -2.31659e-14 -2.31659e-14 -2.31659e-14 -2.41437e-14 -2.41437e-14 -2.41437e-14 -2.41437e-14 -1.03378e-13 -1.03378e-13 -1.03378e-13 -1.03378e-13 -4.86836e-14 -4.86836e-14 -4.86836e-14 -4.86836e-14 -9.18793e-14 -9.18793e-14 -9.18793e-14 -9.18793e-14 -5.04129e-14 -5.04129e-14 -5.04129e-14 -5.04129e-14 -3.03392e-14 -3.03392e-14 -3.03392e-14 -3.03392e-14 -1.63916e-13 -1.63916e-13 -1.63916e-13 -1.63916e-13 -1.03475e-13 -1.03475e-13 -1.03475e-13 -1.03475e-13 -3.44887e-14 -3.44887e-14 -3.44887e-14 -3.44887e-14 -3.00555e-14 -3.00555e-14 -3.00555e-14 -3.00555e-14 8.22492e-14 8.22492e-14 8.22492e-14 8.22492e-14 1.7341e-13 1.7341e-13 1.7341e-13 1.7341e-13 2.64444e-13 2.64444e-13 2.64444e-13 2.64444e-13 2.2896e-13 2.2896e-13 2.2896e-13 2.2896e-13 1.57044e-13 1.57044e-13 1.57044e-13 1.57044e-13 1.62333e-13 1.62333e-13 1.62333e-13 1.62333e-13 1.15668e-13 1.15668e-13 1.15668e-13 1.15668e-13 4.3717e-14 4.3717e-14 4.3717e-14 4.3717e-14 -1.27349e-13 -1.27349e-13 -1.27349e-13 -1.27349e-13 -1.459e-13 -1.459e-13 -1.459e-13 -1.459e-13 1.69321e-13 1.69321e-13 1.69321e-13 1.69321e-13 -2.83362e-14 -2.83362e-14 -2.83362e-14 -2.83362e-14 
SCALARS StressY float 
LOOKUP_TABLE default
1.97427e-14 1.97427e-14 1.97427e-14 1.97427e-14 3.9691e-15 3.9691e-15 3.9691e-15 3.9691e-15 -7.36366e-14 -7.36366e-14 -7.36366e-14 -7.36366e-14 -1.09737e-14 -1.09737e-14 -1.09737e-14 -1.09737e-14 -6.82902e-16 -6.82902e-16 -6.82902e-16 -6.82902e-16 6.34301e-14 6.34301e-14 6.34301e-14 6.34301e-14 2.80762e-14 2.80762e-14 2.80762e-14 2.80762e-14 4.6114e-14 4.6114e-14 4.6114e-14 4.6114e-14 1.04388e-13 1.04388e-13 1.04388e-13 1.04388e-13 -1.6376e-14 -1.6376e-14 -1.6376e-14 -1.6376e-14 -5.31337e-14 -5.31337e-14 -5.31337e-14 -5.31337e-14 2.02528e-13 2.02528e-13 2.02528e-13 2.02528e-13 3.67134e-14 3.67134e-14 3.67134e-14 3.67134e-14 8.12452e-14 8.12452e-14 8.12452e-14 8.12452e-14 9.86237e-16 9.86237e-16 9.86237e-16 9.86237e-16 2.93988e-14 2.93988e-14 2.93988e-14 2.93988e-14 9.51942e-14 9.51942e-14 9.51942e-14 9.51942e-14 5.21827e-14 5.21827e-14 5.21827e-14 5.21827e-14 1.86511e-13 1.86511e-13 1.86511e-13 1.86511e-13 -4.81104e-14 -4.81104e-14 -4.81104e-14 -4.81104e-14 1.15776e-13 1.15776e-13 1.15776e-13 1.15776e-13 -7.40786e-15 -7.40786e-15 -7.40786e-15 -7.40786e-15 4.37029e-14 4.37029e-14 4.37029e-14 4.37029e-14 3.45091e-14 3.45091e-14 3.45091e-14 3.45091e-14 -2.52575e-14 -2.52575e-14 -2.52575e-14 -2.52575e-14 3.42474e-14 3.42474e-14 3.42474e-14 3.42474e-14 9.15692e-14 9.15692e-14 9.15692e-14 9.15692e-14 -1.16113e-14 -1.16113e-14 -1.16113e-14 -1.16113e-14 -3.05625e-14 -3.05625e-14 -3.05625e-14 -3.05625e-14 -1.4575e-13 -1.4575e-13 -1.4575e-13 -1.4575e-13 -8.85596e-14 -8.85596e-14 -8.85596e-14 -8.85596e-14 6.82513e-14 6.82513e-14 6.82513e-14 6.82513e-14 3.39698e-14 3.39698e-14 3.39698e-14 3.39698e-14 -7.95123e-14 -7.95123e-14 -7.95123e-14 -7.95123e-14 -8.07237e-14 -8.07237e-14 -8.07237e-14 -8.07237e-14 -2.18937e-14 -2.18937e-14 -2.18937e-14 -2.18937e-14 -2.03829e-14 -2.03829e-14 -2.03829e-14 -2.03829e-14 5.19174e-14 5.19174e-14 5.19174e-14 5.19174e-14 2.19549e-14 2.19549e-14 2.19549e-14 2.19549e-14 1.01389e-13 1.01389e-13 1.01389e-13 1.01389e-13 1.86647e-13 1.86647e-13 1.86647e-13 1.86647e-13 -7.51493e-14 -7.51493e-14 -7.51493e-14 -7.51493e-14 6.68835e-14 6.68835e-14 6.68835e-14 6.68835e-14 4.49801e-15 4.49801e-15 4.49801e-15 4.49801e-15 -2.98615e-14 -2.98615e-14 -2.98615e-14 -2.98615e-14 -1.95891e-13 -1.95891e-13 -1.95891e-13 -1.95891e-13 -7.45992e-15 -7.45992e-15 -7.45992e-15 -7.45992e-15 6.9251e-15 6.9251e-15 6.9251e-15 6.9251e-15 1.13198e-13 1.13198e-13 1.13198e-13 1.13198e-13 -1.73336e-13 -1.73336e-13 -1.73336e-13 -1.73336e-13 -5.53335e-14 -5.53335e-14 -5.53335e-14 -5.53335e-14 -7.77264e-14 -7.77264e-14 -7.77264e-14 -7.77264e-14 -1.29841e-15 -1.29841e-15 -1.29841e-15 -1.29841e-15 -1.50155e-13 -1.50155e-13 -1.50155e-13 -1.50155e-13 -1.52796e-13 -1.52796e-13 -1.52796e-13 -1.52796e-13 5.60435e-14 5.60435e-14 5.60435e-14 5.60435e-14 4.49717e-14 4.49717e-14 4.49717e-14 4.49717e-14 -7.95899e-14 -7.95899e-14 -7.95899e-14 -7.95899e-14 -4.98046e-14 -4.98046e-14 -4.98046e-14 -4.98046e-14 1.47041e-14 1.47041e-14 1.47041e-14 1.47041e-14 -6.63105e-15 -6.63105e-15 -6.63105e-15 -6.63105e-15 -1.06457e-14 -1.06457e-14 -1.06457e-14 -1.06457e-14 -2.57282e-14 -2.57282e-14 -2.57282e-14 -2.57282e-14 -1.79837e-13 -1.79837e-13 -1.79837e-13 -1.79837e-13 -7.66696e-14 -7.66696e-14 -7.66696e-14 -7.66696e-14 8.71891e-14 8.71891e-14 8.71891e-14 8.71891e-14 -4.05162e-14 -4.05162e-14 -4.05162e-14 -4.05162e-14 2.85844e-14 2.85844e-14 2.85844e-14 2.85844e-14 -3.90818e-14 -3.90818e-14 -3.90818e-14 -3.90818e-14 1.18106e-14 1.18106e-14 1.18106e-14 1.18106e-14 -4.54376e-14 -4.54376e-14 -4.54376e-14 -4.54376e-14 8.32739e-15 8.32739e-15 8.32739e-15 8.32739e-15 9.69273e-14 9.69273e-14 9.69273e-14 9.69273e-14 6.10255e-14 6.10255e-14 6.10255e-14 6.10255e-14 1.25873e-13 1.25873e-13 1.25873e-13 1.25873e-13 -1.24329e-13 -1.24329e-13 -1.24329e-13 -1.24329e-13 7.44307e-15 7.44307e-15 7.44307e-15 7.44307e-15 5.92885e-15 5.92885e-15 5.92885e-15 5.92885e-15 -2.01297e-14 -2.01297e-14 -2.01297e-14 -2.01297e-14 -7.28268e-14 -7.28268e-14 -7.28268e-14 -7.28268e-14 -1.11337e-13 -1.11337e-13 -1.11337e-13 -1.11337e-13 3.00983e-14 3.00983e-14 3.00983e-14 3.00983e-14 -1.25866e-13 -1.25866e-13 -1.25866e-13 -1.25866e-13 -1.23404e-13 -1.23404e-13 -1.23404e-13 -1.23404e-13 -3.13703e-14 -3.13703e-14 -3.13703e-14 -3.13703e-14 1.56978e-14 1.56978e-14 1.56978e-14 1.56978e-14 3.02652e-14 3.02652e-14 3.02652e-14 3.02652e-14 -8.82482e-14 -8.82482e-14 -8.82482e-14 -8.82482e-14 -4.95935e-15 -4.95935e-15 -4.95935e-15 -4.95935e-15 2.11325e-14 2.11325e-14 2.11325e-14 2.11325e-14 -6.18977e-14 -6.18977e-14 -6.18977e-14 -6.18977e-14 9.42103e-16 9.42103e-16 9.42103e-16 9.42103e-16 -5.61135e-14 -5.61135e-14 -5.61135e-14 -5.61135e-14 4.85705e-14 4.85705e-14 4.85705e-14 4.85705e-14 2.84665e-15 2.84665e-15 2.84665e-15 2.84665e-15 3.11731e-14 3.11731e-14 3.11731e-14 3.11731e-14 7.62012e-14 7.62012e-14 7.62012e-14 7.62012e-14 -7.49721e-14 -7.49721e-14 -7.49721e-14 -7.49721e-14 1.15698e-13 1.15698e-13 1.15698e-13 1.15698e-13 5.54043e-14 5.54043e-14 5.54043e-14 5.54043e-14 6.97973e-14 6.97973e-14 6.97973e-14 6.97973e-14 -8.89153e-14 -8.89153e-14 -8.89153e-14 -8.89153e-14 6.777e-14 6.777e-14 6.777e-14 6.777e-14 6.21494e-14 6.21494e-14 6.21494e-14 6.21494e-14 -1.17164e-13 -1.17164e-13 -1.17164e-13 -1.17164e-13 2.58341e-14 2.58341e-14 2.58341e-14 2.58341e-14 -6.69996e-15 -6.69996e-15 -6.69996e-15 -6.69996e-15 1.22715e-14 1.22715e-14 1.22715e-14 1.22715e-14 4.4193e-14 4.4193e-14 4.4193e-14 4.4193e-14 1.70639e-14 1.70639e-14 1.70639e-14 1.70639e-14 -4.37702e-14 -4.37702e-14 -4.37702e-14 -4.37702e-14 5.84944e-14 5.84944e-14 5.84944e-14 5.84944e-14 -7.94616e-14 -7.94616e-14 -7.94616e-14 -7.94616e-14 2.6014e-14 2.6014e-14 2.6014e-14 2.6014e-14 2.79314e-14 2.79314e-14 2.79314e-14 2.79314e-14 7.79948e-14 7.79948e-14 7.79948e-14 7.79948e-14 5.85312e-14 5.85312e-14 5.85312e-14 5.85312e-14 1.67239e-13 1.67239e-13 1.67239e-13 1.67239e-13 1.22806e-13 1.22806e-13 1.22806e-13 1.22806e-13 4.74967e-14 4.74967e-14 4.74967e-14 4.74967e-14 -5.28703e-14 -5.28703e-14 -5.28703e-14 -5.28703e-14 4.25276e-14 4.25276e-14 4.25276e-14 4.25276e-14 3.04968e-14 3.04968e-14 3.04968e-14 3.04968e-14 1.17001e-13 1.17001e-13 1.17001e-13 1.17001e-13 2.79292e-14 2.79292e-14 2.79292e-14 2.79292e-14 -4.87806e-14 -4.87806e-14 -4.87806e-14 -4.87806e-14 4.50517e-14 4.50517e-14 4.50517e-14 4.50517e-14 -1.45793e-13 -1.45793e-13 -1.45793e-13 -1.45793e-13 8.71205e-14 8.71205e-14 8.71205e-14 8.71205e-14 6.66044e-14 6.66044e-14 6.66044e-14 6.66044e-14 -1.40228e-13 -1.40228e-13 -1.40228e-13 -1.40228e-13 -6.88976e-14 -6.88976e-14 -6.88976e-14 -6.88976e-14 -1.62787e-13 -1.62787e-13 -1.62787e-13 -1.62787e-13 1.03817e-13 1.03817e-13 1.03817e-13 1.03817e-13 -8.60393e-14 -8.60393e-14 -8.60393e-14 -8.60393e-14 -8.97871e-14 -8.97871e-14 -8.97871e-14 -8.97871e-14 -1.01252e-13 -1.01252e-13 -1.01252e-13 -1.01252e-13 6.17497e-14 6.17497e-14 6.17497e-14 6.17497e-14 3.73589e-14 3.73589e-14 3.73589e-14 3.73589e-14 -3.63778e-14 -3.63778e-14 -3.63778e-14 -3.63778e-14 2.86575e-14 2.86575e-14 2.86575e-14 2.86575e-14 1.59384e-13 1.59384e-13 1.59384e-13 1.59384e-13 -1.2581e-15 -1.2581e-15 -1.2581e-15 -1.2581e-15 4.8957e-15 4.8957e-15 4.8957e-15 4.8957e-15 -5.42191e-14 -5.42191e-14 -5.42191e-14 -5.42191e-14 -2.06803e-14 -2.06803e-14 -2.06803e-14 -2.06803e-14 2.40575e-15 2.40575e-15 2.40575e-15 2.40575e-15 9.50372e-14 9.50372e-14 9.50372e-14 9.50372e-14 2.03515e-14 2.03515e-14 2.03515e-14 2.03515e-14 1.06605e-13 1.06605e-13 1.06605e-13 1.06605e-13 7.622e-14 7.622e-14 7.622e-14 7.622e-14 -4.40598e-14 -4.40598e-14 -4.40598e-14 -4.40598e-14 2.52484e-14 2.52484e-14 2.52484e-14 2.52484e-14 -1.83111e-14 -1.83111e-14 -1.83111e-14 -1.83111e-14 2.07864e-13 2.07864e-13 2.07864e-13 2.07864e-13 4.67806e-14 4.67806e-14 4.67806e-14 4.67806e-14 7.34616e-14 7.34616e-14 7.34616e-14 7.34616e-14 6.40616e-14 6.40616e-14 6.40616e-14 6.40616e-14 -2.07382e-13 -2.07382e-13 -2.07382e-13 -2.07382e-13 5.20272e-14 5.20272e-14 5.20272e-14 5.20272e-14 1.39992e-14 1.39992e-14 1.39992e-14 1.39992e-14 -7.35754e-14 -7.35754e-14 -7.35754e-14 -7.35754e-14 1.3654e-13 1.3654e-13 1.3654e-13 1.3654e-13 -9.16124e-14 -9.16124e-14 -9.16124e-14 -9.16124e-14 1.28049e-14 1.28049e-14 1.28049e-14 1.28049e-14 6.08753e-14 6.08753e-14 6.08753e-14 6.08753e-14 5.82534e-14 5.82534e-14 5.82534e-14 5.82534e-14 1.63141e-15 1.63141e-15 1.63141e-15 1.63141e-15 9.7709e-15 9.7709e-15 9.7709e-15 9.7709e-15 -8.9598e-15 -8.9598e-15 -8.9598e-15 -8.9598e-15 -5.09285e-14 -5.09285e-14 -5.09285e-14 -5.09285e-14 1.2726e-13 1.2726e-13 1.2726e-13 1.2726e-13 8.75962e-14 8.75962e-14 8.75962e-14 8.75962e-14 9.15075e-14 9.15075e-14 9.15075e-14 9.15075e-14 -3.76773e-17 -3.76773e-17 -3.76773e-17 -3.76773e-17 7.62642e-14 7.62642e-14 7.62642e-14 7.62642e-14 9.6018e-14 9.6018e-14 9.6018e-14 9.6018e-14 -9.80494e-14 -9.80494e-14 -9.80494e-14 -9.80494e-14 -6.4954e-14 -6.4954e-14 -6.4954e-14 -6.4954e-14 6.67826e-15 6.67826e-15 6.67826e-15 6.67826e-15 -4.9944e-14 -4.9944e-14 -4.9944e-14 -4.9944e-14 3.16669e-14 3.16669e-14 3.16669e-14 3.16669e-14 2.86716e-14 2.86716e-14 2.86716e-14 2.86716e-14 -1.37818e-13 -1.37818e-13 -1.37818e-13 -1.37818e-13 -1.38984e-13 -1.38984e-13 -1.38984e-13 -1.38984e-13 7.04124e-14 7.04124e-14 7.04124e-14 7.04124e-14 -2.28962e-14 -2.28962e-14 -2.28962e-14 -2.28962e-14 1.02479e-13 1.02479e-13 1.02479e-13 1.02479e-13 -6.2094e-14 -6.2094e-14 -6.2094e-14 -6.2094e-14 1.52209e-14 1.52209e-14 1.52209e-14 1.52209e-14 -8.63038e-14 -8.63038e-14 -8.63038e-14 -8.63038e-14 5.08023e-14 5.08023e-14 5.08023e-14 5.08023e-14 3.91811e-14 3.91811e-14 3.91811e-14 3.91811e-14 -4.99819e-14 -4.99819e-14 -4.99819e-14 -4.99819e-14 9.03592e-14 9.03592e-14 9.03592e-14 9.03592e-14 7.46883e-14 7.46883e-14 7.46883e-14 7.46883e-14 2.24063e-13 2.24063e-13 2.24063e-13 2.24063e-13 -5.80486e-14 -5.80486e-14 -5.80486e-14 -5.80486e-14 9.02172e-14 9.02172e-14 9.02172e-14 9.02172e-14 -3.97506e-14 -3.97506e-14 -3.97506e-14 -3.97506e-14 -6.03197e-14 -6.03197e-14 -6.03197e-14 -6.03197e-14 2.24326e-14 2.24326e-14 2.24326e-14 2.24326e-14 9.89754e-15 9.89754e-15 9.89754e-15 9.89754e-15 -1.65392e-14 -1.65392e-14 -1.65392e-14 -1.65392e-14 -1.52534e-13 -1.52534e-13 -1.52534e-13 -1.52534e-13 8.87466e-14 8.87466e-14 8.87466e-14 8.87466e-14 -2.36664e-14 -2.36664e-14 -2.36664e-14 -2.36664e-14 -2.24397e-14 -2.24397e-14 -2.24397e-14 -2.24397e-14 -1.15388e-13 -1.15388e-13 -1.15388e-13 -1.15388e-13 2.09598e-14 2.09598e-14 2.09598e-14 2.09598e-14 6.72766e-14 6.72766e-14 6.72766e-14 6.72766e-14 -2.17976e-14 -2.17976e-14 -2.17976e-14 -2.17976e-14 -3.89646e-14 -3.89646e-14 -3.89646e-14 -3.89646e-14 6.86031e-14 6.86031e-14 6.86031e-14 6.86031e-14 -1.12986e-13 -1.12986e-13 -1.12986e-13 -1.12986e-13 9.67209e-14 9.67209e-14 9.67209e-14 9.67209e-14 -1.79417e-13 -1.79417e-13 -1.79417e-13 -1.79417e-13 4.68803e-14 4.68803e-14 4.68803e-14 4.68803e-14 6.58615e-14 6.58615e-14 6.58615e-14 6.58615e-14 -2.65509e-13 -2.65509e-13 -2.65509e-13 -2.65509e-13 5.87752e-15 5.87752e-15 5.87752e-15 5.87752e-15 -1.06621e-13 -1.06621e-13 -1.06621e-13 -1.06621e-13 5.59401e-14 5.59401e-14 5.59401e-14 5.59401e-14 2.03027e-13 2.03027e-13 2.03027e-13 2.03027e-13 -2.934e-14 -2.934e-14 -2.934e-14 -2.934e-14 3.6891e-14 3.6891e-14 3.6891e-14 3.6891e-14 -1.32358e-13 -1.32358e-13 -1.32358e-13 -1.32358e-13 7.2158e-14 7.2158e-14 7.2158e-14 7.2158e-14 -2.11108e-14 -2.11108e-14 -2.11108e-14 -2.11108e-14 1.1515e-13 1.1515e-13 1.1515e-13 1.1515e-13 3.29934e-15 3.29934e-15 3.29934e-15 3.29934e-15 3.46465e-14 3.46465e-14 3.46465e-14 3.46465e-14 1.73078e-13 1.73078e-13 1.73078e-13 1.73078e-13 1.95416e-15 1.95416e-15 1.95416e-15 1.95416e-15 2.588e-14 2.588e-14 2.588e-14 2.588e-14 -6.43057e-14 -6.43057e-14 -6.43057e-14 -6.43057e-14 -8.26234e-14 -8.26234e-14 -8.26234e-14 -8.26234e-14 -7.09695e-14 -7.09695e-14 -7.09695e-14 -7.09695e-14 6.1771e-16 6.1771e-16 6.1771e-16 6.1771e-16 3.27061e-14 3.27061e-14 3.27061e-14 3.27061e-14 -5.9667e-14 -5.9667e-14 -5.9667e-14 -5.9667e-14 2.08483e-13 2.08483e-13 2.08483e-13 2.08483e-13 6.33491e-14 6.33491e-14 6.33491e-14 6.33491e-14 -4.68027e-15 -4.68027e-15 -4.68027e-15 -4.68027e-15 -2.53184e-14 -2.53184e-14 -2.53184e-14 -2.53184e-14 -1.09254e-13 -1.09254e-13 -1.09254e-13 -1.09254e-13 2.12928e-14 2.12928e-14 2.12928e-14 2.12928e-14 5.08743e-14 5.08743e-14 5.08743e-14 5.08743e-14 -5.32226e-14 -5.32226e-14 -5.32226e-14 -5.32226e-14 -3.9216e-14 -3.9216e-14 -3.9216e-14 -3.9216e-14 -2.14094e-13 -2.14094e-13 -2.14094e-13 -2.14094e-13 4.67315e-14 4.67315e-14 4.67315e-14 4.67315e-14 4.29591e-15 4.29591e-15 4.29591e-15 4.29591e-15 -2.42056e-14 -2.42056e-14 -2.42056e-14 -2.42056e-14 -5.83116e-14 -5.83116e-14 -5.83116e-14 -5.83116e-14 5.89672e-15 5.89672e-15 5.89672e-15 5.89672e-15 2.51286e-14 2.51286e-14 2.51286e-14 2.51286e-14 4.00669e-14 4.00669e-14 4.00669e-14 4.00669e-14 1.02708e-13 1.02708e-13 1.02708e-13 1.02708e-13 1.1326e-13 1.1326e-13 1.1326e-13 1.1326e-13 -7.7177e-14 -7.7177e-14 -7.7177e-14 -7.7177e-14 -1.14115e-14 -1.14115e-14 -1.14115e-14 -1.14115e-14 2.80787e-14 2.80787e-14 2.80787e-14 2.80787e-14 -5.4729e-15 -5.4729e-15 -5.4729e-15 -5.4729e-15 -5.45406e-14 -5.45406e-14 -5.45406e-14 -5.45406e-14 7.46926e-15 7.46926e-15 7.46926e-15 7.46926e-15 -1.39005e-13 -1.39005e-13 -1.39005e-13 -1.39005e-13 4.24769e-14 4.24769e-14 4.24769e-14 4.24769e-14 1.42341e-13 1.42341e-13 1.42341e-13 1.42341e-13 2.01834e-13 2.01834e-13 2.01834e-13 2.01834e-13 -3.45749e-14 -3.45749e-14 -3.45749e-14 -3.45749e-14 -2.31453e-13 -2.31453e-13 -2.31453e-13 -2.31453e-13 1.20707e-13 1.20707e-13 1.20707e-13 1.20707e-13 4.31532e-15 4.31532e-15 4.31532e-15 4.31532e-15 2.05924e-14 2.05924e-14 2.05924e-14 2.05924e-14 1.15362e-13 1.15362e-13 1.15362e-13 1.15362e-13 -1.93351e-13 -1.93351e-13 -1.93351e-13 -1.93351e-13 3.52028e-14 3.52028e-14 3.52028e-14 3.52028e-14 -7.3263e-14 -7.3263e-14 -7.3263e-14 -7.3263e-14 -3.89935e-14 -3.89935e-14 -3.89935e-14 -3.89935e-14 -2.55742e-13 -2.55742e-13 -2.55742e-13 -2.55742e-13 8.66334e-14 8.66334e-14 8.66334e-14 8.66334e-14 3.89769e-14 3.89769e-14 3.89769e-14 3.89769e-14 -7.30225e-14 -7.30225e-14 -7.30225e-14 -7.30225e-14 2.28159e-14 2.28159e-14 2.28159e-14 2.28159e-14 2.66268e-14 2.66268e-14 2.66268e-14 2.66268e-14 9.40118e-15 9.40118e-15 9.40118e-15 9.40118e-15 1.73461e-13 1.73461e-13 1.73461e-13 1.73461e-13 4.77979e-14 4.77979e-14 4.77979e-14 4.77979e-14 8.11888e-14 8.11888e-14 8.11888e-14 8.11888e-14 -1.40986e-13 -1.40986e-13 -1.40986e-13 -1.40986e-13 -9.61101e-15 -9.61101e-15 -9.61101e-15 -9.61101e-15 8.65944e-14 8.65944e-14 8.65944e-14 8.65944e-14 2.85676e-14 2.85676e-14 2.85676e-14 2.85676e-14 -6.11943e-14 -6.11943e-14 -6.11943e-14 -6.11943e-14 -1.79225e-15 -1.79225e-15 -1.79225e-15 -1.79225e-15 -8.65189e-14 -8.65189e-14 -8.65189e-14 -8.65189e-14 3.74155e-14 3.74155e-14 3.74155e-14 3.74155e-14 1.34755e-13 1.34755e-13 1.34755e-13 1.34755e-13 3.58275e-15 3.58275e-15 3.58275e-15 3.58275e-15 5.77826e-14 5.77826e-14 5.77826e-14 5.77826e-14 -9.84708e-14 -9.84708e-14 -9.84708e-14 -9.84708e-14 -6.02304e-14 -6.02304e-14 -6.02304e-14 -6.02304e-14 5.46171e-14 5.46171e-14 5.46171e-14 5.46171e-14 -2.85071e-14 -2.85071e-14 -2.85071e-14 -2.85071e-14 3.68396e-14 3.68396e-14 3.68396e-14 3.68396e-14 7.20119e-14 7.20119e-14 7.20119e-14 7.20119e-14 4.14335e-14 4.14335e-14 4.14335e-14 4.14335e-14 -5.3755e-14 -5.3755e-14 -5.3755e-14 -5.3755e-14 -3.99325e-14 -3.99325e-14 -3.99325e-14 -3.99325e-14 -1.22282e-13 -1.22282e-13 -1.22282e-13 -1.22282e-13 -3.47759e-14 -3.47759e-14 -3.47759e-14 -3.47759e-14 -5.90026e-14 -5.90026e-14 -5.90026e-14 -5.90026e-14 6.17383e-14 6.17383e-14 6.17383e-14 6.17383e-14 2.42632e-14 2.42632e-14 2.42632e-14 2.42632e-14 2.81938e-14 2.81938e-14 2.81938e-14 2.81938e-14 -1.35502e-14 -1.35502e-14 -1.35502e-14 -1.35502e-14 -1.23764e-13 -1.23764e-13 -1.23764e-13 -1.23764e-13 2.40371e-14 2.40371e-14 2.40371e-14 2.40371e-14 4.28085e-14 4.28085e-14 4.28085e-14 4.28085e-14 1.29869e-13 1.29869e-13 1.29869e-13 1.29869e-13 -6.20123e-14 -6.20123e-14 -6.20123e-14 -6.20123e-14 -1.37723e-14 -1.37723e-14 -1.37723e-14 -1.37723e-14 2.55711e-14 2.55711e-14 2.55711e-14 2.55711e-14 5.93532e-14 5.93532e-14 5.93532e-14 5.93532e-14 -3.64491e-14 -3.64491e-14 -3.64491e-14 -3.64491e-14 -1.25528e-13 -1.25528e-13 -1.25528e-13 -1.25528e-13 -6.78906e-14 -6.78906e-14 -6.78906e-14 -6.78906e-14 -3.17152e-14 -3.17152e-14 -3.17152e-14 -3.17152e-14 7.34135e-14 7.34135e-14 7.34135e-14 7.34135e-14 2.92972e-14 2.92972e-14 2.92972e-14 2.92972e-14 1.29072e-14 1.29072e-14 1.29072e-14 1.29072e-14 -1.16331e-14 -1.16331e-14 -1.16331e-14 -1.16331e-14 2.18558e-14 2.18558e-14 2.18558e-14 2.18558e-14 -5.66187e-15 -5.66187e-15 -5.66187e-15 -5.66187e-15 8.65571e-14 8.65571e-14 8.65571e-14 8.65571e-14 8.54437e-14 8.54437e-14 8.54437e-14 8.54437e-14 9.45781e-14 9.45781e-14 9.45781e-14 9.45781e-14 -3.5279e-14 -3.5279e-14 -3.5279e-14 -3.5279e-14 -1.90567e-14 -1.90567e-14 -1.90567e-14 -1.90567e-14 -4.63207e-14 -4.63207e-14 -4.63207e-14 -4.63207e-14 1.87612e-13 1.87612e-13 1.87612e-13 1.87612e-13 2.88269e-14 2.88269e-14 2.88269e-14 2.88269e-14 8.14328e-14 8.14328e-14 8.14328e-14 8.14328e-14 -3.88069e-14 -3.88069e-14 -3.88069e-14 -3.88069e-14 4.74359e-14 4.74359e-14 4.74359e-14 4.74359e-14 -5.90887e-15 -5.90887e-15 -5.90887e-15 -5.90887e-15 -1.70891e-14 -1.70891e-14 -1.70891e-14 -1.70891e-14 1.33936e-13 1.33936e-13 1.33936e-13 1.33936e-13 5.5127e-14 5.5127e-14 5.5127e-14 5.5127e-14 -1.0629e-14 -1.0629e-14 -1.0629e-14 -1.0629e-14 -5.93602e-14 -5.93602e-14 -5.93602e-14 -5.93602e-14 2.30702e-15 2.30702e-15 2.30702e-15 2.30702e-15 -2.90492e-14 -2.90492e-14 -2.90492e-14 -2.90492e-14 -2.52535e-14 -2.52535e-14 -2.52535e-14 -2.52535e-14 1.33662e-14 1.33662e-14 1.33662e-14 1.33662e-14 -5.29134e-14 -5.29134e-14 -5.29134e-14 -5.29134e-14 6.64028e-15 6.64028e-15 6.64028e-15 6.64028e-15 -4.04125e-14 -4.04125e-14 -4.04125e-14 -4.04125e-14 -1.02547e-13 -1.02547e-13 -1.02547e-13 -1.02547e-13 -9.45458e-14 -9.45458e-14 -9.45458e-14 -9.45458e-14 9.96012e-15 9.96012e-15 9.96012e-15 9.96012e-15 3.90508e-14 3.90508e-14 3.90508e-14 3.90508e-14 3.99883e-15 3.99883e-15 3.99883e-15 3.99883e-15 9.94427e-15 9.94427e-15 9.94427e-15 9.94427e-15 1.06918e-13 1.06918e-13 1.06918e-13 1.06918e-13 9.47116e-15 9.47116e-15 9.47116e-15 9.47116e-15 -3.86576e-14 -3.86576e-14 -3.86576e-14 -3.86576e-14 3.19896e-14 3.19896e-14 3.19896e-14 3.19896e-14 -4.96256e-14 -4.96256e-14 -4.96256e-14 -4.96256e-14 4.11312e-14 4.11312e-14 4.11312e-14 4.11312e-14 -3.60937e-14 -3.60937e-14 -3.60937e-14 -3.60937e-14 -1.54706e-14 -1.54706e-14 -1.54706e-14 -1.54706e-14 3.95612e-14 3.95612e-14 3.95612e-14 3.95612e-14 -8.30308e-15 -8.30308e-15 -8.30308e-15 -8.30308e-15 8.42362e-14 8.42362e-14 8.42362e-14 8.42362e-14 -8.28837e-14 -8.28837e-14 -8.28837e-14 -8.28837e-14 5.66958e-15 5.66958e-15 5.66958e-15 5.66958e-15 4.62244e-14 4.62244e-14 4.62244e-14 4.62244e-14 7.21159e-14 7.21159e-14 7.21159e-14 7.21159e-14 1.25548e-14 1.25548e-14 1.25548e-14 1.25548e-14 -1.38595e-15 -1.38595e-15 -1.38595e-15 -1.38595e-15 1.06721e-14 1.06721e-14 1.06721e-14 1.06721e-14 -9.88735e-14 -9.88735e-14 -9.88735e-14 -9.88735e-14 -2.98138e-14 -2.98138e-14 -2.98138e-14 -2.98138e-14 -8.09164e-14 -8.09164e-14 -8.09164e-14 -8.09164e-14 1.68269e-14 1.68269e-14 1.68269e-14 1.68269e-14 2.29015e-13 2.29015e-13 2.29015e-13 2.29015e-13 7.01944e-14 7.01944e-14 7.01944e-14 7.01944e-14 -1.73768e-13 -1.73768e-13 -1.73768e-13 -1.73768e-13 9.94747e-15 9.94747e-15 9.94747e-15 9.94747e-15 9.4868e-15 9.4868e-15 9.4868e-15 9.4868e-15 3.5244e-14 3.5244e-14 3.5244e-14 3.5244e-14 -1.45957e-14 -1.45957e-14 -1.45957e-14 -1.45957e-14 3.18745e-14 3.18745e-14 3.18745e-14 3.18745e-14 -1.84943e-14 -1.84943e-14 -1.84943e-14 -1.84943e-14 -2.38154e-14 -2.38154e-14 -2.38154e-14 -2.38154e-14 8.21451e-14 8.21451e-14 8.21451e-14 8.21451e-14 -2.71709e-14 -2.71709e-14 -2.71709e-14 -2.71709e-14 -1.89828e-13 -1.89828e-13 -1.89828e-13 -1.89828e-13 7.98169e-15 7.98169e-15 7.98169e-15 7.98169e-15 2.62577e-15 2.62577e-15 2.62577e-15 2.62577e-15 -4.13933e-14 -4.13933e-14 -4.13933e-14 -4.13933e-14 -4.00246e-14 -4.00246e-14 -4.00246e-14 -4.00246e-14 -3.80431e-13 -3.80431e-13 -3.80431e-13 -3.80431e-13 -2.52767e-14 -2.52767e-14 -2.52767e-14 -2.52767e-14 -4.89837e-14 -4.89837e-14 -4.89837e-14 -4.89837e-14 -3.91097e-14 -3.91097e-14 -3.91097e-14 -3.91097e-14 2.83435e-14 2.83435e-14 2.83435e-14 2.83435e-14 -9.11193e-14 -9.11193e-14 -9.11193e-14 -9.11193e-14 7.71551e-14 7.71551e-14 7.71551e-14 7.71551e-14 3.23858e-14 3.23858e-14 3.23858e-14 3.23858e-14 9.78969e-14 9.78969e-14 9.78969e-14 9.78969e-14 -2.83296e-14 -2.83296e-14 -2.83296e-14 -2.83296e-14 -8.94634e-15 -8.94634e-15 -8.94634e-15 -8.94634e-15 1.0342e-14 1.0342e-14 1.0342e-14 1.0342e-14 -1.88173e-13 -1.88173e-13 -1.88173e-13 -1.88173e-13 -1.28684e-14 -1.28684e-14 -1.28684e-14 -1.28684e-14 -8.12726e-14 -8.12726e-14 -8.12726e-14 -8.12726e-14 1.00796e-13 1.00796e-13 1.00796e-13 1.00796e-13 3.2302e-14 3.2302e-14 3.2302e-14 3.2302e-14 2.85053e-14 2.85053e-14 2.85053e-14 2.85053e-14 3.39645e-15 3.39645e-15 3.39645e-15 3.39645e-15 6.18858e-15 6.18858e-15 6.18858e-15 6.18858e-15 -9.67342e-15 -9.67342e-15 -9.67342e-15 -9.67342e-15 -7.28333e-14 -7.28333e-14 -7.28333e-14 -7.28333e-14 1.2149e-13 1.2149e-13 1.2149e-13 1.2149e-13 -1.40806e-13 -1.40806e-13 -1.40806e-13 -1.40806e-13 -2.39576e-14 -2.39576e-14 -2.39576e-14 -2.39576e-14 -1.29119e-13 -1.29119e-13 -1.29119e-13 -1.29119e-13 1.58747e-15 1.58747e-15 1.58747e-15 1.58747e-15 4.54215e-14 4.54215e-14 4.54215e-14 4.54215e-14 1.07028e-13 1.07028e-13 1.07028e-13 1.07028e-13 2.15607e-14 2.15607e-14 2.15607e-14 2.15607e-14 -4.7586e-14 -4.7586e-14 -4.7586e-14 -4.7586e-14 -1.23872e-13 -1.23872e-13 -1.23872e-13 -1.23872e-13 9.87811e-14 9.87811e-14 9.87811e-14 9.87811e-14 -4.75724e-15 -4.75724e-15 -4.75724e-15 -4.75724e-15 8.55383e-14 8.55383e-14 8.55383e-14 8.55383e-14 -9.22491e-14 -9.22491e-14 -9.22491e-14 -9.22491e-14 1.31574e-13 1.31574e-13 1.31574e-13 1.31574e-13 2.03814e-14 2.03814e-14 2.03814e-14 2.03814e-14 -1.37074e-13 -1.37074e-13 -1.37074e-13 -1.37074e-13 2.11884e-14 2.11884e-14 2.11884e-14 2.11884e-14 -5.33428e-14 -5.33428e-14 -5.33428e-14 -5.33428e-14 1.94803e-14 1.94803e-14 1.94803e-14 1.94803e-14 -1.42831e-13 -1.42831e-13 -1.42831e-13 -1.42831e-13 1.30556e-13 1.30556e-13 1.30556e-13 1.30556e-13 9.86799e-14 9.86799e-14 9.86799e-14 9.86799e-14 9.95702e-14 9.95702e-14 9.95702e-14 9.95702e-14 1.33826e-13 1.33826e-13 1.33826e-13 1.33826e-13 -1.14832e-13 -1.14832e-13 -1.14832e-13 -1.14832e-13 -6.18306e-14 -6.18306e-14 -6.18306e-14 -6.18306e-14 -3.21529e-14 -3.21529e-14 -3.21529e-14 -3.21529e-14 -1.10056e-13 -1.10056e-13 -1.10056e-13 -1.10056e-13 -3.00008e-14 -3.00008e-14 -3.00008e-14 -3.00008e-14 -1.10335e-14 -1.10335e-14 -1.10335e-14 -1.10335e-14 5.16555e-14 5.16555e-14 5.16555e-14 5.16555e-14 -6.79225e-14 -6.79225e-14 -6.79225e-14 -6.79225e-14 5.48951e-14 5.48951e-14 5.48951e-14 5.48951e-14 -1.22914e-13 -1.22914e-13 -1.22914e-13 -1.22914e-13 1.22823e-13 1.22823e-13 1.22823e-13 1.22823e-13 2.65769e-14 2.65769e-14 2.65769e-14 2.65769e-14 -2.46728e-13 -2.46728e-13 -2.46728e-13 -2.46728e-13 -1.83339e-13 -1.83339e-13 -1.83339e-13 -1.83339e-13 -4.75223e-14 -4.75223e-14 -4.75223e-14 -4.75223e-14 3.23745e-14 3.23745e-14 3.23745e-14 3.23745e-14 -4.41794e-14 -4.41794e-14 -4.41794e-14 -4.41794e-14 1.19833e-13 1.19833e-13 1.19833e-13 1.19833e-13 4.84716e-14 4.84716e-14 4.84716e-14 4.84716e-14 -1.30723e-13 -1.30723e-13 -1.30723e-13 -1.30723e-13 4.03182e-15 4.03182e-15 4.03182e-15 4.03182e-15 -1.30377e-14 -1.30377e-14 -1.30377e-14 -1.30377e-14 3.27444e-16 3.27444e-16 3.27444e-16 3.27444e-16 1.05089e-13 1.05089e-13 1.05089e-13 1.05089e-13 -1.14291e-13 -1.14291e-13 -1.14291e-13 -1.14291e-13 8.81072e-15 8.81072e-15 8.81072e-15 8.81072e-15 -1.75127e-14 -1.75127e-14 -1.75127e-14 -1.75127e-14 -3.59394e-14 -3.59394e-14 -3.59394e-14 -3.59394e-14 5.60376e-14 5.60376e-14 5.60376e-14 5.60376e-14 -5.77344e-14 -5.77344e-14 -5.77344e-14 -5.77344e-14 -7.93459e-15 -7.93459e-15 -7.93459e-15 -7.93459e-15 9.23536e-14 9.23536e-14 9.23536e-14 9.23536e-14 -1.32156e-13 -1.32156e-13 -1.32156e-13 -1.32156e-13 -5.11367e-14 -5.11367e-14 -5.11367e-14 -5.11367e-14 2.38107e-14 2.38107e-14 2.38107e-14 2.38107e-14 1.00833e-13 1.00833e-13 1.00833e-13 1.00833e-13 -1.19378e-13 -1.19378e-13 -1.19378e-13 -1.19378e-13 3.14111e-15 3.14111e-15 3.14111e-15 3.14111e-15 -1.6012e-13 -1.6012e-13 -1.6012e-13 -1.6012e-13 1.04153e-13 1.04153e-13 1.04153e-13 1.04153e-13 -1.1998e-14 -1.1998e-14 -1.1998e-14 -1.1998e-14 4.31189e-14 4.31189e-14 4.31189e-14 4.31189e-14 9.27402e-14 9.27402e-14 9.27402e-14 9.27402e-14 -1.00106e-13 -1.00106e-13 -1.00106e-13 -1.00106e-13 2.85822e-13 2.85822e-13 2.85822e-13 2.85822e-13 2.58484e-14 2.58484e-14 2.58484e-14 2.58484e-14 4.12164e-14 4.12164e-14 4.12164e-14 4.12164e-14 3.39912e-14 3.39912e-14 3.39912e-14 3.39912e-14 4.47314e-14 4.47314e-14 4.47314e-14 4.47314e-14 -1.08311e-13 -1.08311e-13 -1.08311e-13 -1.08311e-13 -7.02351e-14 -7.02351e-14 -7.02351e-14 -7.02351e-14 -2.61093e-14 -2.61093e-14 -2.61093e-14 -2.61093e-14 -1.53679e-13 -1.53679e-13 -1.53679e-13 -1.53679e-13 1.98899e-13 1.98899e-13 1.98899e-13 1.98899e-13 -9.78456e-14 -9.78456e-14 -9.78456e-14 -9.78456e-14 -2.70821e-13 -2.70821e-13 -2.70821e-13 -2.70821e-13 3.81455e-14 3.81455e-14 3.81455e-14 3.81455e-14 7.61142e-14 7.61142e-14 7.61142e-14 7.61142e-14 -9.78959e-14 -9.78959e-14 -9.78959e-14 -9.78959e-14 -2.40307e-14 -2.40307e-14 -2.40307e-14 -2.40307e-14 -9.33497e-14 -9.33497e-14 -9.33497e-14 -9.33497e-14 -9.05706e-14 -9.05706e-14 -9.05706e-14 -9.05706e-14 -1.55961e-14 -1.55961e-14 -1.55961e-14 -1.55961e-14 -1.41106e-14 -1.41106e-14 -1.41106e-14 -1.41106e-14 1.56858e-14 1.56858e-14 1.56858e-14 1.56858e-14 -1.12797e-13 -1.12797e-13 -1.12797e-13 -1.12797e-13 3.32838e-14 3.32838e-14 3.32838e-14 3.32838e-14 1.17473e-13 1.17473e-13 1.17473e-13 1.17473e-13 1.12217e-13 1.12217e-13 1.12217e-13 1.12217e-13 -2.6437e-14 -2.6437e-14 -2.6437e-14 -2.6437e-14 -6.33066e-14 -6.33066e-14 -6.33066e-14 -6.33066e-14 5.14011e-14 5.14011e-14 5.14011e-14 5.14011e-14 2.3993e-14 2.3993e-14 2.3993e-14 2.3993e-14 3.43147e-14 3.43147e-14 3.43147e-14 3.43147e-14 -3.10095e-14 -3.10095e-14 -3.10095e-14 -3.10095e-14 -3.55609e-14 -3.55609e-14 -3.55609e-14 -3.55609e-14 2.3708e-14 2.3708e-14 2.3708e-14 2.3708e-14 -2.17385e-14 -2.17385e-14 -2.17385e-14 -2.17385e-14 -1.38668e-13 -1.38668e-13 -1.38668e-13 -1.38668e-13 1.43468e-14 1.43468e-14 1.43468e-14 1.43468e-14 -2.63392e-14 -2.63392e-14 -2.63392e-14 -2.63392e-14 -2.26879e-15 -2.26879e-15 -2.26879e-15 -2.26879e-15 6.88877e-14 6.88877e-14 6.88877e-14 6.88877e-14 4.7995e-14 4.7995e-14 4.7995e-14 4.7995e-14 6.1991e-14 6.1991e-14 6.1991e-14 6.1991e-14 2.01349e-14 2.01349e-14 2.01349e-14 2.01349e-14 2.73928e-14 2.73928e-14 2.73928e-14 2.73928e-14 4.28901e-14 4.28901e-14 4.28901e-14 4.28901e-14 -6.23261e-14 -6.23261e-14 -6.23261e-14 -6.23261e-14 -9.79604e-15 -9.79604e-15 -9.79604e-15 -9.79604e-15 -1.5804e-14 -1.5804e-14 -1.5804e-14 -1.5804e-14 5.94682e-14 5.94682e-14 5.94682e-14 5.94682e-14 2.73118e-14 2.73118e-14 2.73118e-14 2.73118e-14 -3.43167e-14 -3.43167e-14 -3.43167e-14 -3.43167e-14 1.01077e-13 1.01077e-13 1.01077e-13 1.01077e-13 -5.44697e-14 -5.44697e-14 -5.44697e-14 -5.44697e-14 1.08547e-14 1.08547e-14 1.08547e-14 1.08547e-14 -8.71119e-14 -8.71119e-14 -8.71119e-14 -8.71119e-14 5.63617e-14 5.63617e-14 5.63617e-14 5.63617e-14 -5.04869e-14 -5.04869e-14 -5.04869e-14 -5.04869e-14 -2.78499e-14 -2.78499e-14 -2.78499e-14 -2.78499e-14 6.9641e-14 6.9641e-14 6.9641e-14 6.9641e-14 -3.4714e-14 -3.4714e-14 -3.4714e-14 -3.4714e-14 1.57185e-14 1.57185e-14 1.57185e-14 1.57185e-14 -4.99697e-14 -4.99697e-14 -4.99697e-14 -4.99697e-14 2.88012e-14 2.88012e-14 2.88012e-14 2.88012e-14 -2.2119e-13 -2.2119e-13 -2.2119e-13 -2.2119e-13 1.41963e-13 1.41963e-13 1.41963e-13 1.41963e-13 -2.83427e-14 -2.83427e-14 -2.83427e-14 -2.83427e-14 5.13316e-14 5.13316e-14 5.13316e-14 5.13316e-14 -1.84913e-14 -1.84913e-14 -1.84913e-14 -1.84913e-14 -2.85616e-15 -2.85616e-15 -2.85616e-15 -2.85616e-15 -1.98302e-14 -1.98302e-14 -1.98302e-14 -1.98302e-14 4.08421e-14 4.08421e-14 4.08421e-14 4.08421e-14 1.89628e-13 1.89628e-13 1.89628e-13 1.89628e-13 1.25101e-13 1.25101e-13 1.25101e-13 1.25101e-13 2.87948e-14 2.87948e-14 2.87948e-14 2.87948e-14 2.76145e-15 2.76145e-15 2.76145e-15 2.76145e-15 -7.43308e-14 -7.43308e-14 -7.43308e-14 -7.43308e-14 -9.21929e-14 -9.21929e-14 -9.21929e-14 -9.21929e-14 3.55274e-14 3.55274e-14 3.55274e-14 3.55274e-14 1.73762e-15 1.73762e-15 1.73762e-15 1.73762e-15 2.83497e-14 2.83497e-14 2.83497e-14 2.83497e-14 -5.3151e-14 -5.3151e-14 -5.3151e-14 -5.3151e-14 -4.19296e-14 -4.19296e-14 -4.19296e-14 -4.19296e-14 7.11188e-14 7.11188e-14 7.11188e-14 7.11188e-14 4.55294e-14 4.55294e-14 4.55294e-14 4.55294e-14 2.64619e-15 2.64619e-15 2.64619e-15 2.64619e-15 -5.64251e-14 -5.64251e-14 -5.64251e-14 -5.64251e-14 3.16422e-13 3.16422e-13 3.16422e-13 3.16422e-13 -1.2788e-13 -1.2788e-13 -1.2788e-13 -1.2788e-13 -1.05154e-13 -1.05154e-13 -1.05154e-13 -1.05154e-13 -5.4191e-14 -5.4191e-14 -5.4191e-14 -5.4191e-14 8.75268e-14 8.75268e-14 8.75268e-14 8.75268e-14 -1.28816e-13 -1.28816e-13 -1.28816e-13 -1.28816e-13 4.59185e-14 4.59185e-14 4.59185e-14 4.59185e-14 2.55405e-14 2.55405e-14 2.55405e-14 2.55405e-14 -1.08481e-13 -1.08481e-13 -1.08481e-13 -1.08481e-13 -1.66025e-13 -1.66025e-13 -1.66025e-13 -1.66025e-13 8.94696e-16 8.94696e-16 8.94696e-16 8.94696e-16 -6.17545e-14 -6.17545e-14 -6.17545e-14 -6.17545e-14 -2.55708e-15 -2.55708e-15 -2.55708e-15 -2.55708e-15 7.33585e-16 7.33585e-16 7.33585e-16 7.33585e-16 4.14831e-14 4.14831e-14 4.14831e-14 4.14831e-14 1.38143e-14 1.38143e-14 1.38143e-14 1.38143e-14 1.5775e-14 1.5775e-14 1.5775e-14 1.5775e-14 -6.41745e-14 -6.41745e-14 -6.41745e-14 -6.41745e-14 2.2142e-14 2.2142e-14 2.2142e-14 2.2142e-14 1.67414e-14 1.67414e-14 1.67414e-14 1.67414e-14 1.25187e-13 1.25187e-13 1.25187e-13 1.25187e-13 1.05545e-14 1.05545e-14 1.05545e-14 1.05545e-14 -9.22246e-14 -9.22246e-14 -9.22246e-14 -9.22246e-14 -1.33691e-15 -1.33691e-15 -1.33691e-15 -1.33691e-15 -1.69903e-14 -1.69903e-14 -1.69903e-14 -1.69903e-14 1.32137e-14 1.32137e-14 1.32137e-14 1.32137e-14 -7.84099e-14 -7.84099e-14 -7.84099e-14 -7.84099e-14 2.06487e-14 2.06487e-14 2.06487e-14 2.06487e-14 5.24038e-16 5.24038e-16 5.24038e-16 5.24038e-16 9.14859e-14 9.14859e-14 9.14859e-14 9.14859e-14 -1.19207e-15 -1.19207e-15 -1.19207e-15 -1.19207e-15 2.88612e-14 2.88612e-14 2.88612e-14 2.88612e-14 -6.80442e-15 -6.80442e-15 -6.80442e-15 -6.80442e-15 -4.19626e-14 -4.19626e-14 -4.19626e-14 -4.19626e-14 -1.60982e-14 -1.60982e-14 -1.60982e-14 -1.60982e-14 2.51898e-15 2.51898e-15 2.51898e-15 2.51898e-15 -6.55756e-14 -6.55756e-14 -6.55756e-14 -6.55756e-14 3.63672e-14 3.63672e-14 3.63672e-14 3.63672e-14 1.58156e-14 1.58156e-14 1.58156e-14 1.58156e-14 2.37245e-14 2.37245e-14 2.37245e-14 2.37245e-14 -8.38955e-14 -8.38955e-14 -8.38955e-14 -8.38955e-14 -2.17334e-14 -2.17334e-14 -2.17334e-14 -2.17334e-14 -2.13483e-13 -2.13483e-13 -2.13483e-13 -2.13483e-13 3.52416e-14 3.52416e-14 3.52416e-14 3.52416e-14 5.52025e-14 5.52025e-14 5.52025e-14 5.52025e-14 -2.18162e-14 -2.18162e-14 -2.18162e-14 -2.18162e-14 -5.30692e-14 -5.30692e-14 -5.30692e-14 -5.30692e-14 8.49287e-15 8.49287e-15 8.49287e-15 8.49287e-15 -3.68755e-14 -3.68755e-14 -3.68755e-14 -3.68755e-14 3.77946e-14 3.77946e-14 3.77946e-14 3.77946e-14 -3.35165e-14 -3.35165e-14 -3.35165e-14 -3.35165e-14 4.05787e-14 4.05787e-14 4.05787e-14 4.05787e-14 -9.91246e-14 -9.91246e-14 -9.91246e-14 -9.91246e-14 -3.63875e-14 -3.63875e-14 -3.63875e-14 -3.63875e-14 3.89839e-14 3.89839e-14 3.89839e-14 3.89839e-14 1.00257e-13 1.00257e-13 1.00257e-13 1.00257e-13 1.43376e-13 1.43376e-13 1.43376e-13 1.43376e-13 -5.24947e-14 -5.24947e-14 -5.24947e-14 -5.24947e-14 2.47655e-14 2.47655e-14 2.47655e-14 2.47655e-14 3.88219e-14 3.88219e-14 3.88219e-14 3.88219e-14 3.56847e-14 3.56847e-14 3.56847e-14 3.56847e-14 6.91139e-14 6.91139e-14 6.91139e-14 6.91139e-14 -3.85267e-14 -3.85267e-14 -3.85267e-14 -3.85267e-14 -4.33317e-14 -4.33317e-14 -4.33317e-14 -4.33317e-14 1.32083e-13 1.32083e-13 1.32083e-13 1.32083e-13 2.11159e-13 2.11159e-13 2.11159e-13 2.11159e-13 -4.27663e-14 -4.27663e-14 -4.27663e-14 -4.27663e-14 3.23138e-14 3.23138e-14 3.23138e-14 3.23138e-14 2.86972e-14 2.86972e-14 2.86972e-14 2.86972e-14 -4.14597e-14 -4.14597e-14 -4.14597e-14 -4.14597e-14 3.14961e-14 3.14961e-14 3.14961e-14 3.14961e-14 -2.05844e-14 -2.05844e-14 -2.05844e-14 -2.05844e-14 5.42145e-14 5.42145e-14 5.42145e-14 5.42145e-14 -4.94533e-14 -4.94533e-14 -4.94533e-14 -4.94533e-14 2.02451e-13 2.02451e-13 2.02451e-13 2.02451e-13 3.10478e-14 3.10478e-14 3.10478e-14 3.10478e-14 7.87833e-14 7.87833e-14 7.87833e-14 7.87833e-14 -3.00501e-14 -3.00501e-14 -3.00501e-14 -3.00501e-14 -6.53563e-15 -6.53563e-15 -6.53563e-15 -6.53563e-15 5.14655e-14 5.14655e-14 5.14655e-14 5.14655e-14 6.4203e-14 6.4203e-14 6.4203e-14 6.4203e-14 -1.36966e-14 -1.36966e-14 -1.36966e-14 -1.36966e-14 1.99672e-15 1.99672e-15 1.99672e-15 1.99672e-15 1.66623e-14 1.66623e-14 1.66623e-14 1.66623e-14 -7.20919e-14 -7.20919e-14 -7.20919e-14 -7.20919e-14 4.30719e-15 4.30719e-15 4.30719e-15 4.30719e-15 -1.57468e-14 -1.57468e-14 -1.57468e-14 -1.57468e-14 -4.92552e-14 -4.92552e-14 -4.92552e-14 -4.92552e-14 3.95984e-14 3.95984e-14 3.95984e-14 3.95984e-14 1.21213e-13 1.21213e-13 1.21213e-13 1.21213e-13 7.2151e-14 7.2151e-14 7.2151e-14 7.2151e-14 3.24657e-14 3.24657e-14 3.24657e-14 3.24657e-14 -7.7398e-14 -7.7398e-14 -7.7398e-14 -7.7398e-14 2.78496e-14 2.78496e-14 2.78496e-14 2.78496e-14 -1.14025e-14 -1.14025e-14 -1.14025e-14 -1.14025e-14 -5.58308e-14 -5.58308e-14 -5.58308e-14 -5.58308e-14 2.41686e-14 2.41686e-14 2.41686e-14 2.41686e-14 3.67779e-14 3.67779e-14 3.67779e-14 3.67779e-14 -6.64894e-14 -6.64894e-14 -6.64894e-14 -6.64894e-14 -5.46332e-14 -5.46332e-14 -5.46332e-14 -5.46332e-14 8.42829e-15 8.42829e-15 8.42829e-15 8.42829e-15 -4.73116e-15 -4.73116e-15 -4.73116e-15 -4.73116e-15 -8.4941e-14 -8.4941e-14 -8.4941e-14 -8.4941e-14 -3.48986e-14 -3.48986e-14 -3.48986e-14 -3.48986e-14 -3.03514e-14 -3.03514e-14 -3.03514e-14 -3.03514e-14 2.92773e-14 2.92773e-14 2.92773e-14 2.92773e-14 3.5707e-14 3.5707e-14 3.5707e-14 3.5707e-14 1.6858e-14 1.6858e-14 1.6858e-14 1.6858e-14 1.4567e-13 1.4567e-13 1.4567e-13 1.4567e-13 -6.84521e-14 -6.84521e-14 -6.84521e-14 -6.84521e-14 -9.35632e-14 -9.35632e-14 -9.35632e-14 -9.35632e-14 8.4667e-14 8.4667e-14 8.4667e-14 8.4667e-14 4.03239e-14 4.03239e-14 4.03239e-14 4.03239e-14 -4.92779e-14 -4.92779e-14 -4.92779e-14 -4.92779e-14 5.93246e-14 5.93246e-14 5.93246e-14 5.93246e-14 -2.57163e-14 -2.57163e-14 -2.57163e-14 -2.57163e-14 -1.48466e-13 -1.48466e-13 -1.48466e-13 -1.48466e-13 -2.10779e-13 -2.10779e-13 -2.10779e-13 -2.10779e-13 -2.3979e-14 -2.3979e-14 -2.3979e-14 -2.3979e-14 -4.95357e-14 -4.95357e-14 -4.95357e-14 -4.95357e-14 -4.39074e-14 -4.39074e-14 -4.39074e-14 -4.39074e-14 -2.26929e-13 -2.26929e-13 -2.26929e-13 -2.26929e-13 2.39343e-14 2.39343e-14 2.39343e-14 2.39343e-14 3.20252e-14 3.20252e-14 3.20252e-14 3.20252e-14 5.62775e-14 5.62775e-14 5.62775e-14 5.62775e-14 -3.2525e-14 -3.2525e-14 -3.2525e-14 -3.2525e-14 -4.96591e-14 -4.96591e-14 -4.96591e-14 -4.96591e-14 7.39859e-15 7.39859e-15 7.39859e-15 7.39859e-15 -1.58572e-14 -1.58572e-14 -1.58572e-14 -1.58572e-14 -3.4736e-14 -3.4736e-14 -3.4736e-14 -3.4736e-14 4.2328e-14 4.2328e-14 4.2328e-14 4.2328e-14 -3.92439e-14 -3.92439e-14 -3.92439e-14 -3.92439e-14 1.57597e-13 1.57597e-13 1.57597e-13 1.57597e-13 -1.10778e-14 -1.10778e-14 -1.10778e-14 -1.10778e-14 -3.84386e-14 -3.84386e-14 -3.84386e-14 -3.84386e-14 5.85426e-14 5.85426e-14 5.85426e-14 5.85426e-14 -5.16763e-14 -5.16763e-14 -5.16763e-14 -5.16763e-14 -2.67924e-14 -2.67924e-14 -2.67924e-14 -2.67924e-14 0 0 0 0 8.96222e-14 8.96222e-14 8.96222e-14 8.96222e-14 5.86129e-14 5.86129e-14 5.86129e-14 5.86129e-14 -2.51538e-14 -2.51538e-14 -2.51538e-14 -2.51538e-14 -5.6774e-14 -5.6774e-14 -5.6774e-14 -5.6774e-14 -2.03229e-14 -2.03229e-14 -2.03229e-14 -2.03229e-14 -6.46451e-14 -6.46451e-14 -6.46451e-14 -6.46451e-14 -5.59579e-14 -5.59579e-14 -5.59579e-14 -5.59579e-14 1.64548e-14 1.64548e-14 1.64548e-14 1.64548e-14 -2.7002e-14 -2.7002e-14 -2.7002e-14 -2.7002e-14 5.55964e-14 5.55964e-14 5.55964e-14 5.55964e-14 6.09604e-15 6.09604e-15 6.09604e-15 6.09604e-15 -9.38694e-15 -9.38694e-15 -9.38694e-15 -9.38694e-15 9.73402e-14 9.73402e-14 9.73402e-14 9.73402e-14 1.00105e-14 1.00105e-14 1.00105e-14 1.00105e-14 6.39245e-14 6.39245e-14 6.39245e-14 6.39245e-14 -5.61894e-14 -5.61894e-14 -5.61894e-14 -5.61894e-14 3.87522e-14 3.87522e-14 3.87522e-14 3.87522e-14 -1.58994e-13 -1.58994e-13 -1.58994e-13 -1.58994e-13 -1.65355e-13 -1.65355e-13 -1.65355e-13 -1.65355e-13 1.93709e-14 1.93709e-14 1.93709e-14 1.93709e-14 -6.36185e-14 -6.36185e-14 -6.36185e-14 -6.36185e-14 -1.93936e-14 -1.93936e-14 -1.93936e-14 -1.93936e-14 1.93981e-16 1.93981e-16 1.93981e-16 1.93981e-16 8.53229e-14 8.53229e-14 8.53229e-14 8.53229e-14 -1.29659e-14 -1.29659e-14 -1.29659e-14 -1.29659e-14 1.14503e-14 1.14503e-14 1.14503e-14 1.14503e-14 -3.47044e-14 -3.47044e-14 -3.47044e-14 -3.47044e-14 1.0698e-13 1.0698e-13 1.0698e-13 1.0698e-13 6.86104e-14 6.86104e-14 6.86104e-14 6.86104e-14 8.0222e-14 8.0222e-14 8.0222e-14 8.0222e-14 2.44542e-14 2.44542e-14 2.44542e-14 2.44542e-14 -1.08702e-14 -1.08702e-14 -1.08702e-14 -1.08702e-14 8.76035e-15 8.76035e-15 8.76035e-15 8.76035e-15 1.38934e-14 1.38934e-14 1.38934e-14 1.38934e-14 1.18964e-13 1.18964e-13 1.18964e-13 1.18964e-13 4.31235e-15 4.31235e-15 4.31235e-15 4.31235e-15 4.37238e-14 4.37238e-14 4.37238e-14 4.37238e-14 -1.59504e-13 -1.59504e-13 -1.59504e-13 -1.59504e-13 1.06647e-13 1.06647e-13 1.06647e-13 1.06647e-13 -8.43358e-15 -8.43358e-15 -8.43358e-15 -8.43358e-15 -6.77249e-14 -6.77249e-14 -6.77249e-14 -6.77249e-14 -8.44531e-14 -8.44531e-14 -8.44531e-14 -8.44531e-14 -3.59376e-14 -3.59376e-14 -3.59376e-14 -3.59376e-14 5.86514e-14 5.86514e-14 5.86514e-14 5.86514e-14 1.97459e-14 1.97459e-14 1.97459e-14 1.97459e-14 -4.51273e-14 -4.51273e-14 -4.51273e-14 -4.51273e-14 -2.96345e-14 -2.96345e-14 -2.96345e-14 -2.96345e-14 -6.30431e-14 -6.30431e-14 -6.30431e-14 -6.30431e-14 9.49269e-15 9.49269e-15 9.49269e-15 9.49269e-15 3.99147e-14 3.99147e-14 3.99147e-14 3.99147e-14 1.00689e-13 1.00689e-13 1.00689e-13 1.00689e-13 -6.22935e-14 -6.22935e-14 -6.22935e-14 -6.22935e-14 -6.36261e-14 -6.36261e-14 -6.36261e-14 -6.36261e-14 -1.52498e-14 -1.52498e-14 -1.52498e-14 -1.52498e-14 4.68822e-14 4.68822e-14 4.68822e-14 4.68822e-14 -8.92819e-14 -8.92819e-14 -8.92819e-14 -8.92819e-14 -6.10389e-14 -6.10389e-14 -6.10389e-14 -6.10389e-14 -1.1861e-13 -1.1861e-13 -1.1861e-13 -1.1861e-13 1.48507e-14 1.48507e-14 1.48507e-14 1.48507e-14 1.94495e-14 1.94495e-14 1.94495e-14 1.94495e-14 -4.68836e-14 -4.68836e-14 -4.68836e-14 -4.68836e-14 1.10238e-13 1.10238e-13 1.10238e-13 1.10238e-13 4.04361e-14 4.04361e-14 4.04361e-14 4.04361e-14 2.61631e-14 2.61631e-14 2.61631e-14 2.61631e-14 1.00752e-13 1.00752e-13 1.00752e-13 1.00752e-13 -7.27098e-14 -7.27098e-14 -7.27098e-14 -7.27098e-14 1.41897e-14 1.41897e-14 1.41897e-14 1.41897e-14 9.20037e-15 9.20037e-15 9.20037e-15 9.20037e-15 -4.4236e-14 -4.4236e-14 -4.4236e-14 -4.4236e-14 1.53226e-14 1.53226e-14 1.53226e-14 1.53226e-14 -1.78796e-14 -1.78796e-14 -1.78796e-14 -1.78796e-14 -6.28695e-14 -6.28695e-14 -6.28695e-14 -6.28695e-14 -8.05482e-14 -8.05482e-14 -8.05482e-14 -8.05482e-14 4.92566e-14 4.92566e-14 4.92566e-14 4.92566e-14 4.49511e-14 4.49511e-14 4.49511e-14 4.49511e-14 -8.73186e-14 -8.73186e-14 -8.73186e-14 -8.73186e-14 1.02315e-13 1.02315e-13 1.02315e-13 1.02315e-13 -1.36595e-13 -1.36595e-13 -1.36595e-13 -1.36595e-13 3.66348e-15 3.66348e-15 3.66348e-15 3.66348e-15 -1.19096e-14 -1.19096e-14 -1.19096e-14 -1.19096e-14 4.84554e-14 4.84554e-14 4.84554e-14 4.84554e-14 1.1883e-13 1.1883e-13 1.1883e-13 1.1883e-13 3.96713e-14 3.96713e-14 3.96713e-14 3.96713e-14 -1.15659e-13 -1.15659e-13 -1.15659e-13 -1.15659e-13 5.81412e-15 5.81412e-15 5.81412e-15 5.81412e-15 -6.50926e-14 -6.50926e-14 -6.50926e-14 -6.50926e-14 7.13186e-14 7.13186e-14 7.13186e-14 7.13186e-14 7.03338e-14 7.03338e-14 7.03338e-14 7.03338e-14 -1.51332e-14 -1.51332e-14 -1.51332e-14 -1.51332e-14 -1.88448e-14 -1.88448e-14 -1.88448e-14 -1.88448e-14 3.80539e-14 3.80539e-14 3.80539e-14 3.80539e-14 1.32792e-14 1.32792e-14 1.32792e-14 1.32792e-14 -6.90208e-14 -6.90208e-14 -6.90208e-14 -6.90208e-14 2.38845e-14 2.38845e-14 2.38845e-14 2.38845e-14 6.58335e-14 6.58335e-14 6.58335e-14 6.58335e-14 6.26725e-15 6.26725e-15 6.26725e-15 6.26725e-15 -2.15847e-14 -2.15847e-14 -2.15847e-14 -2.15847e-14 4.02481e-14 4.02481e-14 4.02481e-14 4.02481e-14 5.21346e-14 5.21346e-14 5.21346e-14 5.21346e-14 7.80949e-14 7.80949e-14 7.80949e-14 7.80949e-14 4.46775e-14 4.46775e-14 4.46775e-14 4.46775e-14 -5.78013e-14 -5.78013e-14 -5.78013e-14 -5.78013e-14 1.53115e-13 1.53115e-13 1.53115e-13 1.53115e-13 2.8709e-14 2.8709e-14 2.8709e-14 2.8709e-14 -2.28539e-14 -2.28539e-14 -2.28539e-14 -2.28539e-14 4.07052e-14 4.07052e-14 4.07052e-14 4.07052e-14 3.4792e-14 3.4792e-14 3.4792e-14 3.4792e-14 1.15218e-15 1.15218e-15 1.15218e-15 1.15218e-15 -8.321e-14 -8.321e-14 -8.321e-14 -8.321e-14 -2.5645e-14 -2.5645e-14 -2.5645e-14 -2.5645e-14 -4.57184e-14 -4.57184e-14 -4.57184e-14 -4.57184e-14 -3.39598e-14 -3.39598e-14 -3.39598e-14 -3.39598e-14 -1.1994e-15 -1.1994e-15 -1.1994e-15 -1.1994e-15 -7.35023e-14 -7.35023e-14 -7.35023e-14 -7.35023e-14 -1.67923e-15 -1.67923e-15 -1.67923e-15 -1.67923e-15 1.3363e-13 1.3363e-13 1.3363e-13 1.3363e-13 5.12415e-14 5.12415e-14 5.12415e-14 5.12415e-14 1.57445e-15 1.57445e-15 1.57445e-15 1.57445e-15 -7.30466e-14 -7.30466e-14 -7.30466e-14 -7.30466e-14 -5.54522e-14 -5.54522e-14 -5.54522e-14 -5.54522e-14 -1.26981e-14 -1.26981e-14 -1.26981e-14 -1.26981e-14 2.11817e-14 2.11817e-14 2.11817e-14 2.11817e-14 2.36329e-14 2.36329e-14 2.36329e-14 2.36329e-14 6.03816e-15 6.03816e-15 6.03816e-15 6.03816e-15 -5.4712e-14 -5.4712e-14 -5.4712e-14 -5.4712e-14 1.17916e-13 1.17916e-13 1.17916e-13 1.17916e-13 -9.42514e-14 -9.42514e-14 -9.42514e-14 -9.42514e-14 1.20238e-14 1.20238e-14 1.20238e-14 1.20238e-14 1.94323e-14 1.94323e-14 1.94323e-14 1.94323e-14 -7.28477e-14 -7.28477e-14 -7.28477e-14 -7.28477e-14 -4.30248e-14 -4.30248e-14 -4.30248e-14 -4.30248e-14 1.84892e-13 1.84892e-13 1.84892e-13 1.84892e-13 3.77624e-14 3.77624e-14 3.77624e-14 3.77624e-14 -1.5319e-14 -1.5319e-14 -1.5319e-14 -1.5319e-14 3.70571e-14 3.70571e-14 3.70571e-14 3.70571e-14 -3.57853e-14 -3.57853e-14 -3.57853e-14 -3.57853e-14 -9.06783e-14 -9.06783e-14 -9.06783e-14 -9.06783e-14 4.7921e-15 4.7921e-15 4.7921e-15 4.7921e-15 -1.03595e-14 -1.03595e-14 -1.03595e-14 -1.03595e-14 -7.28247e-15 -7.28247e-15 -7.28247e-15 -7.28247e-15 -1.849e-14 -1.849e-14 -1.849e-14 -1.849e-14 9.7504e-15 9.7504e-15 9.7504e-15 9.7504e-15 7.84484e-14 7.84484e-14 7.84484e-14 7.84484e-14 7.50266e-14 7.50266e-14 7.50266e-14 7.50266e-14 3.76799e-14 3.76799e-14 3.76799e-14 3.76799e-14 -2.69732e-15 -2.69732e-15 -2.69732e-15 -2.69732e-15 -1.08615e-14 -1.08615e-14 -1.08615e-14 -1.08615e-14 8.44587e-14 8.44587e-14 8.44587e-14 8.44587e-14 -2.83736e-14 -2.83736e-14 -2.83736e-14 -2.83736e-14 1.94821e-14 1.94821e-14 1.94821e-14 1.94821e-14 -5.75489e-14 -5.75489e-14 -5.75489e-14 -5.75489e-14 -6.43746e-14 -6.43746e-14 -6.43746e-14 -6.43746e-14 4.77922e-14 4.77922e-14 4.77922e-14 4.77922e-14 -1.52939e-14 -1.52939e-14 -1.52939e-14 -1.52939e-14 8.24443e-15 8.24443e-15 8.24443e-15 8.24443e-15 7.63037e-14 7.63037e-14 7.63037e-14 7.63037e-14 -5.63814e-14 -5.63814e-14 -5.63814e-14 -5.63814e-14 7.58491e-14 7.58491e-14 7.58491e-14 7.58491e-14 9.25233e-15 9.25233e-15 9.25233e-15 9.25233e-15 1.07998e-13 1.07998e-13 1.07998e-13 1.07998e-13 1.00722e-13 1.00722e-13 1.00722e-13 1.00722e-13 -8.17152e-14 -8.17152e-14 -8.17152e-14 -8.17152e-14 6.88366e-14 6.88366e-14 6.88366e-14 6.88366e-14 -2.86568e-14 -2.86568e-14 -2.86568e-14 -2.86568e-14 7.3891e-14 7.3891e-14 7.3891e-14 7.3891e-14 8.71105e-14 8.71105e-14 8.71105e-14 8.71105e-14 -2.69554e-14 -2.69554e-14 -2.69554e-14 -2.69554e-14 -2.25238e-15 -2.25238e-15 -2.25238e-15 -2.25238e-15 3.41989e-14 3.41989e-14 3.41989e-14 3.41989e-14 2.90236e-14 2.90236e-14 2.90236e-14 2.90236e-14 -1.91673e-14 -1.91673e-14 -1.91673e-14 -1.91673e-14 -3.9473e-14 -3.9473e-14 -3.9473e-14 -3.9473e-14 -9.52276e-14 -9.52276e-14 -9.52276e-14 -9.52276e-14 1.45372e-13 1.45372e-13 1.45372e-13 1.45372e-13 -1.62578e-13 -1.62578e-13 -1.62578e-13 -1.62578e-13 -4.52105e-15 -4.52105e-15 -4.52105e-15 -4.52105e-15 1.20579e-15 1.20579e-15 1.20579e-15 1.20579e-15 3.71769e-14 3.71769e-14 3.71769e-14 3.71769e-14 -3.5259e-14 -3.5259e-14 -3.5259e-14 -3.5259e-14 3.49708e-14 3.49708e-14 3.49708e-14 3.49708e-14 5.99423e-15 5.99423e-15 5.99423e-15 5.99423e-15 5.99299e-15 5.99299e-15 5.99299e-15 5.99299e-15 -1.56316e-14 -1.56316e-14 -1.56316e-14 -1.56316e-14 -2.21091e-14 -2.21091e-14 -2.21091e-14 -2.21091e-14 2.69827e-14 2.69827e-14 2.69827e-14 2.69827e-14 -1.21951e-13 -1.21951e-13 -1.21951e-13 -1.21951e-13 3.87138e-14 3.87138e-14 3.87138e-14 3.87138e-14 2.54255e-14 2.54255e-14 2.54255e-14 2.54255e-14 -1.01901e-14 -1.01901e-14 -1.01901e-14 -1.01901e-14 -3.00176e-14 -3.00176e-14 -3.00176e-14 -3.00176e-14 -1.71062e-14 -1.71062e-14 -1.71062e-14 -1.71062e-14 1.4838e-13 1.4838e-13 1.4838e-13 1.4838e-13 5.95507e-15 5.95507e-15 5.95507e-15 5.95507e-15 2.43632e-15 2.43632e-15 2.43632e-15 2.43632e-15 -4.18518e-14 -4.18518e-14 -4.18518e-14 -4.18518e-14 3.59674e-14 3.59674e-14 3.59674e-14 3.59674e-14 -1.0604e-13 -1.0604e-13 -1.0604e-13 -1.0604e-13 -9.58394e-14 -9.58394e-14 -9.58394e-14 -9.58394e-14 -1.56257e-14 -1.56257e-14 -1.56257e-14 -1.56257e-14 9.44742e-14 9.44742e-14 9.44742e-14 9.44742e-14 2.74831e-14 2.74831e-14 2.74831e-14 2.74831e-14 1.99745e-15 1.99745e-15 1.99745e-15 1.99745e-15 7.4878e-14 7.4878e-14 7.4878e-14 7.4878e-14 1.34016e-14 1.34016e-14 1.34016e-14 1.34016e-14 -2.35135e-14 -2.35135e-14 -2.35135e-14 -2.35135e-14 -4.00455e-15 -4.00455e-15 -4.00455e-15 -4.00455e-15 1.07582e-13 1.07582e-13 1.07582e-13 1.07582e-13 1.16788e-14 1.16788e-14 1.16788e-14 1.16788e-14 -8.67905e-14 -8.67905e-14 -8.67905e-14 -8.67905e-14 -1.14029e-13 -1.14029e-13 -1.14029e-13 -1.14029e-13 -3.21233e-14 -3.21233e-14 -3.21233e-14 -3.21233e-14 -8.03305e-15 -8.03305e-15 -8.03305e-15 -8.03305e-15 -4.78678e-14 -4.78678e-14 -4.78678e-14 -4.78678e-14 -2.62057e-14 -2.62057e-14 -2.62057e-14 -2.62057e-14 2.9229e-14 2.9229e-14 2.9229e-14 2.9229e-14 6.18666e-14 6.18666e-14 6.18666e-14 6.18666e-14 8.71736e-14 8.71736e-14 8.71736e-14 8.71736e-14 -7.90995e-14 -7.90995e-14 -7.90995e-14 -7.90995e-14 -2.78927e-14 -2.78927e-14 -2.78927e-14 -2.78927e-14 -1.4002e-14 -1.4002e-14 -1.4002e-14 -1.4002e-14 8.30383e-14 8.30383e-14 8.30383e-14 8.30383e-14 1.24005e-13 1.24005e-13 1.24005e-13 1.24005e-13 9.84028e-14 9.84028e-14 9.84028e-14 9.84028e-14 -3.0355e-14 -3.0355e-14 -3.0355e-14 -3.0355e-14 6.19738e-14 6.19738e-14 6.19738e-14 6.19738e-14 1.42134e-14 1.42134e-14 1.42134e-14 1.42134e-14 1.04209e-13 1.04209e-13 1.04209e-13 1.04209e-13 -5.2545e-14 -5.2545e-14 -5.2545e-14 -5.2545e-14 2.44363e-15 2.44363e-15 2.44363e-15 2.44363e-15 -3.9711e-14 -3.9711e-14 -3.9711e-14 -3.9711e-14 2.62924e-14 2.62924e-14 2.62924e-14 2.62924e-14 1.84111e-14 1.84111e-14 1.84111e-14 1.84111e-14 -1.23333e-15 -1.23333e-15 -1.23333e-15 -1.23333e-15 8.41771e-14 8.41771e-14 8.41771e-14 8.41771e-14 -1.97209e-14 -1.97209e-14 -1.97209e-14 -1.97209e-14 -1.02419e-13 -1.02419e-13 -1.02419e-13 -1.02419e-13 -8.71559e-15 -8.71559e-15 -8.71559e-15 -8.71559e-15 -5.01468e-14 -5.01468e-14 -5.01468e-14 -5.01468e-14 -1.84193e-13 -1.84193e-13 -1.84193e-13 -1.84193e-13 1.05868e-13 1.05868e-13 1.05868e-13 1.05868e-13 2.32289e-15 2.32289e-15 2.32289e-15 2.32289e-15 -5.25733e-14 -5.25733e-14 -5.25733e-14 -5.25733e-14 -2.00387e-14 -2.00387e-14 -2.00387e-14 -2.00387e-14 -8.88651e-15 -8.88651e-15 -8.88651e-15 -8.88651e-15 1.52103e-14 1.52103e-14 1.52103e-14 1.52103e-14 5.23061e-14 5.23061e-14 5.23061e-14 5.23061e-14 -5.30121e-14 -5.30121e-14 -5.30121e-14 -5.30121e-14 3.03707e-14 3.03707e-14 3.03707e-14 3.03707e-14 4.65183e-14 4.65183e-14 4.65183e-14 4.65183e-14 1.07151e-13 1.07151e-13 1.07151e-13 1.07151e-13 2.1529e-14 2.1529e-14 2.1529e-14 2.1529e-14 8.4925e-14 8.4925e-14 8.4925e-14 8.4925e-14 3.31366e-14 3.31366e-14 3.31366e-14 3.31366e-14 9.98549e-15 9.98549e-15 9.98549e-15 9.98549e-15 -7.09516e-15 -7.09516e-15 -7.09516e-15 -7.09516e-15 -1.47339e-14 -1.47339e-14 -1.47339e-14 -1.47339e-14 -4.481e-14 -4.481e-14 -4.481e-14 -4.481e-14 7.63568e-14 7.63568e-14 7.63568e-14 7.63568e-14 -1.53679e-14 -1.53679e-14 -1.53679e-14 -1.53679e-14 -2.3832e-14 -2.3832e-14 -2.3832e-14 -2.3832e-14 2.55229e-14 2.55229e-14 2.55229e-14 2.55229e-14 4.52351e-15 4.52351e-15 4.52351e-15 4.52351e-15 -4.18977e-14 -4.18977e-14 -4.18977e-14 -4.18977e-14 2.91228e-14 2.91228e-14 2.91228e-14 2.91228e-14 -6.11265e-14 -6.11265e-14 -6.11265e-14 -6.11265e-14 -7.46461e-15 -7.46461e-15 -7.46461e-15 -7.46461e-15 -2.28525e-14 -2.28525e-14 -2.28525e-14 -2.28525e-14 5.72719e-14 5.72719e-14 5.72719e-14 5.72719e-14 -9.12748e-14 -9.12748e-14 -9.12748e-14 -9.12748e-14 -3.01235e-15 -3.01235e-15 -3.01235e-15 -3.01235e-15 -1.19494e-14 -1.19494e-14 -1.19494e-14 -1.19494e-14 1.32576e-13 1.32576e-13 1.32576e-13 1.32576e-13 -2.9381e-14 -2.9381e-14 -2.9381e-14 -2.9381e-14 -1.19512e-14 -1.19512e-14 -1.19512e-14 -1.19512e-14 5.9146e-15 5.9146e-15 5.9146e-15 5.9146e-15 -5.45662e-15 -5.45662e-15 -5.45662e-15 -5.45662e-15 -9.35866e-16 -9.35866e-16 -9.35866e-16 -9.35866e-16 -5.65102e-15 -5.65102e-15 -5.65102e-15 -5.65102e-15 2.89058e-14 2.89058e-14 2.89058e-14 2.89058e-14 -4.54216e-14 -4.54216e-14 -4.54216e-14 -4.54216e-14 1.27419e-14 1.27419e-14 1.27419e-14 1.27419e-14 2.94961e-14 2.94961e-14 2.94961e-14 2.94961e-14 8.60907e-14 8.60907e-14 8.60907e-14 8.60907e-14 4.02774e-14 4.02774e-14 4.02774e-14 4.02774e-14 -5.24721e-14 -5.24721e-14 -5.24721e-14 -5.24721e-14 -4.87047e-15 -4.87047e-15 -4.87047e-15 -4.87047e-15 1.48044e-14 1.48044e-14 1.48044e-14 1.48044e-14 7.68714e-14 7.68714e-14 7.68714e-14 7.68714e-14 1.92219e-14 1.92219e-14 1.92219e-14 1.92219e-14 4.21162e-14 4.21162e-14 4.21162e-14 4.21162e-14 4.10448e-14 4.10448e-14 4.10448e-14 4.10448e-14 -4.82171e-14 -4.82171e-14 -4.82171e-14 -4.82171e-14 2.07574e-14 2.07574e-14 2.07574e-14 2.07574e-14 2.82342e-14 2.82342e-14 2.82342e-14 2.82342e-14 4.15851e-14 4.15851e-14 4.15851e-14 4.15851e-14 4.24209e-14 4.24209e-14 4.24209e-14 4.24209e-14 1.63325e-14 1.63325e-14 1.63325e-14 1.63325e-14 -2.54472e-15 -2.54472e-15 -2.54472e-15 -2.54472e-15 2.24454e-15 2.24454e-15 2.24454e-15 2.24454e-15 -8.80227e-14 -8.80227e-14 -8.80227e-14 -8.80227e-14 -9.80903e-14 -9.80903e-14 -9.80903e-14 -9.80903e-14 -9.56942e-14 -9.56942e-14 -9.56942e-14 -9.56942e-14 -9.96725e-14 -9.96725e-14 -9.96725e-14 -9.96725e-14 -4.00425e-14 -4.00425e-14 -4.00425e-14 -4.00425e-14 6.872e-14 6.872e-14 6.872e-14 6.872e-14 -4.63657e-14 -4.63657e-14 -4.63657e-14 -4.63657e-14 5.32473e-14 5.32473e-14 5.32473e-14 5.32473e-14 -1.01887e-14 -1.01887e-14 -1.01887e-14 -1.01887e-14 5.12654e-15 5.12654e-15 5.12654e-15 5.12654e-15 -5.16537e-14 -5.16537e-14 -5.16537e-14 -5.16537e-14 1.12733e-13 1.12733e-13 1.12733e-13 1.12733e-13 -1.0325e-13 -1.0325e-13 -1.0325e-13 -1.0325e-13 -1.21248e-13 -1.21248e-13 -1.21248e-13 -1.21248e-13 -8.97266e-14 -8.97266e-14 -8.97266e-14 -8.97266e-14 8.61243e-14 8.61243e-14 8.61243e-14 8.61243e-14 9.4184e-14 9.4184e-14 9.4184e-14 9.4184e-14 -5.08285e-14 -5.08285e-14 -5.08285e-14 -5.08285e-14 -1.31262e-13 -1.31262e-13 -1.31262e-13 -1.31262e-13 -3.35106e-14 -3.35106e-14 -3.35106e-14 -3.35106e-14 4.74786e-14 4.74786e-14 4.74786e-14 4.74786e-14 -8.26778e-14 -8.26778e-14 -8.26778e-14 -8.26778e-14 8.06816e-14 8.06816e-14 8.06816e-14 8.06816e-14 9.0949e-14 9.0949e-14 9.0949e-14 9.0949e-14 -5.8091e-14 -5.8091e-14 -5.8091e-14 -5.8091e-14 -4.574e-14 -4.574e-14 -4.574e-14 -4.574e-14 2.35802e-14 2.35802e-14 2.35802e-14 2.35802e-14 2.05182e-14 2.05182e-14 2.05182e-14 2.05182e-14 -3.12254e-14 -3.12254e-14 -3.12254e-14 -3.12254e-14 7.85166e-14 7.85166e-14 7.85166e-14 7.85166e-14 -1.56294e-13 -1.56294e-13 -1.56294e-13 -1.56294e-13 -2.04015e-13 -2.04015e-13 -2.04015e-13 -2.04015e-13 1.17481e-14 1.17481e-14 1.17481e-14 1.17481e-14 8.96551e-14 8.96551e-14 8.96551e-14 8.96551e-14 1.8432e-14 1.8432e-14 1.8432e-14 1.8432e-14 2.18441e-14 2.18441e-14 2.18441e-14 2.18441e-14 5.13164e-15 5.13164e-15 5.13164e-15 5.13164e-15 1.14951e-13 1.14951e-13 1.14951e-13 1.14951e-13 -4.22543e-14 -4.22543e-14 -4.22543e-14 -4.22543e-14 7.01035e-14 7.01035e-14 7.01035e-14 7.01035e-14 9.93214e-14 9.93214e-14 9.93214e-14 9.93214e-14 -4.54604e-13 -4.54604e-13 -4.54604e-13 -4.54604e-13 8.91773e-14 8.91773e-14 8.91773e-14 8.91773e-14 -7.84086e-15 -7.84086e-15 -7.84086e-15 -7.84086e-15 -3.18684e-14 -3.18684e-14 -3.18684e-14 -3.18684e-14 -9.28555e-14 -9.28555e-14 -9.28555e-14 -9.28555e-14 1.72396e-14 1.72396e-14 1.72396e-14 1.72396e-14 6.39849e-14 6.39849e-14 6.39849e-14 6.39849e-14 1.25928e-13 1.25928e-13 1.25928e-13 1.25928e-13 7.05611e-14 7.05611e-14 7.05611e-14 7.05611e-14 6.7098e-14 6.7098e-14 6.7098e-14 6.7098e-14 -1.12005e-14 -1.12005e-14 -1.12005e-14 -1.12005e-14 6.23774e-14 6.23774e-14 6.23774e-14 6.23774e-14 -2.59208e-14 -2.59208e-14 -2.59208e-14 -2.59208e-14 1.97427e-14 1.97427e-14 1.97427e-14 1.97427e-14 3.9691e-15 3.9691e-15 3.9691e-15 3.9691e-15 -7.36366e-14 -7.36366e-14 -7.36366e-14 -7.36366e-14 -1.09737e-14 -1.09737e-14 -1.09737e-14 -1.09737e-14 -6.82902e-16 -6.82902e-16 -6.82902e-16 -6.82902e-16 4.68664e-14 4.68664e-14 4.68664e-14 4.68664e-14 4.6114e-14 4.6114e-14 4.6114e-14 4.6114e-14 1.04388e-13 1.04388e-13 1.04388e-13 1.04388e-13 -1.6376e-14 -1.6376e-14 -1.6376e-14 -1.6376e-14 -5.31337e-14 -5.31337e-14 -5.31337e-14 -5.31337e-14 2.02528e-13 2.02528e-13 2.02528e-13 2.02528e-13 3.67134e-14 3.67134e-14 3.67134e-14 3.67134e-14 2.25569e-13 2.25569e-13 2.25569e-13 2.25569e-13 9.86237e-16 9.86237e-16 9.86237e-16 9.86237e-16 2.93988e-14 2.93988e-14 2.93988e-14 2.93988e-14 9.51942e-14 9.51942e-14 9.51942e-14 9.51942e-14 5.21827e-14 5.21827e-14 5.21827e-14 5.21827e-14 1.86511e-13 1.86511e-13 1.86511e-13 1.86511e-13 -4.81104e-14 -4.81104e-14 -4.81104e-14 -4.81104e-14 1.15776e-13 1.15776e-13 1.15776e-13 1.15776e-13 -3.39182e-14 -3.39182e-14 -3.39182e-14 -3.39182e-14 9.47283e-14 9.47283e-14 9.47283e-14 9.47283e-14 3.2672e-14 3.2672e-14 3.2672e-14 3.2672e-14 -2.52575e-14 -2.52575e-14 -2.52575e-14 -2.52575e-14 3.42474e-14 3.42474e-14 3.42474e-14 3.42474e-14 9.15692e-14 9.15692e-14 9.15692e-14 9.15692e-14 -1.16113e-14 -1.16113e-14 -1.16113e-14 -1.16113e-14 -3.05625e-14 -3.05625e-14 -3.05625e-14 -3.05625e-14 -1.4575e-13 -1.4575e-13 -1.4575e-13 -1.4575e-13 -7.65491e-14 -7.65491e-14 -7.65491e-14 -7.65491e-14 6.82513e-14 6.82513e-14 6.82513e-14 6.82513e-14 3.39698e-14 3.39698e-14 3.39698e-14 3.39698e-14 -7.95123e-14 -7.95123e-14 -7.95123e-14 -7.95123e-14 -8.07237e-14 -8.07237e-14 -8.07237e-14 -8.07237e-14 -1.84942e-14 -1.84942e-14 -1.84942e-14 -1.84942e-14 -2.03829e-14 -2.03829e-14 -2.03829e-14 -2.03829e-14 5.19174e-14 5.19174e-14 5.19174e-14 5.19174e-14 2.19549e-14 2.19549e-14 2.19549e-14 2.19549e-14 -4.13601e-14 -4.13601e-14 -4.13601e-14 -4.13601e-14 1.86647e-13 1.86647e-13 1.86647e-13 1.86647e-13 -7.51493e-14 -7.51493e-14 -7.51493e-14 -7.51493e-14 6.68835e-14 6.68835e-14 6.68835e-14 6.68835e-14 4.49801e-15 4.49801e-15 4.49801e-15 4.49801e-15 -4.2765e-14 -4.2765e-14 -4.2765e-14 -4.2765e-14 -1.95891e-13 -1.95891e-13 -1.95891e-13 -1.95891e-13 -7.45992e-15 -7.45992e-15 -7.45992e-15 -7.45992e-15 6.9251e-15 6.9251e-15 6.9251e-15 6.9251e-15 1.13198e-13 1.13198e-13 1.13198e-13 1.13198e-13 -1.73336e-13 -1.73336e-13 -1.73336e-13 -1.73336e-13 -5.53335e-14 -5.53335e-14 -5.53335e-14 -5.53335e-14 -7.77264e-14 -7.77264e-14 -7.77264e-14 -7.77264e-14 -3.46244e-15 -3.46244e-15 -3.46244e-15 -3.46244e-15 -1.50155e-13 -1.50155e-13 -1.50155e-13 -1.50155e-13 -1.52796e-13 -1.52796e-13 -1.52796e-13 -1.52796e-13 5.3356e-14 5.3356e-14 5.3356e-14 5.3356e-14 4.49717e-14 4.49717e-14 4.49717e-14 4.49717e-14 -7.95899e-14 -7.95899e-14 -7.95899e-14 -7.95899e-14 -4.98046e-14 -4.98046e-14 -4.98046e-14 -4.98046e-14 -7.35206e-14 -7.35206e-14 -7.35206e-14 -7.35206e-14 -6.63105e-15 -6.63105e-15 -6.63105e-15 -6.63105e-15 -1.06457e-14 -1.06457e-14 -1.06457e-14 -1.06457e-14 1.20666e-13 1.20666e-13 1.20666e-13 1.20666e-13 -1.79837e-13 -1.79837e-13 -1.79837e-13 -1.79837e-13 -3.66842e-14 -3.66842e-14 -3.66842e-14 -3.66842e-14 8.71891e-14 8.71891e-14 8.71891e-14 8.71891e-14 -4.05162e-14 -4.05162e-14 -4.05162e-14 -4.05162e-14 2.85844e-14 2.85844e-14 2.85844e-14 2.85844e-14 -2.93227e-14 -2.93227e-14 -2.93227e-14 -2.93227e-14 1.18106e-14 1.18106e-14 1.18106e-14 1.18106e-14 -4.54376e-14 -4.54376e-14 -4.54376e-14 -4.54376e-14 4.58629e-15 4.58629e-15 4.58629e-15 4.58629e-15 9.69273e-14 9.69273e-14 9.69273e-14 9.69273e-14 6.10255e-14 6.10255e-14 6.10255e-14 6.10255e-14 1.25873e-13 1.25873e-13 1.25873e-13 1.25873e-13 -1.24329e-13 -1.24329e-13 -1.24329e-13 -1.24329e-13 7.44307e-15 7.44307e-15 7.44307e-15 7.44307e-15 -2.01297e-14 -2.01297e-14 -2.01297e-14 -2.01297e-14 -7.28268e-14 -7.28268e-14 -7.28268e-14 -7.28268e-14 -1.11337e-13 -1.11337e-13 -1.11337e-13 -1.11337e-13 3.00983e-14 3.00983e-14 3.00983e-14 3.00983e-14 -1.25866e-13 -1.25866e-13 -1.25866e-13 -1.25866e-13 -1.23404e-13 -1.23404e-13 -1.23404e-13 -1.23404e-13 -2.19155e-13 -2.19155e-13 -2.19155e-13 -2.19155e-13 1.56978e-14 1.56978e-14 1.56978e-14 1.56978e-14 1.34561e-13 1.34561e-13 1.34561e-13 1.34561e-13 -8.82482e-14 -8.82482e-14 -8.82482e-14 -8.82482e-14 -4.95935e-15 -4.95935e-15 -4.95935e-15 -4.95935e-15 2.11325e-14 2.11325e-14 2.11325e-14 2.11325e-14 -6.18977e-14 -6.18977e-14 -6.18977e-14 -6.18977e-14 9.76586e-14 9.76586e-14 9.76586e-14 9.76586e-14 3.08364e-15 3.08364e-15 3.08364e-15 3.08364e-15 -5.61135e-14 -5.61135e-14 -5.61135e-14 -5.61135e-14 2.84665e-15 2.84665e-15 2.84665e-15 2.84665e-15 3.11731e-14 3.11731e-14 3.11731e-14 3.11731e-14 5.87773e-14 5.87773e-14 5.87773e-14 5.87773e-14 -7.40399e-14 -7.40399e-14 -7.40399e-14 -7.40399e-14 1.15698e-13 1.15698e-13 1.15698e-13 1.15698e-13 5.54043e-14 5.54043e-14 5.54043e-14 5.54043e-14 6.97973e-14 6.97973e-14 6.97973e-14 6.97973e-14 6.777e-14 6.777e-14 6.777e-14 6.777e-14 7.39846e-14 7.39846e-14 7.39846e-14 7.39846e-14 -1.17164e-13 -1.17164e-13 -1.17164e-13 -1.17164e-13 2.58341e-14 2.58341e-14 2.58341e-14 2.58341e-14 -1.1822e-14 -1.1822e-14 -1.1822e-14 -1.1822e-14 -6.15187e-14 -6.15187e-14 -6.15187e-14 -6.15187e-14 -8.53197e-14 -8.53197e-14 -8.53197e-14 -8.53197e-14 -4.9401e-14 -4.9401e-14 -4.9401e-14 -4.9401e-14 1.22025e-13 1.22025e-13 1.22025e-13 1.22025e-13 -7.85679e-14 -7.85679e-14 -7.85679e-14 -7.85679e-14 -5.74353e-14 -5.74353e-14 -5.74353e-14 -5.74353e-14 2.79314e-14 2.79314e-14 2.79314e-14 2.79314e-14 7.79948e-14 7.79948e-14 7.79948e-14 7.79948e-14 1.35837e-13 1.35837e-13 1.35837e-13 1.35837e-13 1.67239e-13 1.67239e-13 1.67239e-13 1.67239e-13 1.22806e-13 1.22806e-13 1.22806e-13 1.22806e-13 9.89716e-14 9.89716e-14 9.89716e-14 9.89716e-14 -3.91614e-14 -3.91614e-14 -3.91614e-14 -3.91614e-14 4.25276e-14 4.25276e-14 4.25276e-14 4.25276e-14 2.18362e-14 2.18362e-14 2.18362e-14 2.18362e-14 1.18008e-13 1.18008e-13 1.18008e-13 1.18008e-13 2.79292e-14 2.79292e-14 2.79292e-14 2.79292e-14 -4.87806e-14 -4.87806e-14 -4.87806e-14 -4.87806e-14 -5.47028e-14 -5.47028e-14 -5.47028e-14 -5.47028e-14 8.71205e-14 8.71205e-14 8.71205e-14 8.71205e-14 6.66044e-14 6.66044e-14 6.66044e-14 6.66044e-14 -1.47642e-13 -1.47642e-13 -1.47642e-13 -1.47642e-13 -9.30012e-14 -9.30012e-14 -9.30012e-14 -9.30012e-14 -1.62787e-13 -1.62787e-13 -1.62787e-13 -1.62787e-13 1.15572e-13 1.15572e-13 1.15572e-13 1.15572e-13 -1.95953e-13 -1.95953e-13 -1.95953e-13 -1.95953e-13 -5.14177e-14 -5.14177e-14 -5.14177e-14 -5.14177e-14 -1.01252e-13 -1.01252e-13 -1.01252e-13 -1.01252e-13 1.64257e-14 1.64257e-14 1.64257e-14 1.64257e-14 -3.21764e-14 -3.21764e-14 -3.21764e-14 -3.21764e-14 -1.13798e-14 -1.13798e-14 -1.13798e-14 -1.13798e-14 2.86575e-14 2.86575e-14 2.86575e-14 2.86575e-14 1.59384e-13 1.59384e-13 1.59384e-13 1.59384e-13 -4.77543e-14 -4.77543e-14 -4.77543e-14 -4.77543e-14 4.8957e-15 4.8957e-15 4.8957e-15 4.8957e-15 -5.42191e-14 -5.42191e-14 -5.42191e-14 -5.42191e-14 2.11922e-14 2.11922e-14 2.11922e-14 2.11922e-14 -1.21657e-13 -1.21657e-13 -1.21657e-13 -1.21657e-13 9.50372e-14 9.50372e-14 9.50372e-14 9.50372e-14 1.34457e-13 1.34457e-13 1.34457e-13 1.34457e-13 1.06605e-13 1.06605e-13 1.06605e-13 1.06605e-13 7.622e-14 7.622e-14 7.622e-14 7.622e-14 -4.40598e-14 -4.40598e-14 -4.40598e-14 -4.40598e-14 2.52484e-14 2.52484e-14 2.52484e-14 2.52484e-14 -5.81307e-14 -5.81307e-14 -5.81307e-14 -5.81307e-14 2.13777e-13 2.13777e-13 2.13777e-13 2.13777e-13 4.67806e-14 4.67806e-14 4.67806e-14 4.67806e-14 4.01648e-14 4.01648e-14 4.01648e-14 4.01648e-14 6.40616e-14 6.40616e-14 6.40616e-14 6.40616e-14 -2.07382e-13 -2.07382e-13 -2.07382e-13 -2.07382e-13 1.45817e-13 1.45817e-13 1.45817e-13 1.45817e-13 1.39992e-14 1.39992e-14 1.39992e-14 1.39992e-14 -1.89071e-13 -1.89071e-13 -1.89071e-13 -1.89071e-13 1.95241e-13 1.95241e-13 1.95241e-13 1.95241e-13 -8.23133e-14 -8.23133e-14 -8.23133e-14 -8.23133e-14 1.28049e-14 1.28049e-14 1.28049e-14 1.28049e-14 5.83062e-14 5.83062e-14 5.83062e-14 5.83062e-14 1.34175e-13 1.34175e-13 1.34175e-13 1.34175e-13 1.63141e-15 1.63141e-15 1.63141e-15 1.63141e-15 9.7709e-15 9.7709e-15 9.7709e-15 9.7709e-15 -2.73771e-14 -2.73771e-14 -2.73771e-14 -2.73771e-14 -5.09285e-14 -5.09285e-14 -5.09285e-14 -5.09285e-14 1.2726e-13 1.2726e-13 1.2726e-13 1.2726e-13 4.11742e-13 4.11742e-13 4.11742e-13 4.11742e-13 9.15075e-14 9.15075e-14 9.15075e-14 9.15075e-14 -3.76773e-17 -3.76773e-17 -3.76773e-17 -3.76773e-17 8.59458e-14 8.59458e-14 8.59458e-14 8.59458e-14 5.5415e-15 5.5415e-15 5.5415e-15 5.5415e-15 -1.46746e-13 -1.46746e-13 -1.46746e-13 -1.46746e-13 -6.4954e-14 -6.4954e-14 -6.4954e-14 -6.4954e-14 1.51977e-14 1.51977e-14 1.51977e-14 1.51977e-14 1.539e-13 1.539e-13 1.539e-13 1.539e-13 -1.00932e-13 -1.00932e-13 -1.00932e-13 -1.00932e-13 3.16669e-14 3.16669e-14 3.16669e-14 3.16669e-14 2.86716e-14 2.86716e-14 2.86716e-14 2.86716e-14 -1.37818e-13 -1.37818e-13 -1.37818e-13 -1.37818e-13 -1.38984e-13 -1.38984e-13 -1.38984e-13 -1.38984e-13 3.88476e-13 3.88476e-13 3.88476e-13 3.88476e-13 -2.28962e-14 -2.28962e-14 -2.28962e-14 -2.28962e-14 -2.01239e-14 -2.01239e-14 -2.01239e-14 -2.01239e-14 -3.02189e-14 -3.02189e-14 -3.02189e-14 -3.02189e-14 1.52209e-14 1.52209e-14 1.52209e-14 1.52209e-14 -2.18762e-13 -2.18762e-13 -2.18762e-13 -2.18762e-13 5.08023e-14 5.08023e-14 5.08023e-14 5.08023e-14 1.81423e-14 1.81423e-14 1.81423e-14 1.81423e-14 -4.99819e-14 -4.99819e-14 -4.99819e-14 -4.99819e-14 1.37124e-14 1.37124e-14 1.37124e-14 1.37124e-14 7.46883e-14 7.46883e-14 7.46883e-14 7.46883e-14 2.24063e-13 2.24063e-13 2.24063e-13 2.24063e-13 -5.80486e-14 -5.80486e-14 -5.80486e-14 -5.80486e-14 -9.30676e-14 -9.30676e-14 -9.30676e-14 -9.30676e-14 -5.11151e-14 -5.11151e-14 -5.11151e-14 -5.11151e-14 -6.03197e-14 -6.03197e-14 -6.03197e-14 -6.03197e-14 2.24326e-14 2.24326e-14 2.24326e-14 2.24326e-14 4.69373e-14 4.69373e-14 4.69373e-14 4.69373e-14 -1.65392e-14 -1.65392e-14 -1.65392e-14 -1.65392e-14 -1.47578e-13 -1.47578e-13 -1.47578e-13 -1.47578e-13 5.35441e-14 5.35441e-14 5.35441e-14 5.35441e-14 -2.36664e-14 -2.36664e-14 -2.36664e-14 -2.36664e-14 -2.24397e-14 -2.24397e-14 -2.24397e-14 -2.24397e-14 -1.0911e-13 -1.0911e-13 -1.0911e-13 -1.0911e-13 -7.53097e-14 -7.53097e-14 -7.53097e-14 -7.53097e-14 6.72766e-14 6.72766e-14 6.72766e-14 6.72766e-14 -1.75097e-14 -1.75097e-14 -1.75097e-14 -1.75097e-14 -1.41298e-13 -1.41298e-13 -1.41298e-13 -1.41298e-13 6.86031e-14 6.86031e-14 6.86031e-14 6.86031e-14 -1.12986e-13 -1.12986e-13 -1.12986e-13 -1.12986e-13 7.92073e-14 7.92073e-14 7.92073e-14 7.92073e-14 1.44295e-13 1.44295e-13 1.44295e-13 1.44295e-13 4.68803e-14 4.68803e-14 4.68803e-14 4.68803e-14 -3.19688e-13 -3.19688e-13 -3.19688e-13 -3.19688e-13 6.58615e-14 6.58615e-14 6.58615e-14 6.58615e-14 -2.65509e-13 -2.65509e-13 -2.65509e-13 -2.65509e-13 -3.57446e-14 -3.57446e-14 -3.57446e-14 -3.57446e-14 5.59401e-14 5.59401e-14 5.59401e-14 5.59401e-14 2.03027e-13 2.03027e-13 2.03027e-13 2.03027e-13 -1.33295e-14 -1.33295e-14 -1.33295e-14 -1.33295e-14 1.13553e-13 1.13553e-13 1.13553e-13 1.13553e-13 -1.32358e-13 -1.32358e-13 -1.32358e-13 -1.32358e-13 -3.08024e-15 -3.08024e-15 -3.08024e-15 -3.08024e-15 1.3705e-13 1.3705e-13 1.3705e-13 1.3705e-13 1.1515e-13 1.1515e-13 1.1515e-13 1.1515e-13 7.40746e-14 7.40746e-14 7.40746e-14 7.40746e-14 4.6222e-15 4.6222e-15 4.6222e-15 4.6222e-15 1.73078e-13 1.73078e-13 1.73078e-13 1.73078e-13 4.25713e-14 4.25713e-14 4.25713e-14 4.25713e-14 2.588e-14 2.588e-14 2.588e-14 2.588e-14 -2.81972e-14 -2.81972e-14 -2.81972e-14 -2.81972e-14 -8.26234e-14 -8.26234e-14 -8.26234e-14 -8.26234e-14 1.99046e-13 1.99046e-13 1.99046e-13 1.99046e-13 3.68804e-14 3.68804e-14 3.68804e-14 3.68804e-14 7.6503e-14 7.6503e-14 7.6503e-14 7.6503e-14 -4.44383e-14 -4.44383e-14 -4.44383e-14 -4.44383e-14 2.6713e-13 2.6713e-13 2.6713e-13 2.6713e-13 6.33491e-14 6.33491e-14 6.33491e-14 6.33491e-14 -4.68027e-15 -4.68027e-15 -4.68027e-15 -4.68027e-15 -2.53184e-14 -2.53184e-14 -2.53184e-14 -2.53184e-14 -3.52049e-15 -3.52049e-15 -3.52049e-15 -3.52049e-15 4.29424e-14 4.29424e-14 4.29424e-14 4.29424e-14 5.08743e-14 5.08743e-14 5.08743e-14 5.08743e-14 1.7038e-13 1.7038e-13 1.7038e-13 1.7038e-13 4.7065e-15 4.7065e-15 4.7065e-15 4.7065e-15 -2.14094e-13 -2.14094e-13 -2.14094e-13 -2.14094e-13 7.12846e-14 7.12846e-14 7.12846e-14 7.12846e-14 4.29591e-15 4.29591e-15 4.29591e-15 4.29591e-15 -6.52765e-14 -6.52765e-14 -6.52765e-14 -6.52765e-14 -5.83116e-14 -5.83116e-14 -5.83116e-14 -5.83116e-14 -4.35872e-14 -4.35872e-14 -4.35872e-14 -4.35872e-14 3.23017e-14 3.23017e-14 3.23017e-14 3.23017e-14 4.00669e-14 4.00669e-14 4.00669e-14 4.00669e-14 8.7434e-14 8.7434e-14 8.7434e-14 8.7434e-14 -1.69369e-14 -1.69369e-14 -1.69369e-14 -1.69369e-14 1.03309e-13 1.03309e-13 1.03309e-13 1.03309e-13 -4.574e-14 -4.574e-14 -4.574e-14 -4.574e-14 1.44963e-13 1.44963e-13 1.44963e-13 1.44963e-13 2.80787e-14 2.80787e-14 2.80787e-14 2.80787e-14 -5.4729e-15 -5.4729e-15 -5.4729e-15 -5.4729e-15 -5.55021e-14 -5.55021e-14 -5.55021e-14 -5.55021e-14 2.55338e-14 2.55338e-14 2.55338e-14 2.55338e-14 -1.50496e-13 -1.50496e-13 -1.50496e-13 -1.50496e-13 5.40383e-14 5.40383e-14 5.40383e-14 5.40383e-14 -6.61121e-14 -6.61121e-14 -6.61121e-14 -6.61121e-14 1.42341e-13 1.42341e-13 1.42341e-13 1.42341e-13 2.06659e-13 2.06659e-13 2.06659e-13 2.06659e-13 -5.55589e-14 -5.55589e-14 -5.55589e-14 -5.55589e-14 2.62601e-14 2.62601e-14 2.62601e-14 2.62601e-14 1.20707e-13 1.20707e-13 1.20707e-13 1.20707e-13 8.76181e-14 8.76181e-14 8.76181e-14 8.76181e-14 -2.05888e-13 -2.05888e-13 -2.05888e-13 -2.05888e-13 2.5794e-14 2.5794e-14 2.5794e-14 2.5794e-14 1.15362e-13 1.15362e-13 1.15362e-13 1.15362e-13 -1.93351e-13 -1.93351e-13 -1.93351e-13 -1.93351e-13 3.17276e-14 3.17276e-14 3.17276e-14 3.17276e-14 7.36547e-14 7.36547e-14 7.36547e-14 7.36547e-14 -7.31044e-14 -7.31044e-14 -7.31044e-14 -7.31044e-14 3.97858e-14 3.97858e-14 3.97858e-14 3.97858e-14 -2.76137e-13 -2.76137e-13 -2.76137e-13 -2.76137e-13 8.66334e-14 8.66334e-14 8.66334e-14 8.66334e-14 -4.81326e-14 -4.81326e-14 -4.81326e-14 -4.81326e-14 -8.52771e-14 -8.52771e-14 -8.52771e-14 -8.52771e-14 6.21019e-14 6.21019e-14 6.21019e-14 6.21019e-14 2.66268e-14 2.66268e-14 2.66268e-14 2.66268e-14 -4.86333e-15 -4.86333e-15 -4.86333e-15 -4.86333e-15 1.74932e-13 1.74932e-13 1.74932e-13 1.74932e-13 1.31505e-13 1.31505e-13 1.31505e-13 1.31505e-13 1.98537e-14 1.98537e-14 1.98537e-14 1.98537e-14 1.00001e-13 1.00001e-13 1.00001e-13 1.00001e-13 -1.05812e-13 -1.05812e-13 -1.05812e-13 -1.05812e-13 2.99256e-14 2.99256e-14 2.99256e-14 2.99256e-14 5.84296e-15 5.84296e-15 5.84296e-15 5.84296e-15 -8.65189e-14 -8.65189e-14 -8.65189e-14 -8.65189e-14 1.53262e-13 1.53262e-13 1.53262e-13 1.53262e-13 1.03839e-13 1.03839e-13 1.03839e-13 1.03839e-13 6.1806e-14 6.1806e-14 6.1806e-14 6.1806e-14 5.77826e-14 5.77826e-14 5.77826e-14 5.77826e-14 -9.84708e-14 -9.84708e-14 -9.84708e-14 -9.84708e-14 -7.25312e-14 -7.25312e-14 -7.25312e-14 -7.25312e-14 4.31078e-14 4.31078e-14 4.31078e-14 4.31078e-14 -5.75593e-14 -5.75593e-14 -5.75593e-14 -5.75593e-14 3.68396e-14 3.68396e-14 3.68396e-14 3.68396e-14 7.38718e-14 7.38718e-14 7.38718e-14 7.38718e-14 4.14335e-14 4.14335e-14 4.14335e-14 4.14335e-14 -1.84511e-13 -1.84511e-13 -1.84511e-13 -1.84511e-13 4.25468e-14 4.25468e-14 4.25468e-14 4.25468e-14 -1.23391e-13 -1.23391e-13 -1.23391e-13 -1.23391e-13 -3.02825e-14 -3.02825e-14 -3.02825e-14 -3.02825e-14 -5.90026e-14 -5.90026e-14 -5.90026e-14 -5.90026e-14 9.04318e-14 9.04318e-14 9.04318e-14 9.04318e-14 6.98371e-14 6.98371e-14 6.98371e-14 6.98371e-14 1.10444e-13 1.10444e-13 1.10444e-13 1.10444e-13 -1.35502e-14 -1.35502e-14 -1.35502e-14 -1.35502e-14 -6.18417e-14 -6.18417e-14 -6.18417e-14 -6.18417e-14 3.13569e-15 3.13569e-15 3.13569e-15 3.13569e-15 1.03008e-13 1.03008e-13 1.03008e-13 1.03008e-13 -7.9077e-14 -7.9077e-14 -7.9077e-14 -7.9077e-14 1.57137e-13 1.57137e-13 1.57137e-13 1.57137e-13 -2.189e-14 -2.189e-14 -2.189e-14 -2.189e-14 1.09606e-13 1.09606e-13 1.09606e-13 1.09606e-13 3.81121e-14 3.81121e-14 3.81121e-14 3.81121e-14 -9.02749e-14 -9.02749e-14 -9.02749e-14 -9.02749e-14 -1.7524e-14 -1.7524e-14 -1.7524e-14 -1.7524e-14 4.90493e-14 4.90493e-14 4.90493e-14 4.90493e-14 -3.51519e-14 -3.51519e-14 -3.51519e-14 -3.51519e-14 4.73828e-14 4.73828e-14 4.73828e-14 4.73828e-14 2.92972e-14 2.92972e-14 2.92972e-14 2.92972e-14 2.40842e-16 2.40842e-16 2.40842e-16 2.40842e-16 -8.64565e-14 -8.64565e-14 -8.64565e-14 -8.64565e-14 2.18558e-14 2.18558e-14 2.18558e-14 2.18558e-14 -1.35791e-13 -1.35791e-13 -1.35791e-13 -1.35791e-13 8.65571e-14 8.65571e-14 8.65571e-14 8.65571e-14 7.65692e-14 7.65692e-14 7.65692e-14 7.65692e-14 5.18084e-14 5.18084e-14 5.18084e-14 5.18084e-14 -6.81952e-14 -6.81952e-14 -6.81952e-14 -6.81952e-14 -7.05443e-14 -7.05443e-14 -7.05443e-14 -7.05443e-14 1.87612e-13 1.87612e-13 1.87612e-13 1.87612e-13 7.97614e-14 7.97614e-14 7.97614e-14 7.97614e-14 8.62153e-14 8.62153e-14 8.62153e-14 8.62153e-14 -6.24768e-14 -6.24768e-14 -6.24768e-14 -6.24768e-14 -1.08208e-13 -1.08208e-13 -1.08208e-13 -1.08208e-13 -8.25288e-14 -8.25288e-14 -8.25288e-14 -8.25288e-14 -1.5357e-13 -1.5357e-13 -1.5357e-13 -1.5357e-13 1.33936e-13 1.33936e-13 1.33936e-13 1.33936e-13 3.65593e-14 3.65593e-14 3.65593e-14 3.65593e-14 -1.0629e-14 -1.0629e-14 -1.0629e-14 -1.0629e-14 1.33006e-13 1.33006e-13 1.33006e-13 1.33006e-13 -2.44473e-15 -2.44473e-15 -2.44473e-15 -2.44473e-15 -1.06114e-14 -1.06114e-14 -1.06114e-14 -1.06114e-14 -3.17029e-14 -3.17029e-14 -3.17029e-14 -3.17029e-14 -1.44768e-14 -1.44768e-14 -1.44768e-14 -1.44768e-14 -1.10949e-14 -1.10949e-14 -1.10949e-14 -1.10949e-14 6.49382e-14 6.49382e-14 6.49382e-14 6.49382e-14 -4.04125e-14 -4.04125e-14 -4.04125e-14 -4.04125e-14 -1.02547e-13 -1.02547e-13 -1.02547e-13 -1.02547e-13 -1.52799e-13 -1.52799e-13 -1.52799e-13 -1.52799e-13 3.8491e-14 3.8491e-14 3.8491e-14 3.8491e-14 -8.05177e-14 -8.05177e-14 -8.05177e-14 -8.05177e-14 -6.71281e-14 -6.71281e-14 -6.71281e-14 -6.71281e-14 -8.74129e-14 -8.74129e-14 -8.74129e-14 -8.74129e-14 5.75395e-14 5.75395e-14 5.75395e-14 5.75395e-14 -4.68133e-15 -4.68133e-15 -4.68133e-15 -4.68133e-15 -3.86576e-14 -3.86576e-14 -3.86576e-14 -3.86576e-14 3.19896e-14 3.19896e-14 3.19896e-14 3.19896e-14 -4.96256e-14 -4.96256e-14 -4.96256e-14 -4.96256e-14 -1.78128e-14 -1.78128e-14 -1.78128e-14 -1.78128e-14 -8.15796e-14 -8.15796e-14 -8.15796e-14 -8.15796e-14 -1.54706e-14 -1.54706e-14 -1.54706e-14 -1.54706e-14 6.18915e-14 6.18915e-14 6.18915e-14 6.18915e-14 -5.28295e-14 -5.28295e-14 -5.28295e-14 -5.28295e-14 1.04524e-13 1.04524e-13 1.04524e-13 1.04524e-13 -8.28837e-14 -8.28837e-14 -8.28837e-14 -8.28837e-14 5.66958e-15 5.66958e-15 5.66958e-15 5.66958e-15 4.62244e-14 4.62244e-14 4.62244e-14 4.62244e-14 4.05879e-14 4.05879e-14 4.05879e-14 4.05879e-14 6.54377e-14 6.54377e-14 6.54377e-14 6.54377e-14 -1.38595e-15 -1.38595e-15 -1.38595e-15 -1.38595e-15 -4.04764e-13 -4.04764e-13 -4.04764e-13 -4.04764e-13 -1.20148e-13 -1.20148e-13 -1.20148e-13 -1.20148e-13 4.68252e-14 4.68252e-14 4.68252e-14 4.68252e-14 -9.79378e-15 -9.79378e-15 -9.79378e-15 -9.79378e-15 2.30826e-14 2.30826e-14 2.30826e-14 2.30826e-14 1.01784e-13 1.01784e-13 1.01784e-13 1.01784e-13 9.75953e-14 9.75953e-14 9.75953e-14 9.75953e-14 7.85166e-14 7.85166e-14 7.85166e-14 7.85166e-14 -1.73768e-13 -1.73768e-13 -1.73768e-13 -1.73768e-13 -2.0402e-15 -2.0402e-15 -2.0402e-15 -2.0402e-15 9.59776e-16 9.59776e-16 9.59776e-16 9.59776e-16 2.35336e-15 2.35336e-15 2.35336e-15 2.35336e-15 4.11686e-14 4.11686e-14 4.11686e-14 4.11686e-14 2.21662e-14 2.21662e-14 2.21662e-14 2.21662e-14 1.59682e-14 1.59682e-14 1.59682e-14 1.59682e-14 -8.90578e-14 -8.90578e-14 -8.90578e-14 -8.90578e-14 -3.32988e-14 -3.32988e-14 -3.32988e-14 -3.32988e-14 -1.36471e-16 -1.36471e-16 -1.36471e-16 -1.36471e-16 -1.89828e-13 -1.89828e-13 -1.89828e-13 -1.89828e-13 4.73903e-14 4.73903e-14 4.73903e-14 4.73903e-14 -1.49345e-13 -1.49345e-13 -1.49345e-13 -1.49345e-13 -4.5741e-15 -4.5741e-15 -4.5741e-15 -4.5741e-15 0 0 0 0 -2.58487e-13 -2.58487e-13 -2.58487e-13 -2.58487e-13 -6.38813e-14 -6.38813e-14 -6.38813e-14 -6.38813e-14 -3.32054e-14 -3.32054e-14 -3.32054e-14 -3.32054e-14 -3.91097e-14 -3.91097e-14 -3.91097e-14 -3.91097e-14 4.62163e-14 4.62163e-14 4.62163e-14 4.62163e-14 2.38689e-14 2.38689e-14 2.38689e-14 2.38689e-14 1.26249e-13 1.26249e-13 1.26249e-13 1.26249e-13 7.83608e-14 7.83608e-14 7.83608e-14 7.83608e-14 9.78969e-14 9.78969e-14 9.78969e-14 9.78969e-14 -2.83296e-14 -2.83296e-14 -2.83296e-14 -2.83296e-14 8.15863e-15 8.15863e-15 8.15863e-15 8.15863e-15 1.0342e-14 1.0342e-14 1.0342e-14 1.0342e-14 -3.1466e-13 -3.1466e-13 -3.1466e-13 -3.1466e-13 6.41055e-14 6.41055e-14 6.41055e-14 6.41055e-14 1.42554e-13 1.42554e-13 1.42554e-13 1.42554e-13 1.03967e-13 1.03967e-13 1.03967e-13 1.03967e-13 3.2302e-14 3.2302e-14 3.2302e-14 3.2302e-14 2.84565e-14 2.84565e-14 2.84565e-14 2.84565e-14 3.39645e-15 3.39645e-15 3.39645e-15 3.39645e-15 -5.05825e-14 -5.05825e-14 -5.05825e-14 -5.05825e-14 -9.67342e-15 -9.67342e-15 -9.67342e-15 -9.67342e-15 -7.28333e-14 -7.28333e-14 -7.28333e-14 -7.28333e-14 7.4518e-14 7.4518e-14 7.4518e-14 7.4518e-14 -1.40806e-13 -1.40806e-13 -1.40806e-13 -1.40806e-13 -1.32091e-13 -1.32091e-13 -1.32091e-13 -1.32091e-13 -2.24342e-13 -2.24342e-13 -2.24342e-13 -2.24342e-13 -5.86106e-14 -5.86106e-14 -5.86106e-14 -5.86106e-14 1.55655e-13 1.55655e-13 1.55655e-13 1.55655e-13 1.89265e-13 1.89265e-13 1.89265e-13 1.89265e-13 5.22479e-14 5.22479e-14 5.22479e-14 5.22479e-14 9.78304e-14 9.78304e-14 9.78304e-14 9.78304e-14 -1.33544e-13 -1.33544e-13 -1.33544e-13 -1.33544e-13 9.87811e-14 9.87811e-14 9.87811e-14 9.87811e-14 3.28917e-14 3.28917e-14 3.28917e-14 3.28917e-14 8.55383e-14 8.55383e-14 8.55383e-14 8.55383e-14 -8.39959e-14 -8.39959e-14 -8.39959e-14 -8.39959e-14 1.31431e-13 1.31431e-13 1.31431e-13 1.31431e-13 -2.46231e-14 -2.46231e-14 -2.46231e-14 -2.46231e-14 -1.37074e-13 -1.37074e-13 -1.37074e-13 -1.37074e-13 2.11884e-14 2.11884e-14 2.11884e-14 2.11884e-14 -3.04816e-14 -3.04816e-14 -3.04816e-14 -3.04816e-14 6.72078e-14 6.72078e-14 6.72078e-14 6.72078e-14 -9.72531e-14 -9.72531e-14 -9.72531e-14 -9.72531e-14 1.30556e-13 1.30556e-13 1.30556e-13 1.30556e-13 1.45448e-13 1.45448e-13 1.45448e-13 1.45448e-13 -4.83138e-14 -4.83138e-14 -4.83138e-14 -4.83138e-14 1.30678e-13 1.30678e-13 1.30678e-13 1.30678e-13 -4.08278e-13 -4.08278e-13 -4.08278e-13 -4.08278e-13 -6.05197e-14 -6.05197e-14 -6.05197e-14 -6.05197e-14 -3.92555e-14 -3.92555e-14 -3.92555e-14 -3.92555e-14 -2.22812e-14 -2.22812e-14 -2.22812e-14 -2.22812e-14 -3.00008e-14 -3.00008e-14 -3.00008e-14 -3.00008e-14 -1.10335e-14 -1.10335e-14 -1.10335e-14 -1.10335e-14 8.45199e-15 8.45199e-15 8.45199e-15 8.45199e-15 1.18441e-13 1.18441e-13 1.18441e-13 1.18441e-13 1.92001e-14 1.92001e-14 1.92001e-14 1.92001e-14 1.10103e-14 1.10103e-14 1.10103e-14 1.10103e-14 5.4807e-14 5.4807e-14 5.4807e-14 5.4807e-14 3.20471e-14 3.20471e-14 3.20471e-14 3.20471e-14 -2.99616e-13 -2.99616e-13 -2.99616e-13 -2.99616e-13 -6.54366e-14 -6.54366e-14 -6.54366e-14 -6.54366e-14 1.06022e-13 1.06022e-13 1.06022e-13 1.06022e-13 8.8304e-14 8.8304e-14 8.8304e-14 8.8304e-14 -4.55556e-14 -4.55556e-14 -4.55556e-14 -4.55556e-14 8.51196e-14 8.51196e-14 8.51196e-14 8.51196e-14 4.84716e-14 4.84716e-14 4.84716e-14 4.84716e-14 -7.38735e-14 -7.38735e-14 -7.38735e-14 -7.38735e-14 -5.2475e-14 -5.2475e-14 -5.2475e-14 -5.2475e-14 -7.02256e-14 -7.02256e-14 -7.02256e-14 -7.02256e-14 3.7471e-14 3.7471e-14 3.7471e-14 3.7471e-14 1.05089e-13 1.05089e-13 1.05089e-13 1.05089e-13 -1.72541e-15 -1.72541e-15 -1.72541e-15 -1.72541e-15 -4.79828e-15 -4.79828e-15 -4.79828e-15 -4.79828e-15 -1.31345e-13 -1.31345e-13 -1.31345e-13 -1.31345e-13 -1.68288e-14 -1.68288e-14 -1.68288e-14 -1.68288e-14 7.47989e-14 7.47989e-14 7.47989e-14 7.47989e-14 -1.40094e-13 -1.40094e-13 -1.40094e-13 -1.40094e-13 4.86476e-14 4.86476e-14 4.86476e-14 4.86476e-14 -2.00286e-15 -2.00286e-15 -2.00286e-15 -2.00286e-15 -8.24915e-14 -8.24915e-14 -8.24915e-14 -8.24915e-14 -5.18651e-14 -5.18651e-14 -5.18651e-14 -5.18651e-14 2.48155e-14 2.48155e-14 2.48155e-14 2.48155e-14 5.70949e-15 5.70949e-15 5.70949e-15 5.70949e-15 -1.19378e-13 -1.19378e-13 -1.19378e-13 -1.19378e-13 -7.83682e-14 -7.83682e-14 -7.83682e-14 -7.83682e-14 -1.6012e-13 -1.6012e-13 -1.6012e-13 -1.6012e-13 -3.87508e-14 -3.87508e-14 -3.87508e-14 -3.87508e-14 -2.98656e-14 -2.98656e-14 -2.98656e-14 -2.98656e-14 2.1422e-14 2.1422e-14 2.1422e-14 2.1422e-14 4.60166e-14 4.60166e-14 4.60166e-14 4.60166e-14 3.02116e-13 3.02116e-13 3.02116e-13 3.02116e-13 3.73965e-13 3.73965e-13 3.73965e-13 3.73965e-13 -3.9286e-14 -3.9286e-14 -3.9286e-14 -3.9286e-14 1.17646e-14 1.17646e-14 1.17646e-14 1.17646e-14 9.40834e-14 9.40834e-14 9.40834e-14 9.40834e-14 -3.64703e-14 -3.64703e-14 -3.64703e-14 -3.64703e-14 -7.16365e-14 -7.16365e-14 -7.16365e-14 -7.16365e-14 -7.93736e-14 -7.93736e-14 -7.93736e-14 -7.93736e-14 0 0 0 0 -1.53679e-13 -1.53679e-13 -1.53679e-13 -1.53679e-13 1.82606e-13 1.82606e-13 1.82606e-13 1.82606e-13 -1.02906e-13 -1.02906e-13 -1.02906e-13 -1.02906e-13 -2.24622e-13 -2.24622e-13 -2.24622e-13 -2.24622e-13 3.81455e-14 3.81455e-14 3.81455e-14 3.81455e-14 1.3291e-13 1.3291e-13 1.3291e-13 1.3291e-13 -9.78959e-14 -9.78959e-14 -9.78959e-14 -9.78959e-14 -2.40307e-14 -2.40307e-14 -2.40307e-14 -2.40307e-14 -9.76914e-14 -9.76914e-14 -9.76914e-14 -9.76914e-14 -9.05706e-14 -9.05706e-14 -9.05706e-14 -9.05706e-14 -8.18795e-14 -8.18795e-14 -8.18795e-14 -8.18795e-14 -8.50999e-15 -8.50999e-15 -8.50999e-15 -8.50999e-15 -1.098e-13 -1.098e-13 -1.098e-13 -1.098e-13 -5.2438e-14 -5.2438e-14 -5.2438e-14 -5.2438e-14 -6.03074e-14 -6.03074e-14 -6.03074e-14 -6.03074e-14 1.17473e-13 1.17473e-13 1.17473e-13 1.17473e-13 1.12217e-13 1.12217e-13 1.12217e-13 1.12217e-13 -2.6437e-14 -2.6437e-14 -2.6437e-14 -2.6437e-14 -6.33066e-14 -6.33066e-14 -6.33066e-14 -6.33066e-14 -1.01897e-13 -1.01897e-13 -1.01897e-13 -1.01897e-13 1.41441e-13 1.41441e-13 1.41441e-13 1.41441e-13 -7.64825e-14 -7.64825e-14 -7.64825e-14 -7.64825e-14 2.26448e-14 2.26448e-14 2.26448e-14 2.26448e-14 -4.64419e-15 -4.64419e-15 -4.64419e-15 -4.64419e-15 -6.93726e-14 -6.93726e-14 -6.93726e-14 -6.93726e-14 -2.86181e-15 -2.86181e-15 -2.86181e-15 -2.86181e-15 -1.38668e-13 -1.38668e-13 -1.38668e-13 -1.38668e-13 -3.27699e-14 -3.27699e-14 -3.27699e-14 -3.27699e-14 -2.65736e-14 -2.65736e-14 -2.65736e-14 -2.65736e-14 1.99846e-14 1.99846e-14 1.99846e-14 1.99846e-14 2.64406e-13 2.64406e-13 2.64406e-13 2.64406e-13 6.65339e-14 6.65339e-14 6.65339e-14 6.65339e-14 5.11739e-14 5.11739e-14 5.11739e-14 5.11739e-14 1.38844e-13 1.38844e-13 1.38844e-13 1.38844e-13 -9.60119e-15 -9.60119e-15 -9.60119e-15 -9.60119e-15 4.56356e-14 4.56356e-14 4.56356e-14 4.56356e-14 3.51956e-14 3.51956e-14 3.51956e-14 3.51956e-14 5.00313e-14 5.00313e-14 5.00313e-14 5.00313e-14 -4.81911e-14 -4.81911e-14 -4.81911e-14 -4.81911e-14 -5.87911e-14 -5.87911e-14 -5.87911e-14 -5.87911e-14 2.73118e-14 2.73118e-14 2.73118e-14 2.73118e-14 7.2242e-15 7.2242e-15 7.2242e-15 7.2242e-15 1.01077e-13 1.01077e-13 1.01077e-13 1.01077e-13 -1.07339e-13 -1.07339e-13 -1.07339e-13 -1.07339e-13 9.33383e-14 9.33383e-14 9.33383e-14 9.33383e-14 -8.71119e-14 -8.71119e-14 -8.71119e-14 -8.71119e-14 8.4515e-14 8.4515e-14 8.4515e-14 8.4515e-14 -1.20253e-13 -1.20253e-13 -1.20253e-13 -1.20253e-13 -2.53988e-14 -2.53988e-14 -2.53988e-14 -2.53988e-14 8.82852e-14 8.82852e-14 8.82852e-14 8.82852e-14 -3.28039e-14 -3.28039e-14 -3.28039e-14 -3.28039e-14 1.57185e-14 1.57185e-14 1.57185e-14 1.57185e-14 -2.26842e-14 -2.26842e-14 -2.26842e-14 -2.26842e-14 5.63098e-14 5.63098e-14 5.63098e-14 5.63098e-14 -2.2807e-13 -2.2807e-13 -2.2807e-13 -2.2807e-13 1.41963e-13 1.41963e-13 1.41963e-13 1.41963e-13 -1.02528e-14 -1.02528e-14 -1.02528e-14 -1.02528e-14 -3.06303e-14 -3.06303e-14 -3.06303e-14 -3.06303e-14 -5.3316e-14 -5.3316e-14 -5.3316e-14 -5.3316e-14 -6.1348e-14 -6.1348e-14 -6.1348e-14 -6.1348e-14 6.32554e-14 6.32554e-14 6.32554e-14 6.32554e-14 7.6013e-14 7.6013e-14 7.6013e-14 7.6013e-14 2.10424e-13 2.10424e-13 2.10424e-13 2.10424e-13 1.40166e-13 1.40166e-13 1.40166e-13 1.40166e-13 2.87948e-14 2.87948e-14 2.87948e-14 2.87948e-14 1.12895e-14 1.12895e-14 1.12895e-14 1.12895e-14 -5.97835e-15 -5.97835e-15 -5.97835e-15 -5.97835e-15 3.06992e-14 3.06992e-14 3.06992e-14 3.06992e-14 2.01927e-14 2.01927e-14 2.01927e-14 2.01927e-14 7.06852e-14 7.06852e-14 7.06852e-14 7.06852e-14 2.73652e-14 2.73652e-14 2.73652e-14 2.73652e-14 5.74803e-14 5.74803e-14 5.74803e-14 5.74803e-14 -1.17703e-13 -1.17703e-13 -1.17703e-13 -1.17703e-13 -1.29835e-13 -1.29835e-13 -1.29835e-13 -1.29835e-13 -6.52461e-16 -6.52461e-16 -6.52461e-16 -6.52461e-16 2.64619e-15 2.64619e-15 2.64619e-15 2.64619e-15 -1.01894e-13 -1.01894e-13 -1.01894e-13 -1.01894e-13 2.21969e-13 2.21969e-13 2.21969e-13 2.21969e-13 -1.2788e-13 -1.2788e-13 -1.2788e-13 -1.2788e-13 -5.39834e-14 -5.39834e-14 -5.39834e-14 -5.39834e-14 1.9282e-14 1.9282e-14 1.9282e-14 1.9282e-14 4.8425e-14 4.8425e-14 4.8425e-14 4.8425e-14 -2.82247e-14 -2.82247e-14 -2.82247e-14 -2.82247e-14 3.13147e-14 3.13147e-14 3.13147e-14 3.13147e-14 -2.67623e-14 -2.67623e-14 -2.67623e-14 -2.67623e-14 -1.08481e-13 -1.08481e-13 -1.08481e-13 -1.08481e-13 -1.66025e-13 -1.66025e-13 -1.66025e-13 -1.66025e-13 -4.54725e-14 -4.54725e-14 -4.54725e-14 -4.54725e-14 -6.12745e-14 -6.12745e-14 -6.12745e-14 -6.12745e-14 -5.56279e-14 -5.56279e-14 -5.56279e-14 -5.56279e-14 1.55579e-13 1.55579e-13 1.55579e-13 1.55579e-13 4.14831e-14 4.14831e-14 4.14831e-14 4.14831e-14 -2.05204e-14 -2.05204e-14 -2.05204e-14 -2.05204e-14 1.5775e-14 1.5775e-14 1.5775e-14 1.5775e-14 -5.63844e-14 -5.63844e-14 -5.63844e-14 -5.63844e-14 2.2142e-14 2.2142e-14 2.2142e-14 2.2142e-14 8.23561e-14 8.23561e-14 8.23561e-14 8.23561e-14 1.25187e-13 1.25187e-13 1.25187e-13 1.25187e-13 7.65181e-14 7.65181e-14 7.65181e-14 7.65181e-14 -2.7695e-13 -2.7695e-13 -2.7695e-13 -2.7695e-13 7.97298e-14 7.97298e-14 7.97298e-14 7.97298e-14 -3.53594e-14 -3.53594e-14 -3.53594e-14 -3.53594e-14 1.32137e-14 1.32137e-14 1.32137e-14 1.32137e-14 -8.10624e-14 -8.10624e-14 -8.10624e-14 -8.10624e-14 -5.37103e-14 -5.37103e-14 -5.37103e-14 -5.37103e-14 7.34325e-14 7.34325e-14 7.34325e-14 7.34325e-14 6.59633e-14 6.59633e-14 6.59633e-14 6.59633e-14 -7.69743e-14 -7.69743e-14 -7.69743e-14 -7.69743e-14 -1.30756e-13 -1.30756e-13 -1.30756e-13 -1.30756e-13 -5.25457e-14 -5.25457e-14 -5.25457e-14 -5.25457e-14 -1.76987e-14 -1.76987e-14 -1.76987e-14 -1.76987e-14 -1.47452e-14 -1.47452e-14 -1.47452e-14 -1.47452e-14 4.91611e-14 4.91611e-14 4.91611e-14 4.91611e-14 1.27518e-13 1.27518e-13 1.27518e-13 1.27518e-13 -2.03147e-13 -2.03147e-13 -2.03147e-13 -2.03147e-13 4.90494e-14 4.90494e-14 4.90494e-14 4.90494e-14 0 0 0 0 -8.38955e-14 -8.38955e-14 -8.38955e-14 -8.38955e-14 -2.13483e-13 -2.13483e-13 -2.13483e-13 -2.13483e-13 1.47828e-14 1.47828e-14 1.47828e-14 1.47828e-14 3.52416e-14 3.52416e-14 3.52416e-14 3.52416e-14 -1.48929e-13 -1.48929e-13 -1.48929e-13 -1.48929e-13 -6.54383e-14 -6.54383e-14 -6.54383e-14 -6.54383e-14 5.30692e-14 5.30692e-14 5.30692e-14 5.30692e-14 -2.95034e-14 -2.95034e-14 -2.95034e-14 -2.95034e-14 -3.68755e-14 -3.68755e-14 -3.68755e-14 -3.68755e-14 -1.17894e-13 -1.17894e-13 -1.17894e-13 -1.17894e-13 -2.06887e-13 -2.06887e-13 -2.06887e-13 -2.06887e-13 -9.91246e-14 -9.91246e-14 -9.91246e-14 -9.91246e-14 4.05787e-14 4.05787e-14 4.05787e-14 4.05787e-14 -1.50161e-13 -1.50161e-13 -1.50161e-13 -1.50161e-13 2.0049e-14 2.0049e-14 2.0049e-14 2.0049e-14 6.4792e-14 6.4792e-14 6.4792e-14 6.4792e-14 1.43376e-13 1.43376e-13 1.43376e-13 1.43376e-13 -5.24947e-14 -5.24947e-14 -5.24947e-14 -5.24947e-14 5.96932e-14 5.96932e-14 5.96932e-14 5.96932e-14 -3.16198e-14 -3.16198e-14 -3.16198e-14 -3.16198e-14 9.37248e-14 9.37248e-14 9.37248e-14 9.37248e-14 -7.32531e-14 -7.32531e-14 -7.32531e-14 -7.32531e-14 -7.00943e-14 -7.00943e-14 -7.00943e-14 -7.00943e-14 -4.33317e-14 -4.33317e-14 -4.33317e-14 -4.33317e-14 1.32083e-13 1.32083e-13 1.32083e-13 1.32083e-13 2.11159e-13 2.11159e-13 2.11159e-13 2.11159e-13 0 0 0 0 3.23138e-14 3.23138e-14 3.23138e-14 3.23138e-14 1.34572e-13 1.34572e-13 1.34572e-13 1.34572e-13 2.4121e-14 2.4121e-14 2.4121e-14 2.4121e-14 1.04083e-13 1.04083e-13 1.04083e-13 1.04083e-13 1.0897e-13 1.0897e-13 1.0897e-13 1.0897e-13 5.42145e-14 5.42145e-14 5.42145e-14 5.42145e-14 -2.211e-14 -2.211e-14 -2.211e-14 -2.211e-14 2.02451e-13 2.02451e-13 2.02451e-13 2.02451e-13 3.10478e-14 3.10478e-14 3.10478e-14 3.10478e-14 7.87833e-14 7.87833e-14 7.87833e-14 7.87833e-14 2.41236e-15 2.41236e-15 2.41236e-15 2.41236e-15 -6.53563e-15 -6.53563e-15 -6.53563e-15 -6.53563e-15 5.14655e-14 5.14655e-14 5.14655e-14 5.14655e-14 1.01275e-13 1.01275e-13 1.01275e-13 1.01275e-13 -1.36966e-14 -1.36966e-14 -1.36966e-14 -1.36966e-14 1.99672e-15 1.99672e-15 1.99672e-15 1.99672e-15 1.58035e-14 1.58035e-14 1.58035e-14 1.58035e-14 -1.25876e-13 -1.25876e-13 -1.25876e-13 -1.25876e-13 1.05988e-14 1.05988e-14 1.05988e-14 1.05988e-14 -1.57468e-14 -1.57468e-14 -1.57468e-14 -1.57468e-14 -4.6527e-14 -4.6527e-14 -4.6527e-14 -4.6527e-14 -2.19498e-14 -2.19498e-14 -2.19498e-14 -2.19498e-14 1.84205e-13 1.84205e-13 1.84205e-13 1.84205e-13 2.97442e-14 2.97442e-14 2.97442e-14 2.97442e-14 3.24657e-14 3.24657e-14 3.24657e-14 3.24657e-14 1.13147e-13 1.13147e-13 1.13147e-13 1.13147e-13 -8.56932e-14 -8.56932e-14 -8.56932e-14 -8.56932e-14 1.14151e-13 1.14151e-13 1.14151e-13 1.14151e-13 -1.57993e-13 -1.57993e-13 -1.57993e-13 -1.57993e-13 1.13871e-13 1.13871e-13 1.13871e-13 1.13871e-13 4.35596e-14 4.35596e-14 4.35596e-14 4.35596e-14 -6.64894e-14 -6.64894e-14 -6.64894e-14 -6.64894e-14 -3.54791e-14 -3.54791e-14 -3.54791e-14 -3.54791e-14 -4.73061e-14 -4.73061e-14 -4.73061e-14 -4.73061e-14 7.57215e-14 7.57215e-14 7.57215e-14 7.57215e-14 3.19716e-14 3.19716e-14 3.19716e-14 3.19716e-14 -8.4941e-14 -8.4941e-14 -8.4941e-14 -8.4941e-14 -1.30595e-14 -1.30595e-14 -1.30595e-14 -1.30595e-14 -3.03514e-14 -3.03514e-14 -3.03514e-14 -3.03514e-14 -4.18972e-14 -4.18972e-14 -4.18972e-14 -4.18972e-14 -6.38512e-14 -6.38512e-14 -6.38512e-14 -6.38512e-14 -7.37673e-14 -7.37673e-14 -7.37673e-14 -7.37673e-14 1.4567e-13 1.4567e-13 1.4567e-13 1.4567e-13 9.43056e-14 9.43056e-14 9.43056e-14 9.43056e-14 -9.35632e-14 -9.35632e-14 -9.35632e-14 -9.35632e-14 9.86758e-14 9.86758e-14 9.86758e-14 9.86758e-14 1.77736e-14 1.77736e-14 1.77736e-14 1.77736e-14 -4.92779e-14 -4.92779e-14 -4.92779e-14 -4.92779e-14 -1.31611e-13 -1.31611e-13 -1.31611e-13 -1.31611e-13 3.26578e-14 3.26578e-14 3.26578e-14 3.26578e-14 -3.29388e-13 -3.29388e-13 -3.29388e-13 -3.29388e-13 -2.10779e-13 -2.10779e-13 -2.10779e-13 -2.10779e-13 5.87475e-14 5.87475e-14 5.87475e-14 5.87475e-14 -1.04637e-14 -1.04637e-14 -1.04637e-14 -1.04637e-14 -8.51803e-14 -8.51803e-14 -8.51803e-14 -8.51803e-14 -1.70559e-13 -1.70559e-13 -1.70559e-13 -1.70559e-13 2.39343e-14 2.39343e-14 2.39343e-14 2.39343e-14 3.20252e-14 3.20252e-14 3.20252e-14 3.20252e-14 -1.94521e-13 -1.94521e-13 -1.94521e-13 -1.94521e-13 -1.00082e-13 -1.00082e-13 -1.00082e-13 -1.00082e-13 -1.39813e-13 -1.39813e-13 -1.39813e-13 -1.39813e-13 4.88758e-14 4.88758e-14 4.88758e-14 4.88758e-14 2.72399e-14 2.72399e-14 2.72399e-14 2.72399e-14 5.99644e-14 5.99644e-14 5.99644e-14 5.99644e-14 -1.12212e-13 -1.12212e-13 -1.12212e-13 -1.12212e-13 4.7624e-14 4.7624e-14 4.7624e-14 4.7624e-14 -1.0648e-13 -1.0648e-13 -1.0648e-13 -1.0648e-13 1.57597e-13 1.57597e-13 1.57597e-13 1.57597e-13 -3.6926e-15 -3.6926e-15 -3.6926e-15 -3.6926e-15 1.24704e-13 1.24704e-13 1.24704e-13 1.24704e-13 -9.53287e-14 -9.53287e-14 -9.53287e-14 -9.53287e-14 -5.16763e-14 -5.16763e-14 -5.16763e-14 -5.16763e-14 -1.67695e-13 -1.67695e-13 -1.67695e-13 -1.67695e-13 1.2132e-14 1.2132e-14 1.2132e-14 1.2132e-14 8.2825e-14 8.2825e-14 8.2825e-14 8.2825e-14 4.74926e-14 4.74926e-14 4.74926e-14 4.74926e-14 1.592e-13 1.592e-13 1.592e-13 1.592e-13 1.40746e-13 1.40746e-13 1.40746e-13 1.40746e-13 4.18523e-14 4.18523e-14 4.18523e-14 4.18523e-14 -6.46451e-14 -6.46451e-14 -6.46451e-14 -6.46451e-14 -1.48319e-13 -1.48319e-13 -1.48319e-13 -1.48319e-13 1.64548e-14 1.64548e-14 1.64548e-14 1.64548e-14 -1.76321e-14 -1.76321e-14 -1.76321e-14 -1.76321e-14 5.55964e-14 5.55964e-14 5.55964e-14 5.55964e-14 4.25883e-14 4.25883e-14 4.25883e-14 4.25883e-14 -9.38694e-15 -9.38694e-15 -9.38694e-15 -9.38694e-15 9.73402e-14 9.73402e-14 9.73402e-14 9.73402e-14 -3.64085e-14 -3.64085e-14 -3.64085e-14 -3.64085e-14 6.39245e-14 6.39245e-14 6.39245e-14 6.39245e-14 -5.61894e-14 -5.61894e-14 -5.61894e-14 -5.61894e-14 3.87522e-14 3.87522e-14 3.87522e-14 3.87522e-14 -1.58994e-13 -1.58994e-13 -1.58994e-13 -1.58994e-13 -1.65355e-13 -1.65355e-13 -1.65355e-13 -1.65355e-13 -4.10065e-14 -4.10065e-14 -4.10065e-14 -4.10065e-14 -6.36185e-14 -6.36185e-14 -6.36185e-14 -6.36185e-14 4.75707e-14 4.75707e-14 4.75707e-14 4.75707e-14 8.53229e-14 8.53229e-14 8.53229e-14 8.53229e-14 -5.36559e-14 -5.36559e-14 -5.36559e-14 -5.36559e-14 9.4674e-15 9.4674e-15 9.4674e-15 9.4674e-15 -6.62491e-14 -6.62491e-14 -6.62491e-14 -6.62491e-14 -3.47044e-14 -3.47044e-14 -3.47044e-14 -3.47044e-14 -5.7095e-14 -5.7095e-14 -5.7095e-14 -5.7095e-14 2.56994e-14 2.56994e-14 2.56994e-14 2.56994e-14 8.0222e-14 8.0222e-14 8.0222e-14 8.0222e-14 2.44542e-14 2.44542e-14 2.44542e-14 2.44542e-14 3.47858e-14 3.47858e-14 3.47858e-14 3.47858e-14 -1.88895e-14 -1.88895e-14 -1.88895e-14 -1.88895e-14 8.77293e-14 8.77293e-14 8.77293e-14 8.77293e-14 1.57938e-13 1.57938e-13 1.57938e-13 1.57938e-13 4.21177e-14 4.21177e-14 4.21177e-14 4.21177e-14 4.14334e-14 4.14334e-14 4.14334e-14 4.14334e-14 -1.59504e-13 -1.59504e-13 -1.59504e-13 -1.59504e-13 1.06647e-13 1.06647e-13 1.06647e-13 1.06647e-13 8.93182e-14 8.93182e-14 8.93182e-14 8.93182e-14 -6.77249e-14 -6.77249e-14 -6.77249e-14 -6.77249e-14 -6.65025e-14 -6.65025e-14 -6.65025e-14 -6.65025e-14 -4.00276e-14 -4.00276e-14 -4.00276e-14 -4.00276e-14 6.51464e-14 6.51464e-14 6.51464e-14 6.51464e-14 -1.21672e-15 -1.21672e-15 -1.21672e-15 -1.21672e-15 1.85861e-13 1.85861e-13 1.85861e-13 1.85861e-13 2.97456e-14 2.97456e-14 2.97456e-14 2.97456e-14 -4.74236e-14 -4.74236e-14 -4.74236e-14 -4.74236e-14 -4.77719e-15 -4.77719e-15 -4.77719e-15 -4.77719e-15 -4.7729e-14 -4.7729e-14 -4.7729e-14 -4.7729e-14 -7.5988e-14 -7.5988e-14 -7.5988e-14 -7.5988e-14 1.09613e-13 1.09613e-13 1.09613e-13 1.09613e-13 -1.47534e-13 -1.47534e-13 -1.47534e-13 -1.47534e-13 -1.35241e-13 -1.35241e-13 -1.35241e-13 -1.35241e-13 -8.92348e-15 -8.92348e-15 -8.92348e-15 -8.92348e-15 2.35852e-14 2.35852e-14 2.35852e-14 2.35852e-14 -6.10389e-14 -6.10389e-14 -6.10389e-14 -6.10389e-14 -1.1861e-13 -1.1861e-13 -1.1861e-13 -1.1861e-13 1.678e-13 1.678e-13 1.678e-13 1.678e-13 1.94495e-14 1.94495e-14 1.94495e-14 1.94495e-14 -1.30745e-14 -1.30745e-14 -1.30745e-14 -1.30745e-14 1.10238e-13 1.10238e-13 1.10238e-13 1.10238e-13 6.40705e-14 6.40705e-14 6.40705e-14 6.40705e-14 4.19812e-14 4.19812e-14 4.19812e-14 4.19812e-14 7.24088e-14 7.24088e-14 7.24088e-14 7.24088e-14 -3.59064e-14 -3.59064e-14 -3.59064e-14 -3.59064e-14 -5.13055e-14 -5.13055e-14 -5.13055e-14 -5.13055e-14 1.31081e-13 1.31081e-13 1.31081e-13 1.31081e-13 8.92167e-14 8.92167e-14 8.92167e-14 8.92167e-14 6.39532e-15 6.39532e-15 6.39532e-15 6.39532e-15 1.53226e-14 1.53226e-14 1.53226e-14 1.53226e-14 -6.28695e-14 -6.28695e-14 -6.28695e-14 -6.28695e-14 -7.92941e-14 -7.92941e-14 -7.92941e-14 -7.92941e-14 4.28133e-14 4.28133e-14 4.28133e-14 4.28133e-14 -1.84946e-13 -1.84946e-13 -1.84946e-13 -1.84946e-13 -8.73186e-14 -8.73186e-14 -8.73186e-14 -8.73186e-14 -4.08784e-14 -4.08784e-14 -4.08784e-14 -4.08784e-14 -1.36595e-13 -1.36595e-13 -1.36595e-13 -1.36595e-13 -3.42053e-14 -3.42053e-14 -3.42053e-14 -3.42053e-14 -5.5327e-14 -5.5327e-14 -5.5327e-14 -5.5327e-14 4.84554e-14 4.84554e-14 4.84554e-14 4.84554e-14 -1.1488e-13 -1.1488e-13 -1.1488e-13 -1.1488e-13 5.13224e-14 5.13224e-14 5.13224e-14 5.13224e-14 5.36486e-14 5.36486e-14 5.36486e-14 5.36486e-14 -2.36859e-14 -2.36859e-14 -2.36859e-14 -2.36859e-14 -9.51327e-14 -9.51327e-14 -9.51327e-14 -9.51327e-14 -8.73317e-14 -8.73317e-14 -8.73317e-14 -8.73317e-14 7.03338e-14 7.03338e-14 7.03338e-14 7.03338e-14 -1.51332e-14 -1.51332e-14 -1.51332e-14 -1.51332e-14 3.94204e-14 3.94204e-14 3.94204e-14 3.94204e-14 -1.73926e-14 -1.73926e-14 -1.73926e-14 -1.73926e-14 3.80539e-14 3.80539e-14 3.80539e-14 3.80539e-14 -6.90208e-14 -6.90208e-14 -6.90208e-14 -6.90208e-14 -3.5963e-14 -3.5963e-14 -3.5963e-14 -3.5963e-14 6.58335e-14 6.58335e-14 6.58335e-14 6.58335e-14 6.26725e-15 6.26725e-15 6.26725e-15 6.26725e-15 -1.91943e-13 -1.91943e-13 -1.91943e-13 -1.91943e-13 4.02481e-14 4.02481e-14 4.02481e-14 4.02481e-14 6.5169e-14 6.5169e-14 6.5169e-14 6.5169e-14 5.76509e-14 5.76509e-14 5.76509e-14 5.76509e-14 4.46775e-14 4.46775e-14 4.46775e-14 4.46775e-14 -4.72041e-14 -4.72041e-14 -4.72041e-14 -4.72041e-14 2.09032e-13 2.09032e-13 2.09032e-13 2.09032e-13 8.17108e-14 8.17108e-14 8.17108e-14 8.17108e-14 -5.28295e-14 -5.28295e-14 -5.28295e-14 -5.28295e-14 1.9315e-14 1.9315e-14 1.9315e-14 1.9315e-14 4.07052e-14 4.07052e-14 4.07052e-14 4.07052e-14 2.64602e-15 2.64602e-15 2.64602e-15 2.64602e-15 1.47243e-13 1.47243e-13 1.47243e-13 1.47243e-13 -2.03066e-13 -2.03066e-13 -2.03066e-13 -2.03066e-13 -6.45905e-14 -6.45905e-14 -6.45905e-14 -6.45905e-14 -7.24874e-14 -7.24874e-14 -7.24874e-14 -7.24874e-14 5.76116e-14 5.76116e-14 5.76116e-14 5.76116e-14 -7.35023e-14 -7.35023e-14 -7.35023e-14 -7.35023e-14 8.5866e-14 8.5866e-14 8.5866e-14 8.5866e-14 1.3363e-13 1.3363e-13 1.3363e-13 1.3363e-13 5.4779e-14 5.4779e-14 5.4779e-14 5.4779e-14 1.57445e-15 1.57445e-15 1.57445e-15 1.57445e-15 -7.30466e-14 -7.30466e-14 -7.30466e-14 -7.30466e-14 2.1986e-13 2.1986e-13 2.1986e-13 2.1986e-13 6.74192e-14 6.74192e-14 6.74192e-14 6.74192e-14 9.18516e-14 9.18516e-14 9.18516e-14 9.18516e-14 2.36329e-14 2.36329e-14 2.36329e-14 2.36329e-14 6.03816e-15 6.03816e-15 6.03816e-15 6.03816e-15 -5.4712e-14 -5.4712e-14 -5.4712e-14 -5.4712e-14 7.11985e-14 7.11985e-14 7.11985e-14 7.11985e-14 -1.04261e-13 -1.04261e-13 -1.04261e-13 -1.04261e-13 -2.44011e-14 -2.44011e-14 -2.44011e-14 -2.44011e-14 1.51039e-13 1.51039e-13 1.51039e-13 1.51039e-13 1.963e-13 1.963e-13 1.963e-13 1.963e-13 -8.98228e-14 -8.98228e-14 -8.98228e-14 -8.98228e-14 1.84892e-13 1.84892e-13 1.84892e-13 1.84892e-13 8.72357e-14 8.72357e-14 8.72357e-14 8.72357e-14 3.2166e-14 3.2166e-14 3.2166e-14 3.2166e-14 1.17485e-14 1.17485e-14 1.17485e-14 1.17485e-14 -4.9468e-14 -4.9468e-14 -4.9468e-14 -4.9468e-14 5.98261e-14 5.98261e-14 5.98261e-14 5.98261e-14 1.02763e-13 1.02763e-13 1.02763e-13 1.02763e-13 -1.03595e-14 -1.03595e-14 -1.03595e-14 -1.03595e-14 6.38431e-14 6.38431e-14 6.38431e-14 6.38431e-14 5.36794e-15 5.36794e-15 5.36794e-15 5.36794e-15 1.08938e-13 1.08938e-13 1.08938e-13 1.08938e-13 5.94486e-14 5.94486e-14 5.94486e-14 5.94486e-14 7.50266e-14 7.50266e-14 7.50266e-14 7.50266e-14 1.21652e-13 1.21652e-13 1.21652e-13 1.21652e-13 -2.69732e-15 -2.69732e-15 -2.69732e-15 -2.69732e-15 1.06467e-14 1.06467e-14 1.06467e-14 1.06467e-14 8.44587e-14 8.44587e-14 8.44587e-14 8.44587e-14 -2.12852e-14 -2.12852e-14 -2.12852e-14 -2.12852e-14 -3.39046e-14 -3.39046e-14 -3.39046e-14 -3.39046e-14 -5.75489e-14 -5.75489e-14 -5.75489e-14 -5.75489e-14 -6.43746e-14 -6.43746e-14 -6.43746e-14 -6.43746e-14 4.77922e-14 4.77922e-14 4.77922e-14 4.77922e-14 -1.54055e-13 -1.54055e-13 -1.54055e-13 -1.54055e-13 -9.70264e-14 -9.70264e-14 -9.70264e-14 -9.70264e-14 -6.33241e-14 -6.33241e-14 -6.33241e-14 -6.33241e-14 -5.24119e-14 -5.24119e-14 -5.24119e-14 -5.24119e-14 7.58491e-14 7.58491e-14 7.58491e-14 7.58491e-14 9.25233e-15 9.25233e-15 9.25233e-15 9.25233e-15 -3.79605e-14 -3.79605e-14 -3.79605e-14 -3.79605e-14 1.68941e-13 1.68941e-13 1.68941e-13 1.68941e-13 1.19003e-13 1.19003e-13 1.19003e-13 1.19003e-13 6.88366e-14 6.88366e-14 6.88366e-14 6.88366e-14 -2.86512e-14 -2.86512e-14 -2.86512e-14 -2.86512e-14 7.3891e-14 7.3891e-14 7.3891e-14 7.3891e-14 8.71105e-14 8.71105e-14 8.71105e-14 8.71105e-14 -1.37077e-13 -1.37077e-13 -1.37077e-13 -1.37077e-13 9.54483e-14 9.54483e-14 9.54483e-14 9.54483e-14 7.14646e-14 7.14646e-14 7.14646e-14 7.14646e-14 7.85044e-14 7.85044e-14 7.85044e-14 7.85044e-14 -1.91673e-14 -1.91673e-14 -1.91673e-14 -1.91673e-14 5.58525e-15 5.58525e-15 5.58525e-15 5.58525e-15 -9.52276e-14 -9.52276e-14 -9.52276e-14 -9.52276e-14 1.46418e-13 1.46418e-13 1.46418e-13 1.46418e-13 -1.62578e-13 -1.62578e-13 -1.62578e-13 -1.62578e-13 3.59451e-14 3.59451e-14 3.59451e-14 3.59451e-14 7.3923e-14 7.3923e-14 7.3923e-14 7.3923e-14 9.90249e-14 9.90249e-14 9.90249e-14 9.90249e-14 -2.89369e-14 -2.89369e-14 -2.89369e-14 -2.89369e-14 7.78702e-14 7.78702e-14 7.78702e-14 7.78702e-14 6.47725e-14 6.47725e-14 6.47725e-14 6.47725e-14 5.99807e-14 5.99807e-14 5.99807e-14 5.99807e-14 -1.23669e-13 -1.23669e-13 -1.23669e-13 -1.23669e-13 -3.39384e-14 -3.39384e-14 -3.39384e-14 -3.39384e-14 -4.80336e-14 -4.80336e-14 -4.80336e-14 -4.80336e-14 1.75718e-13 1.75718e-13 1.75718e-13 1.75718e-13 -2.39693e-14 -2.39693e-14 -2.39693e-14 -2.39693e-14 6.24819e-14 6.24819e-14 6.24819e-14 6.24819e-14 -3.11945e-14 -3.11945e-14 -3.11945e-14 -3.11945e-14 -1.82305e-13 -1.82305e-13 -1.82305e-13 -1.82305e-13 -3.60065e-14 -3.60065e-14 -3.60065e-14 -3.60065e-14 1.4838e-13 1.4838e-13 1.4838e-13 1.4838e-13 5.99633e-14 5.99633e-14 5.99633e-14 5.99633e-14 7.45301e-14 7.45301e-14 7.45301e-14 7.45301e-14 -5.68448e-14 -5.68448e-14 -5.68448e-14 -5.68448e-14 4.90476e-14 4.90476e-14 4.90476e-14 4.90476e-14 -9.58394e-14 -9.58394e-14 -9.58394e-14 -9.58394e-14 -1.0604e-13 -1.0604e-13 -1.0604e-13 -1.0604e-13 -1.37643e-13 -1.37643e-13 -1.37643e-13 -1.37643e-13 1.05034e-13 1.05034e-13 1.05034e-13 1.05034e-13 1.03172e-13 1.03172e-13 1.03172e-13 1.03172e-13 -8.42073e-14 -8.42073e-14 -8.42073e-14 -8.42073e-14 6.24662e-14 6.24662e-14 6.24662e-14 6.24662e-14 7.72883e-14 7.72883e-14 7.72883e-14 7.72883e-14 -7.27312e-14 -7.27312e-14 -7.27312e-14 -7.27312e-14 6.6257e-14 6.6257e-14 6.6257e-14 6.6257e-14 -4.411e-14 -4.411e-14 -4.411e-14 -4.411e-14 3.83065e-14 3.83065e-14 3.83065e-14 3.83065e-14 1.4067e-13 1.4067e-13 1.4067e-13 1.4067e-13 -1.64194e-13 -1.64194e-13 -1.64194e-13 -1.64194e-13 2.32115e-13 2.32115e-13 2.32115e-13 2.32115e-13 -8.881e-14 -8.881e-14 -8.881e-14 -8.881e-14 -4.78678e-14 -4.78678e-14 -4.78678e-14 -4.78678e-14 -3.52713e-14 -3.52713e-14 -3.52713e-14 -3.52713e-14 -5.05347e-14 -5.05347e-14 -5.05347e-14 -5.05347e-14 6.18666e-14 6.18666e-14 6.18666e-14 6.18666e-14 3.14617e-14 3.14617e-14 3.14617e-14 3.14617e-14 -8.23461e-14 -8.23461e-14 -8.23461e-14 -8.23461e-14 4.28332e-14 4.28332e-14 4.28332e-14 4.28332e-14 -1.4002e-14 -1.4002e-14 -1.4002e-14 -1.4002e-14 8.30383e-14 8.30383e-14 8.30383e-14 8.30383e-14 2.64819e-15 2.64819e-15 2.64819e-15 2.64819e-15 1.76245e-13 1.76245e-13 1.76245e-13 1.76245e-13 -3.0355e-14 -3.0355e-14 -3.0355e-14 -3.0355e-14 6.19738e-14 6.19738e-14 6.19738e-14 6.19738e-14 -1.91851e-14 -1.91851e-14 -1.91851e-14 -1.91851e-14 1.22207e-13 1.22207e-13 1.22207e-13 1.22207e-13 -5.2545e-14 -5.2545e-14 -5.2545e-14 -5.2545e-14 1.0246e-13 1.0246e-13 1.0246e-13 1.0246e-13 -3.9711e-14 -3.9711e-14 -3.9711e-14 -3.9711e-14 -9.8047e-14 -9.8047e-14 -9.8047e-14 -9.8047e-14 2.62924e-14 2.62924e-14 2.62924e-14 2.62924e-14 -1.23333e-15 -1.23333e-15 -1.23333e-15 -1.23333e-15 5.61536e-14 5.61536e-14 5.61536e-14 5.61536e-14 8.07447e-14 8.07447e-14 8.07447e-14 8.07447e-14 -1.02419e-13 -1.02419e-13 -1.02419e-13 -1.02419e-13 4.74382e-14 4.74382e-14 4.74382e-14 4.74382e-14 -5.01468e-14 -5.01468e-14 -5.01468e-14 -5.01468e-14 -1.84193e-13 -1.84193e-13 -1.84193e-13 -1.84193e-13 1.05868e-13 1.05868e-13 1.05868e-13 1.05868e-13 6.92413e-15 6.92413e-15 6.92413e-15 6.92413e-15 -5.25733e-14 -5.25733e-14 -5.25733e-14 -5.25733e-14 4.91986e-14 4.91986e-14 4.91986e-14 4.91986e-14 1.0735e-13 1.0735e-13 1.0735e-13 1.0735e-13 -2.63703e-14 -2.63703e-14 -2.63703e-14 -2.63703e-14 5.23061e-14 5.23061e-14 5.23061e-14 5.23061e-14 3.03707e-14 3.03707e-14 3.03707e-14 3.03707e-14 -5.30121e-14 -5.30121e-14 -5.30121e-14 -5.30121e-14 5.0925e-14 5.0925e-14 5.0925e-14 5.0925e-14 1.07151e-13 1.07151e-13 1.07151e-13 1.07151e-13 2.1529e-14 2.1529e-14 2.1529e-14 2.1529e-14 8.4925e-14 8.4925e-14 8.4925e-14 8.4925e-14 -8.47427e-14 -8.47427e-14 -8.47427e-14 -8.47427e-14 8.35297e-14 8.35297e-14 8.35297e-14 8.35297e-14 -7.09516e-15 -7.09516e-15 -7.09516e-15 -7.09516e-15 1.31234e-14 1.31234e-14 1.31234e-14 1.31234e-14 8.92563e-14 8.92563e-14 8.92563e-14 8.92563e-14 7.63568e-14 7.63568e-14 7.63568e-14 7.63568e-14 -2.3832e-14 -2.3832e-14 -2.3832e-14 -2.3832e-14 5.88936e-14 5.88936e-14 5.88936e-14 5.88936e-14 4.59626e-14 4.59626e-14 4.59626e-14 4.59626e-14 4.06364e-14 4.06364e-14 4.06364e-14 4.06364e-14 -4.18977e-14 -4.18977e-14 -4.18977e-14 -4.18977e-14 -1.02137e-13 -1.02137e-13 -1.02137e-13 -1.02137e-13 -6.11265e-14 -6.11265e-14 -6.11265e-14 -6.11265e-14 5.25395e-14 5.25395e-14 5.25395e-14 5.25395e-14 -2.28525e-14 -2.28525e-14 -2.28525e-14 -2.28525e-14 5.72719e-14 5.72719e-14 5.72719e-14 5.72719e-14 -9.12748e-14 -9.12748e-14 -9.12748e-14 -9.12748e-14 -3.01235e-15 -3.01235e-15 -3.01235e-15 -3.01235e-15 -1.19494e-14 -1.19494e-14 -1.19494e-14 -1.19494e-14 1.32576e-13 1.32576e-13 1.32576e-13 1.32576e-13 -2.9381e-14 -2.9381e-14 -2.9381e-14 -2.9381e-14 -5.08376e-14 -5.08376e-14 -5.08376e-14 -5.08376e-14 9.128e-14 9.128e-14 9.128e-14 9.128e-14 1.01311e-14 1.01311e-14 1.01311e-14 1.01311e-14 -5.29153e-14 -5.29153e-14 -5.29153e-14 -5.29153e-14 9.3657e-14 9.3657e-14 9.3657e-14 9.3657e-14 7.14759e-15 7.14759e-15 7.14759e-15 7.14759e-15 -1.02854e-13 -1.02854e-13 -1.02854e-13 -1.02854e-13 8.60949e-14 8.60949e-14 8.60949e-14 8.60949e-14 2.94961e-14 2.94961e-14 2.94961e-14 2.94961e-14 8.60907e-14 8.60907e-14 8.60907e-14 8.60907e-14 -3.70301e-14 -3.70301e-14 -3.70301e-14 -3.70301e-14 1.42739e-13 1.42739e-13 1.42739e-13 1.42739e-13 -4.87047e-15 -4.87047e-15 -4.87047e-15 -4.87047e-15 -2.41501e-14 -2.41501e-14 -2.41501e-14 -2.41501e-14 7.68714e-14 7.68714e-14 7.68714e-14 7.68714e-14 -8.93203e-15 -8.93203e-15 -8.93203e-15 -8.93203e-15 0 0 0 0 4.10448e-14 4.10448e-14 4.10448e-14 4.10448e-14 -2.2265e-14 -2.2265e-14 -2.2265e-14 -2.2265e-14 2.80762e-14 2.80762e-14 2.80762e-14 2.80762e-14 -3.68792e-14 -3.68792e-14 -3.68792e-14 -3.68792e-14 5.92885e-15 5.92885e-15 5.92885e-15 5.92885e-15 2.227e-14 2.227e-14 2.227e-14 2.227e-14 -1.89941e-14 -1.89941e-14 -1.89941e-14 -1.89941e-14 -1.15214e-14 -1.15214e-14 -1.15214e-14 -1.15214e-14 -8.80227e-14 -8.80227e-14 -8.80227e-14 -8.80227e-14 -3.16457e-14 -3.16457e-14 -3.16457e-14 -3.16457e-14 -1.26362e-13 -1.26362e-13 -1.26362e-13 -1.26362e-13 -9.80903e-14 -9.80903e-14 -9.80903e-14 -9.80903e-14 -4.00425e-14 -4.00425e-14 -4.00425e-14 -4.00425e-14 -8.84347e-14 -8.84347e-14 -8.84347e-14 -8.84347e-14 1.21366e-13 1.21366e-13 1.21366e-13 1.21366e-13 5.9297e-14 5.9297e-14 5.9297e-14 5.9297e-14 1.14981e-13 1.14981e-13 1.14981e-13 1.14981e-13 -8.89153e-14 -8.89153e-14 -8.89153e-14 -8.89153e-14 -2.53683e-14 -2.53683e-14 -2.53683e-14 -2.53683e-14 -2.37539e-14 -2.37539e-14 -2.37539e-14 -2.37539e-14 -1.0325e-13 -1.0325e-13 -1.0325e-13 -1.0325e-13 4.38676e-14 4.38676e-14 4.38676e-14 4.38676e-14 -1.21248e-13 -1.21248e-13 -1.21248e-13 -1.21248e-13 -9.64712e-14 -9.64712e-14 -9.64712e-14 -9.64712e-14 8.61243e-14 8.61243e-14 8.61243e-14 8.61243e-14 8.84501e-14 8.84501e-14 8.84501e-14 8.84501e-14 1.02341e-13 1.02341e-13 1.02341e-13 1.02341e-13 -1.02965e-13 -1.02965e-13 -1.02965e-13 -1.02965e-13 -2.03931e-13 -2.03931e-13 -2.03931e-13 -2.03931e-13 4.74786e-14 4.74786e-14 4.74786e-14 4.74786e-14 -1.06885e-13 -1.06885e-13 -1.06885e-13 -1.06885e-13 1.50507e-13 1.50507e-13 1.50507e-13 1.50507e-13 1.04529e-13 1.04529e-13 1.04529e-13 1.04529e-13 -3.03395e-14 -3.03395e-14 -3.03395e-14 -3.03395e-14 -4.35974e-14 -4.35974e-14 -4.35974e-14 -4.35974e-14 2.08606e-14 2.08606e-14 2.08606e-14 2.08606e-14 6.19459e-15 6.19459e-15 6.19459e-15 6.19459e-15 -8.4631e-14 -8.4631e-14 -8.4631e-14 -8.4631e-14 1.03136e-14 1.03136e-14 1.03136e-14 1.03136e-14 -1.24017e-13 -1.24017e-13 -1.24017e-13 -1.24017e-13 -2.04015e-13 -2.04015e-13 -2.04015e-13 -2.04015e-13 5.72192e-14 5.72192e-14 5.72192e-14 5.72192e-14 8.96551e-14 8.96551e-14 8.96551e-14 8.96551e-14 2.1771e-14 2.1771e-14 2.1771e-14 2.1771e-14 -1.35898e-15 -1.35898e-15 -1.35898e-15 -1.35898e-15 4.57447e-14 4.57447e-14 4.57447e-14 4.57447e-14 3.49144e-14 3.49144e-14 3.49144e-14 3.49144e-14 1.14951e-13 1.14951e-13 1.14951e-13 1.14951e-13 6.97191e-14 6.97191e-14 6.97191e-14 6.97191e-14 -9.76293e-13 -9.76293e-13 -9.76293e-13 -9.76293e-13 9.93214e-14 9.93214e-14 9.93214e-14 9.93214e-14 1.13416e-13 1.13416e-13 1.13416e-13 1.13416e-13 2.17383e-13 2.17383e-13 2.17383e-13 2.17383e-13 -9.28555e-14 -9.28555e-14 -9.28555e-14 -9.28555e-14 5.55421e-14 5.55421e-14 5.55421e-14 5.55421e-14 1.0606e-13 1.0606e-13 1.0606e-13 1.0606e-13 9.96879e-14 9.96879e-14 9.96879e-14 9.96879e-14 -1.32825e-14 -1.32825e-14 -1.32825e-14 -1.32825e-14 1.25928e-13 1.25928e-13 1.25928e-13 1.25928e-13 -7.22612e-14 -7.22612e-14 -7.22612e-14 -7.22612e-14 5.65786e-14 5.65786e-14 5.65786e-14 5.65786e-14 -1.26636e-13 -1.26636e-13 -1.26636e-13 -1.26636e-13 6.23774e-14 6.23774e-14 6.23774e-14 6.23774e-14 
SCALARS StressZ float 
LOOKUP_TABLE default
-1.55778e-12 -1.55778e-12 -1.55778e-12 -1.55778e-12 -6.09431e-13 -6.09431e-13 -6.09431e-13 -6.09431e-13 3.14358e-13 3.14358e-13 3.14358e-13 3.14358e-13 -5.03312e-13 -5.03312e-13 -5.03312e-13 -5.03312e-13 -4.63511e-13 -4.63511e-13 -4.63511e-13 -4.63511e-13 -1.44766e-12 -1.44766e-12 -1.44766e-12 -1.44766e-12 -6.184e-13 -6.184e-13 -6.184e-13 -6.184e-13 2.07611e-13 2.07611e-13 2.07611e-13 2.07611e-13 -4.1238e-13 -4.1238e-13 -4.1238e-13 -4.1238e-13 -4.60046e-13 -4.60046e-13 -4.60046e-13 -4.60046e-13 8.12695e-13 8.12695e-13 8.12695e-13 8.12695e-13 -8.82043e-13 -8.82043e-13 -8.82043e-13 -8.82043e-13 -2.48603e-13 -2.48603e-13 -2.48603e-13 -2.48603e-13 -4.49142e-13 -4.49142e-13 -4.49142e-13 -4.49142e-13 2.49201e-13 2.49201e-13 2.49201e-13 2.49201e-13 -2.89332e-13 -2.89332e-13 -2.89332e-13 -2.89332e-13 5.07853e-13 5.07853e-13 5.07853e-13 5.07853e-13 3.93871e-13 3.93871e-13 3.93871e-13 3.93871e-13 -3.87558e-13 -3.87558e-13 -3.87558e-13 -3.87558e-13 9.59333e-13 9.59333e-13 9.59333e-13 9.59333e-13 7.6394e-13 7.6394e-13 7.6394e-13 7.6394e-13 2.85789e-13 2.85789e-13 2.85789e-13 2.85789e-13 -3.56104e-13 -3.56104e-13 -3.56104e-13 -3.56104e-13 -2.32172e-13 -2.32172e-13 -2.32172e-13 -2.32172e-13 9.56114e-14 9.56114e-14 9.56114e-14 9.56114e-14 8.63251e-13 8.63251e-13 8.63251e-13 8.63251e-13 8.91551e-13 8.91551e-13 8.91551e-13 8.91551e-13 -6.5913e-13 -6.5913e-13 -6.5913e-13 -6.5913e-13 7.35332e-14 7.35332e-14 7.35332e-14 7.35332e-14 2.43731e-13 2.43731e-13 2.43731e-13 2.43731e-13 1.47148e-12 1.47148e-12 1.47148e-12 1.47148e-12 4.12486e-13 4.12486e-13 4.12486e-13 4.12486e-13 -1.34833e-14 -1.34833e-14 -1.34833e-14 -1.34833e-14 3.99239e-13 3.99239e-13 3.99239e-13 3.99239e-13 9.24622e-14 9.24622e-14 9.24622e-14 9.24622e-14 2.99933e-13 2.99933e-13 2.99933e-13 2.99933e-13 -1.51672e-13 -1.51672e-13 -1.51672e-13 -1.51672e-13 -2.57056e-13 -2.57056e-13 -2.57056e-13 -2.57056e-13 -1.48461e-13 -1.48461e-13 -1.48461e-13 -1.48461e-13 -4.73347e-13 -4.73347e-13 -4.73347e-13 -4.73347e-13 2.30668e-13 2.30668e-13 2.30668e-13 2.30668e-13 1.21558e-12 1.21558e-12 1.21558e-12 1.21558e-12 9.8768e-15 9.8768e-15 9.8768e-15 9.8768e-15 1.77236e-12 1.77236e-12 1.77236e-12 1.77236e-12 1.38345e-13 1.38345e-13 1.38345e-13 1.38345e-13 -4.79768e-13 -4.79768e-13 -4.79768e-13 -4.79768e-13 4.48651e-13 4.48651e-13 4.48651e-13 4.48651e-13 -3.06363e-13 -3.06363e-13 -3.06363e-13 -3.06363e-13 -9.67725e-13 -9.67725e-13 -9.67725e-13 -9.67725e-13 8.56271e-13 8.56271e-13 8.56271e-13 8.56271e-13 4.58265e-14 4.58265e-14 4.58265e-14 4.58265e-14 9.22557e-13 9.22557e-13 9.22557e-13 9.22557e-13 -4.15739e-13 -4.15739e-13 -4.15739e-13 -4.15739e-13 8.55819e-13 8.55819e-13 8.55819e-13 8.55819e-13 6.91305e-13 6.91305e-13 6.91305e-13 6.91305e-13 -2.21043e-13 -2.21043e-13 -2.21043e-13 -2.21043e-13 -3.2999e-13 -3.2999e-13 -3.2999e-13 -3.2999e-13 -1.99788e-13 -1.99788e-13 -1.99788e-13 -1.99788e-13 3.19752e-13 3.19752e-13 3.19752e-13 3.19752e-13 8.85196e-13 8.85196e-13 8.85196e-13 8.85196e-13 -2.17874e-14 -2.17874e-14 -2.17874e-14 -2.17874e-14 8.73166e-13 8.73166e-13 8.73166e-13 8.73166e-13 -6.78235e-13 -6.78235e-13 -6.78235e-13 -6.78235e-13 6.51328e-13 6.51328e-13 6.51328e-13 6.51328e-13 -6.70365e-13 -6.70365e-13 -6.70365e-13 -6.70365e-13 2.0601e-13 2.0601e-13 2.0601e-13 2.0601e-13 5.12917e-14 5.12917e-14 5.12917e-14 5.12917e-14 4.12967e-13 4.12967e-13 4.12967e-13 4.12967e-13 -4.59046e-13 -4.59046e-13 -4.59046e-13 -4.59046e-13 2.7925e-13 2.7925e-13 2.7925e-13 2.7925e-13 -3.65212e-13 -3.65212e-13 -3.65212e-13 -3.65212e-13 -4.50026e-13 -4.50026e-13 -4.50026e-13 -4.50026e-13 -4.06236e-13 -4.06236e-13 -4.06236e-13 -4.06236e-13 -1.20568e-12 -1.20568e-12 -1.20568e-12 -1.20568e-12 -8.23311e-14 -8.23311e-14 -8.23311e-14 -8.23311e-14 9.21174e-13 9.21174e-13 9.21174e-13 9.21174e-13 -3.39253e-13 -3.39253e-13 -3.39253e-13 -3.39253e-13 -4.65054e-13 -4.65054e-13 -4.65054e-13 -4.65054e-13 -4.8513e-13 -4.8513e-13 -4.8513e-13 -4.8513e-13 -4.57599e-13 -4.57599e-13 -4.57599e-13 -4.57599e-13 1.13104e-12 1.13104e-12 1.13104e-12 1.13104e-12 -8.13068e-13 -8.13068e-13 -8.13068e-13 -8.13068e-13 -2.56468e-13 -2.56468e-13 -2.56468e-13 -2.56468e-13 -1.99797e-12 -1.99797e-12 -1.99797e-12 -1.99797e-12 7.06543e-13 7.06543e-13 7.06543e-13 7.06543e-13 7.27057e-13 7.27057e-13 7.27057e-13 7.27057e-13 3.73035e-13 3.73035e-13 3.73035e-13 3.73035e-13 5.28771e-13 5.28771e-13 5.28771e-13 5.28771e-13 1.06793e-13 1.06793e-13 1.06793e-13 1.06793e-13 1.44691e-13 1.44691e-13 1.44691e-13 1.44691e-13 4.07455e-14 4.07455e-14 4.07455e-14 4.07455e-14 -2.30058e-13 -2.30058e-13 -2.30058e-13 -2.30058e-13 5.94481e-13 5.94481e-13 5.94481e-13 5.94481e-13 4.98226e-13 4.98226e-13 4.98226e-13 4.98226e-13 -7.37806e-13 -7.37806e-13 -7.37806e-13 -7.37806e-13 -1.33216e-13 -1.33216e-13 -1.33216e-13 -1.33216e-13 -1.18354e-13 -1.18354e-13 -1.18354e-13 -1.18354e-13 -7.99102e-13 -7.99102e-13 -7.99102e-13 -7.99102e-13 -2.00636e-12 -2.00636e-12 -2.00636e-12 -2.00636e-12 3.03973e-13 3.03973e-13 3.03973e-13 3.03973e-13 -2.28961e-12 -2.28961e-12 -2.28961e-12 -2.28961e-12 -7.07031e-13 -7.07031e-13 -7.07031e-13 -7.07031e-13 1.43903e-13 1.43903e-13 1.43903e-13 1.43903e-13 -1.26279e-14 -1.26279e-14 -1.26279e-14 -1.26279e-14 -9.89122e-14 -9.89122e-14 -9.89122e-14 -9.89122e-14 -2.73103e-13 -2.73103e-13 -2.73103e-13 -2.73103e-13 1.47936e-13 1.47936e-13 1.47936e-13 1.47936e-13 4.55035e-14 4.55035e-14 4.55035e-14 4.55035e-14 -4.97501e-14 -4.97501e-14 -4.97501e-14 -4.97501e-14 7.84293e-13 7.84293e-13 7.84293e-13 7.84293e-13 -3.64822e-13 -3.64822e-13 -3.64822e-13 -3.64822e-13 6.534e-13 6.534e-13 6.534e-13 6.534e-13 3.79834e-13 3.79834e-13 3.79834e-13 3.79834e-13 1.81701e-13 1.81701e-13 1.81701e-13 1.81701e-13 8.28213e-14 8.28213e-14 8.28213e-14 8.28213e-14 2.98871e-13 2.98871e-13 2.98871e-13 2.98871e-13 -9.28922e-13 -9.28922e-13 -9.28922e-13 -9.28922e-13 -1.4062e-14 -1.4062e-14 -1.4062e-14 -1.4062e-14 -6.6964e-13 -6.6964e-13 -6.6964e-13 -6.6964e-13 -1.67013e-12 -1.67013e-12 -1.67013e-12 -1.67013e-12 3.78938e-14 3.78938e-14 3.78938e-14 3.78938e-14 5.1427e-14 5.1427e-14 5.1427e-14 5.1427e-14 1.40702e-12 1.40702e-12 1.40702e-12 1.40702e-12 1.25442e-13 1.25442e-13 1.25442e-13 1.25442e-13 -8.74937e-13 -8.74937e-13 -8.74937e-13 -8.74937e-13 2.70616e-13 2.70616e-13 2.70616e-13 2.70616e-13 7.87931e-13 7.87931e-13 7.87931e-13 7.87931e-13 3.47071e-14 3.47071e-14 3.47071e-14 3.47071e-14 -8.67265e-14 -8.67265e-14 -8.67265e-14 -8.67265e-14 1.34368e-13 1.34368e-13 1.34368e-13 1.34368e-13 8.31666e-13 8.31666e-13 8.31666e-13 8.31666e-13 4.64225e-13 4.64225e-13 4.64225e-13 4.64225e-13 -2.754e-13 -2.754e-13 -2.754e-13 -2.754e-13 3.03321e-14 3.03321e-14 3.03321e-14 3.03321e-14 5.14668e-13 5.14668e-13 5.14668e-13 5.14668e-13 1.77179e-14 1.77179e-14 1.77179e-14 1.77179e-14 1.45598e-13 1.45598e-13 1.45598e-13 1.45598e-13 6.23558e-13 6.23558e-13 6.23558e-13 6.23558e-13 -4.54231e-13 -4.54231e-13 -4.54231e-13 -4.54231e-13 -3.18637e-13 -3.18637e-13 -3.18637e-13 -3.18637e-13 -5.8202e-13 -5.8202e-13 -5.8202e-13 -5.8202e-13 1.85529e-13 1.85529e-13 1.85529e-13 1.85529e-13 -1.36574e-12 -1.36574e-12 -1.36574e-12 -1.36574e-12 8.20572e-14 8.20572e-14 8.20572e-14 8.20572e-14 -6.02993e-14 -6.02993e-14 -6.02993e-14 -6.02993e-14 -9.14306e-14 -9.14306e-14 -9.14306e-14 -9.14306e-14 -5.95326e-15 -5.95326e-15 -5.95326e-15 -5.95326e-15 -1.60478e-13 -1.60478e-13 -1.60478e-13 -1.60478e-13 1.2582e-12 1.2582e-12 1.2582e-12 1.2582e-12 2.47643e-13 2.47643e-13 2.47643e-13 2.47643e-13 -8.30856e-13 -8.30856e-13 -8.30856e-13 -8.30856e-13 -1.12541e-12 -1.12541e-12 -1.12541e-12 -1.12541e-12 -1.00147e-13 -1.00147e-13 -1.00147e-13 -1.00147e-13 1.23044e-13 1.23044e-13 1.23044e-13 1.23044e-13 -6.53746e-13 -6.53746e-13 -6.53746e-13 -6.53746e-13 -1.95315e-13 -1.95315e-13 -1.95315e-13 -1.95315e-13 -1.16788e-13 -1.16788e-13 -1.16788e-13 -1.16788e-13 -9.73606e-14 -9.73606e-14 -9.73606e-14 -9.73606e-14 1.62677e-13 1.62677e-13 1.62677e-13 1.62677e-13 6.40406e-14 6.40406e-14 6.40406e-14 6.40406e-14 1.64599e-13 1.64599e-13 1.64599e-13 1.64599e-13 -1.13771e-12 -1.13771e-12 -1.13771e-12 -1.13771e-12 4.74745e-13 4.74745e-13 4.74745e-13 4.74745e-13 1.18412e-13 1.18412e-13 1.18412e-13 1.18412e-13 0 0 0 0 -4.96521e-14 -4.96521e-14 -4.96521e-14 -4.96521e-14 8.98502e-13 8.98502e-13 8.98502e-13 8.98502e-13 4.65478e-13 4.65478e-13 4.65478e-13 4.65478e-13 4.09302e-13 4.09302e-13 4.09302e-13 4.09302e-13 6.43138e-14 6.43138e-14 6.43138e-14 6.43138e-14 -3.9355e-14 -3.9355e-14 -3.9355e-14 -3.9355e-14 1.2741e-12 1.2741e-12 1.2741e-12 1.2741e-12 3.29164e-13 3.29164e-13 3.29164e-13 3.29164e-13 1.63177e-13 1.63177e-13 1.63177e-13 1.63177e-13 -2.4485e-13 -2.4485e-13 -2.4485e-13 -2.4485e-13 6.3269e-13 6.3269e-13 6.3269e-13 6.3269e-13 1.06022e-13 1.06022e-13 1.06022e-13 1.06022e-13 1.38711e-12 1.38711e-12 1.38711e-12 1.38711e-12 6.47482e-13 6.47482e-13 6.47482e-13 6.47482e-13 -1.29001e-12 -1.29001e-12 -1.29001e-12 -1.29001e-12 1.34693e-13 1.34693e-13 1.34693e-13 1.34693e-13 5.16035e-13 5.16035e-13 5.16035e-13 5.16035e-13 5.42076e-13 5.42076e-13 5.42076e-13 5.42076e-13 -1.31202e-13 -1.31202e-13 -1.31202e-13 -1.31202e-13 6.91513e-14 6.91513e-14 6.91513e-14 6.91513e-14 -1.28736e-12 -1.28736e-12 -1.28736e-12 -1.28736e-12 -1.83634e-13 -1.83634e-13 -1.83634e-13 -1.83634e-13 -1.64647e-13 -1.64647e-13 -1.64647e-13 -1.64647e-13 9.19935e-13 9.19935e-13 9.19935e-13 9.19935e-13 2.9053e-14 2.9053e-14 2.9053e-14 2.9053e-14 1.14101e-12 1.14101e-12 1.14101e-12 1.14101e-12 8.81212e-13 8.81212e-13 8.81212e-13 8.81212e-13 -4.34174e-14 -4.34174e-14 -4.34174e-14 -4.34174e-14 -1.28659e-13 -1.28659e-13 -1.28659e-13 -1.28659e-13 3.01123e-14 3.01123e-14 3.01123e-14 3.01123e-14 -9.44208e-14 -9.44208e-14 -9.44208e-14 -9.44208e-14 2.68416e-13 2.68416e-13 2.68416e-13 2.68416e-13 5.90465e-14 5.90465e-14 5.90465e-14 5.90465e-14 -4.6466e-15 -4.6466e-15 -4.6466e-15 -4.6466e-15 -6.29981e-14 -6.29981e-14 -6.29981e-14 -6.29981e-14 5.81404e-14 5.81404e-14 5.81404e-14 5.81404e-14 -2.09002e-14 -2.09002e-14 -2.09002e-14 -2.09002e-14 5.33092e-13 5.33092e-13 5.33092e-13 5.33092e-13 -5.893e-13 -5.893e-13 -5.893e-13 -5.893e-13 -4.32785e-13 -4.32785e-13 -4.32785e-13 -4.32785e-13 1.61287e-13 1.61287e-13 1.61287e-13 1.61287e-13 -8.45373e-13 -8.45373e-13 -8.45373e-13 -8.45373e-13 -1.26195e-12 -1.26195e-12 -1.26195e-12 -1.26195e-12 3.30002e-13 3.30002e-13 3.30002e-13 3.30002e-13 -4.4132e-13 -4.4132e-13 -4.4132e-13 -4.4132e-13 -1.13687e-13 -1.13687e-13 -1.13687e-13 -1.13687e-13 2.83516e-13 2.83516e-13 2.83516e-13 2.83516e-13 8.77028e-13 8.77028e-13 8.77028e-13 8.77028e-13 5.41934e-14 5.41934e-14 5.41934e-14 5.41934e-14 -7.75777e-14 -7.75777e-14 -7.75777e-14 -7.75777e-14 -1.97767e-12 -1.97767e-12 -1.97767e-12 -1.97767e-12 -4.72102e-13 -4.72102e-13 -4.72102e-13 -4.72102e-13 -7.93031e-14 -7.93031e-14 -7.93031e-14 -7.93031e-14 1.63255e-13 1.63255e-13 1.63255e-13 1.63255e-13 -1.48477e-13 -1.48477e-13 -1.48477e-13 -1.48477e-13 -1.72806e-13 -1.72806e-13 -1.72806e-13 -1.72806e-13 3.43238e-13 3.43238e-13 3.43238e-13 3.43238e-13 -1.4432e-13 -1.4432e-13 -1.4432e-13 -1.4432e-13 2.93855e-12 2.93855e-12 2.93855e-12 2.93855e-12 -1.51809e-13 -1.51809e-13 -1.51809e-13 -1.51809e-13 -7.78694e-14 -7.78694e-14 -7.78694e-14 -7.78694e-14 -1.40265e-13 -1.40265e-13 -1.40265e-13 -1.40265e-13 -1.41558e-13 -1.41558e-13 -1.41558e-13 -1.41558e-13 -4.027e-13 -4.027e-13 -4.027e-13 -4.027e-13 5.68436e-13 5.68436e-13 5.68436e-13 5.68436e-13 5.02135e-13 5.02135e-13 5.02135e-13 5.02135e-13 -3.21861e-14 -3.21861e-14 -3.21861e-14 -3.21861e-14 -1.56723e-13 -1.56723e-13 -1.56723e-13 -1.56723e-13 5.75619e-13 5.75619e-13 5.75619e-13 5.75619e-13 -4.10529e-13 -4.10529e-13 -4.10529e-13 -4.10529e-13 -3.58317e-14 -3.58317e-14 -3.58317e-14 -3.58317e-14 9.03646e-13 9.03646e-13 9.03646e-13 9.03646e-13 3.61764e-13 3.61764e-13 3.61764e-13 3.61764e-13 -3.81665e-14 -3.81665e-14 -3.81665e-14 -3.81665e-14 -3.18577e-13 -3.18577e-13 -3.18577e-13 -3.18577e-13 4.46519e-13 4.46519e-13 4.46519e-13 4.46519e-13 1.94665e-13 1.94665e-13 1.94665e-13 1.94665e-13 -7.00227e-14 -7.00227e-14 -7.00227e-14 -7.00227e-14 1.26622e-13 1.26622e-13 1.26622e-13 1.26622e-13 -8.64519e-13 -8.64519e-13 -8.64519e-13 -8.64519e-13 3.53004e-13 3.53004e-13 3.53004e-13 3.53004e-13 -6.34564e-13 -6.34564e-13 -6.34564e-13 -6.34564e-13 5.66142e-13 5.66142e-13 5.66142e-13 5.66142e-13 -1.17719e-14 -1.17719e-14 -1.17719e-14 -1.17719e-14 5.01303e-15 5.01303e-15 5.01303e-15 5.01303e-15 -6.59818e-13 -6.59818e-13 -6.59818e-13 -6.59818e-13 3.45211e-13 3.45211e-13 3.45211e-13 3.45211e-13 3.85054e-13 3.85054e-13 3.85054e-13 3.85054e-13 9.47374e-13 9.47374e-13 9.47374e-13 9.47374e-13 1.04493e-13 1.04493e-13 1.04493e-13 1.04493e-13 -2.9068e-13 -2.9068e-13 -2.9068e-13 -2.9068e-13 8.09907e-13 8.09907e-13 8.09907e-13 8.09907e-13 -3.60977e-14 -3.60977e-14 -3.60977e-14 -3.60977e-14 -5.2821e-13 -5.2821e-13 -5.2821e-13 -5.2821e-13 9.27609e-14 9.27609e-14 9.27609e-14 9.27609e-14 5.03833e-13 5.03833e-13 5.03833e-13 5.03833e-13 -3.9851e-13 -3.9851e-13 -3.9851e-13 -3.9851e-13 2.04466e-13 2.04466e-13 2.04466e-13 2.04466e-13 -1.63407e-14 -1.63407e-14 -1.63407e-14 -1.63407e-14 5.79067e-13 5.79067e-13 5.79067e-13 5.79067e-13 2.22565e-13 2.22565e-13 2.22565e-13 2.22565e-13 7.50378e-13 7.50378e-13 7.50378e-13 7.50378e-13 -1.20019e-13 -1.20019e-13 -1.20019e-13 -1.20019e-13 -2.42304e-13 -2.42304e-13 -2.42304e-13 -2.42304e-13 1.3844e-13 1.3844e-13 1.3844e-13 1.3844e-13 -2.76459e-13 -2.76459e-13 -2.76459e-13 -2.76459e-13 -4.8194e-13 -4.8194e-13 -4.8194e-13 -4.8194e-13 1.64073e-13 1.64073e-13 1.64073e-13 1.64073e-13 -4.71811e-13 -4.71811e-13 -4.71811e-13 -4.71811e-13 2.8324e-13 2.8324e-13 2.8324e-13 2.8324e-13 1.52898e-13 1.52898e-13 1.52898e-13 1.52898e-13 -7.70114e-14 -7.70114e-14 -7.70114e-14 -7.70114e-14 2.22045e-13 2.22045e-13 2.22045e-13 2.22045e-13 -1.53745e-13 -1.53745e-13 -1.53745e-13 -1.53745e-13 4.46085e-13 4.46085e-13 4.46085e-13 4.46085e-13 1.56529e-13 1.56529e-13 1.56529e-13 1.56529e-13 -1.60751e-13 -1.60751e-13 -1.60751e-13 -1.60751e-13 1.18028e-13 1.18028e-13 1.18028e-13 1.18028e-13 -7.54542e-14 -7.54542e-14 -7.54542e-14 -7.54542e-14 4.57794e-13 4.57794e-13 4.57794e-13 4.57794e-13 8.21038e-14 8.21038e-14 8.21038e-14 8.21038e-14 -3.65297e-14 -3.65297e-14 -3.65297e-14 -3.65297e-14 -1.47431e-13 -1.47431e-13 -1.47431e-13 -1.47431e-13 1.47075e-13 1.47075e-13 1.47075e-13 1.47075e-13 1.3439e-12 1.3439e-12 1.3439e-12 1.3439e-12 -5.87913e-14 -5.87913e-14 -5.87913e-14 -5.87913e-14 1.48516e-13 1.48516e-13 1.48516e-13 1.48516e-13 -6.07795e-13 -6.07795e-13 -6.07795e-13 -6.07795e-13 -1.62971e-14 -1.62971e-14 -1.62971e-14 -1.62971e-14 2.00328e-13 2.00328e-13 2.00328e-13 2.00328e-13 1.94312e-13 1.94312e-13 1.94312e-13 1.94312e-13 -1.04213e-13 -1.04213e-13 -1.04213e-13 -1.04213e-13 -7.06413e-13 -7.06413e-13 -7.06413e-13 -7.06413e-13 4.44089e-13 4.44089e-13 4.44089e-13 4.44089e-13 1.91726e-14 1.91726e-14 1.91726e-14 1.91726e-14 -1.30424e-13 -1.30424e-13 -1.30424e-13 -1.30424e-13 5.22107e-13 5.22107e-13 5.22107e-13 5.22107e-13 -2.02694e-13 -2.02694e-13 -2.02694e-13 -2.02694e-13 5.46633e-14 5.46633e-14 5.46633e-14 5.46633e-14 -3.71946e-13 -3.71946e-13 -3.71946e-13 -3.71946e-13 2.22045e-13 2.22045e-13 2.22045e-13 2.22045e-13 3.44746e-13 3.44746e-13 3.44746e-13 3.44746e-13 -1.06509e-13 -1.06509e-13 -1.06509e-13 -1.06509e-13 6.37011e-13 6.37011e-13 6.37011e-13 6.37011e-13 -8.66812e-14 -8.66812e-14 -8.66812e-14 -8.66812e-14 -2.30938e-13 -2.30938e-13 -2.30938e-13 -2.30938e-13 -3.72883e-15 -3.72883e-15 -3.72883e-15 -3.72883e-15 1.65532e-13 1.65532e-13 1.65532e-13 1.65532e-13 -1.49351e-13 -1.49351e-13 -1.49351e-13 -1.49351e-13 1.37626e-12 1.37626e-12 1.37626e-12 1.37626e-12 1.52539e-12 1.52539e-12 1.52539e-12 1.52539e-12 -3.68744e-14 -3.68744e-14 -3.68744e-14 -3.68744e-14 1.30079e-12 1.30079e-12 1.30079e-12 1.30079e-12 9.03103e-13 9.03103e-13 9.03103e-13 9.03103e-13 7.46653e-13 7.46653e-13 7.46653e-13 7.46653e-13 -4.76812e-13 -4.76812e-13 -4.76812e-13 -4.76812e-13 1.17533e-12 1.17533e-12 1.17533e-12 1.17533e-12 -2.16496e-13 -2.16496e-13 -2.16496e-13 -2.16496e-13 7.59203e-13 7.59203e-13 7.59203e-13 7.59203e-13 1.01444e-13 1.01444e-13 1.01444e-13 1.01444e-13 6.41407e-13 6.41407e-13 6.41407e-13 6.41407e-13 -4.48776e-13 -4.48776e-13 -4.48776e-13 -4.48776e-13 7.37875e-14 7.37875e-14 7.37875e-14 7.37875e-14 0 0 0 0 2.19363e-13 2.19363e-13 2.19363e-13 2.19363e-13 1.66189e-13 1.66189e-13 1.66189e-13 1.66189e-13 -8.81005e-13 -8.81005e-13 -8.81005e-13 -8.81005e-13 2.4315e-13 2.4315e-13 2.4315e-13 2.4315e-13 1.68209e-13 1.68209e-13 1.68209e-13 1.68209e-13 8.25089e-13 8.25089e-13 8.25089e-13 8.25089e-13 -5.8879e-13 -5.8879e-13 -5.8879e-13 -5.8879e-13 6.23353e-13 6.23353e-13 6.23353e-13 6.23353e-13 -3.03232e-13 -3.03232e-13 -3.03232e-13 -3.03232e-13 5.4065e-14 5.4065e-14 5.4065e-14 5.4065e-14 -1.9806e-13 -1.9806e-13 -1.9806e-13 -1.9806e-13 -1.77016e-13 -1.77016e-13 -1.77016e-13 -1.77016e-13 -4.69174e-13 -4.69174e-13 -4.69174e-13 -4.69174e-13 1.24663e-13 1.24663e-13 1.24663e-13 1.24663e-13 1.04761e-13 1.04761e-13 1.04761e-13 1.04761e-13 4.99723e-14 4.99723e-14 4.99723e-14 4.99723e-14 1.1199e-13 1.1199e-13 1.1199e-13 1.1199e-13 -8.68522e-14 -8.68522e-14 -8.68522e-14 -8.68522e-14 1.61783e-12 1.61783e-12 1.61783e-12 1.61783e-12 1.67302e-13 1.67302e-13 1.67302e-13 1.67302e-13 1.40708e-13 1.40708e-13 1.40708e-13 1.40708e-13 -8.63856e-13 -8.63856e-13 -8.63856e-13 -8.63856e-13 -9.09881e-14 -9.09881e-14 -9.09881e-14 -9.09881e-14 -5.19382e-13 -5.19382e-13 -5.19382e-13 -5.19382e-13 -4.96425e-13 -4.96425e-13 -4.96425e-13 -4.96425e-13 1.30844e-14 1.30844e-14 1.30844e-14 1.30844e-14 4.36371e-13 4.36371e-13 4.36371e-13 4.36371e-13 1.31002e-13 1.31002e-13 1.31002e-13 1.31002e-13 -6.85037e-13 -6.85037e-13 -6.85037e-13 -6.85037e-13 -7.88864e-13 -7.88864e-13 -7.88864e-13 -7.88864e-13 3.30531e-13 3.30531e-13 3.30531e-13 3.30531e-13 4.52136e-13 4.52136e-13 4.52136e-13 4.52136e-13 6.34923e-13 6.34923e-13 6.34923e-13 6.34923e-13 7.01534e-13 7.01534e-13 7.01534e-13 7.01534e-13 1.1255e-14 1.1255e-14 1.1255e-14 1.1255e-14 7.54555e-13 7.54555e-13 7.54555e-13 7.54555e-13 1.32602e-12 1.32602e-12 1.32602e-12 1.32602e-12 -5.25701e-13 -5.25701e-13 -5.25701e-13 -5.25701e-13 8.93441e-13 8.93441e-13 8.93441e-13 8.93441e-13 -1.32507e-13 -1.32507e-13 -1.32507e-13 -1.32507e-13 3.1681e-13 3.1681e-13 3.1681e-13 3.1681e-13 -4.09873e-14 -4.09873e-14 -4.09873e-14 -4.09873e-14 0 0 0 0 -1.23032e-13 -1.23032e-13 -1.23032e-13 -1.23032e-13 -3.67159e-13 -3.67159e-13 -3.67159e-13 -3.67159e-13 9.59802e-13 9.59802e-13 9.59802e-13 9.59802e-13 1.22945e-13 1.22945e-13 1.22945e-13 1.22945e-13 -1.53365e-12 -1.53365e-12 -1.53365e-12 -1.53365e-12 8.15525e-13 8.15525e-13 8.15525e-13 8.15525e-13 1.19308e-12 1.19308e-12 1.19308e-12 1.19308e-12 -7.36372e-13 -7.36372e-13 -7.36372e-13 -7.36372e-13 1.92363e-13 1.92363e-13 1.92363e-13 1.92363e-13 6.75402e-13 6.75402e-13 6.75402e-13 6.75402e-13 -7.17854e-13 -7.17854e-13 -7.17854e-13 -7.17854e-13 1.73582e-12 1.73582e-12 1.73582e-12 1.73582e-12 4.74143e-13 4.74143e-13 4.74143e-13 4.74143e-13 -1.26869e-13 -1.26869e-13 -1.26869e-13 -1.26869e-13 8.65173e-13 8.65173e-13 8.65173e-13 8.65173e-13 5.52032e-13 5.52032e-13 5.52032e-13 5.52032e-13 -4.47943e-13 -4.47943e-13 -4.47943e-13 -4.47943e-13 -4.1013e-13 -4.1013e-13 -4.1013e-13 -4.1013e-13 8.69456e-13 8.69456e-13 8.69456e-13 8.69456e-13 -4.85599e-13 -4.85599e-13 -4.85599e-13 -4.85599e-13 -2.20413e-14 -2.20413e-14 -2.20413e-14 -2.20413e-14 -9.48999e-14 -9.48999e-14 -9.48999e-14 -9.48999e-14 -8.29386e-13 -8.29386e-13 -8.29386e-13 -8.29386e-13 1.55756e-12 1.55756e-12 1.55756e-12 1.55756e-12 1.47752e-12 1.47752e-12 1.47752e-12 1.47752e-12 4.52866e-13 4.52866e-13 4.52866e-13 4.52866e-13 -3.41281e-13 -3.41281e-13 -3.41281e-13 -3.41281e-13 5.36182e-13 5.36182e-13 5.36182e-13 5.36182e-13 5.34208e-13 5.34208e-13 5.34208e-13 5.34208e-13 3.01369e-13 3.01369e-13 3.01369e-13 3.01369e-13 7.57294e-14 7.57294e-14 7.57294e-14 7.57294e-14 4.44089e-13 4.44089e-13 4.44089e-13 4.44089e-13 5.30129e-13 5.30129e-13 5.30129e-13 5.30129e-13 3.43838e-13 3.43838e-13 3.43838e-13 3.43838e-13 2.63695e-13 2.63695e-13 2.63695e-13 2.63695e-13 -3.01005e-13 -3.01005e-13 -3.01005e-13 -3.01005e-13 4.99213e-13 4.99213e-13 4.99213e-13 4.99213e-13 2.02607e-13 2.02607e-13 2.02607e-13 2.02607e-13 3.51639e-13 3.51639e-13 3.51639e-13 3.51639e-13 -3.28939e-13 -3.28939e-13 -3.28939e-13 -3.28939e-13 4.90055e-13 4.90055e-13 4.90055e-13 4.90055e-13 -5.54765e-14 -5.54765e-14 -5.54765e-14 -5.54765e-14 7.05577e-13 7.05577e-13 7.05577e-13 7.05577e-13 -9.66897e-13 -9.66897e-13 -9.66897e-13 -9.66897e-13 -4.7363e-14 -4.7363e-14 -4.7363e-14 -4.7363e-14 5.45929e-13 5.45929e-13 5.45929e-13 5.45929e-13 5.92109e-13 5.92109e-13 5.92109e-13 5.92109e-13 5.08267e-13 5.08267e-13 5.08267e-13 5.08267e-13 5.12354e-13 5.12354e-13 5.12354e-13 5.12354e-13 -1.57442e-13 -1.57442e-13 -1.57442e-13 -1.57442e-13 5.57938e-13 5.57938e-13 5.57938e-13 5.57938e-13 -2.04135e-13 -2.04135e-13 -2.04135e-13 -2.04135e-13 5.94951e-13 5.94951e-13 5.94951e-13 5.94951e-13 -9.73591e-15 -9.73591e-15 -9.73591e-15 -9.73591e-15 -6.44488e-13 -6.44488e-13 -6.44488e-13 -6.44488e-13 7.33327e-14 7.33327e-14 7.33327e-14 7.33327e-14 1.22924e-14 1.22924e-14 1.22924e-14 1.22924e-14 2.92037e-13 2.92037e-13 2.92037e-13 2.92037e-13 7.99843e-13 7.99843e-13 7.99843e-13 7.99843e-13 6.86445e-13 6.86445e-13 6.86445e-13 6.86445e-13 6.59081e-13 6.59081e-13 6.59081e-13 6.59081e-13 8.68187e-14 8.68187e-14 8.68187e-14 8.68187e-14 4.12538e-13 4.12538e-13 4.12538e-13 4.12538e-13 4.54626e-13 4.54626e-13 4.54626e-13 4.54626e-13 -2.60503e-13 -2.60503e-13 -2.60503e-13 -2.60503e-13 7.89886e-14 7.89886e-14 7.89886e-14 7.89886e-14 4.667e-14 4.667e-14 4.667e-14 4.667e-14 2.08167e-13 2.08167e-13 2.08167e-13 2.08167e-13 1.20055e-13 1.20055e-13 1.20055e-13 1.20055e-13 9.75171e-13 9.75171e-13 9.75171e-13 9.75171e-13 -5.0359e-13 -5.0359e-13 -5.0359e-13 -5.0359e-13 -5.14513e-13 -5.14513e-13 -5.14513e-13 -5.14513e-13 4.61696e-13 4.61696e-13 4.61696e-13 4.61696e-13 1.03254e-12 1.03254e-12 1.03254e-12 1.03254e-12 1.83732e-13 1.83732e-13 1.83732e-13 1.83732e-13 2.29775e-14 2.29775e-14 2.29775e-14 2.29775e-14 -4.4043e-13 -4.4043e-13 -4.4043e-13 -4.4043e-13 1.20361e-13 1.20361e-13 1.20361e-13 1.20361e-13 1.02204e-13 1.02204e-13 1.02204e-13 1.02204e-13 3.86033e-13 3.86033e-13 3.86033e-13 3.86033e-13 1.40045e-12 1.40045e-12 1.40045e-12 1.40045e-12 1.22849e-12 1.22849e-12 1.22849e-12 1.22849e-12 4.06028e-14 4.06028e-14 4.06028e-14 4.06028e-14 3.23339e-14 3.23339e-14 3.23339e-14 3.23339e-14 -7.87179e-13 -7.87179e-13 -7.87179e-13 -7.87179e-13 -7.09267e-13 -7.09267e-13 -7.09267e-13 -7.09267e-13 4.44089e-13 4.44089e-13 4.44089e-13 4.44089e-13 4.44089e-13 4.44089e-13 4.44089e-13 4.44089e-13 -4.58472e-13 -4.58472e-13 -4.58472e-13 -4.58472e-13 -1.04381e-12 -1.04381e-12 -1.04381e-12 -1.04381e-12 1.49802e-13 1.49802e-13 1.49802e-13 1.49802e-13 -4.54209e-13 -4.54209e-13 -4.54209e-13 -4.54209e-13 4.44089e-13 4.44089e-13 4.44089e-13 4.44089e-13 -1.63955e-14 -1.63955e-14 -1.63955e-14 -1.63955e-14 1.92775e-13 1.92775e-13 1.92775e-13 1.92775e-13 -1.11022e-13 -1.11022e-13 -1.11022e-13 -1.11022e-13 0 0 0 0 -6.2888e-13 -6.2888e-13 -6.2888e-13 -6.2888e-13 1.60947e-13 1.60947e-13 1.60947e-13 1.60947e-13 -4.64705e-13 -4.64705e-13 -4.64705e-13 -4.64705e-13 9.49496e-13 9.49496e-13 9.49496e-13 9.49496e-13 2.77637e-14 2.77637e-14 2.77637e-14 2.77637e-14 -1.11252e-12 -1.11252e-12 -1.11252e-12 -1.11252e-12 -1.04381e-14 -1.04381e-14 -1.04381e-14 -1.04381e-14 2.32499e-13 2.32499e-13 2.32499e-13 2.32499e-13 1.97739e-13 1.97739e-13 1.97739e-13 1.97739e-13 -3.67076e-13 -3.67076e-13 -3.67076e-13 -3.67076e-13 1.36778e-12 1.36778e-12 1.36778e-12 1.36778e-12 1.45557e-12 1.45557e-12 1.45557e-12 1.45557e-12 -4.62808e-13 -4.62808e-13 -4.62808e-13 -4.62808e-13 8.34749e-13 8.34749e-13 8.34749e-13 8.34749e-13 3.43358e-13 3.43358e-13 3.43358e-13 3.43358e-13 2.04648e-13 2.04648e-13 2.04648e-13 2.04648e-13 -6.87171e-13 -6.87171e-13 -6.87171e-13 -6.87171e-13 2.34096e-12 2.34096e-12 2.34096e-12 2.34096e-12 -4.89284e-13 -4.89284e-13 -4.89284e-13 -4.89284e-13 2.07678e-13 2.07678e-13 2.07678e-13 2.07678e-13 5.95993e-13 5.95993e-13 5.95993e-13 5.95993e-13 9.20341e-14 9.20341e-14 9.20341e-14 9.20341e-14 1.07919e-12 1.07919e-12 1.07919e-12 1.07919e-12 -6.53995e-14 -6.53995e-14 -6.53995e-14 -6.53995e-14 -1.38461e-13 -1.38461e-13 -1.38461e-13 -1.38461e-13 8.39042e-14 8.39042e-14 8.39042e-14 8.39042e-14 -6.53558e-13 -6.53558e-13 -6.53558e-13 -6.53558e-13 4.24621e-13 4.24621e-13 4.24621e-13 4.24621e-13 3.65915e-15 3.65915e-15 3.65915e-15 3.65915e-15 -6.20498e-13 -6.20498e-13 -6.20498e-13 -6.20498e-13 -2.62479e-14 -2.62479e-14 -2.62479e-14 -2.62479e-14 -2.86873e-14 -2.86873e-14 -2.86873e-14 -2.86873e-14 0 0 0 0 4.44089e-13 4.44089e-13 4.44089e-13 4.44089e-13 9.78404e-14 9.78404e-14 9.78404e-14 9.78404e-14 7.04403e-13 7.04403e-13 7.04403e-13 7.04403e-13 -4.15162e-13 -4.15162e-13 -4.15162e-13 -4.15162e-13 4.76723e-13 4.76723e-13 4.76723e-13 4.76723e-13 2.27597e-13 2.27597e-13 2.27597e-13 2.27597e-13 9.87959e-13 9.87959e-13 9.87959e-13 9.87959e-13 -4.85188e-14 -4.85188e-14 -4.85188e-14 -4.85188e-14 6.12529e-14 6.12529e-14 6.12529e-14 6.12529e-14 -9.95061e-13 -9.95061e-13 -9.95061e-13 -9.95061e-13 -7.86322e-13 -7.86322e-13 -7.86322e-13 -7.86322e-13 -1.3814e-14 -1.3814e-14 -1.3814e-14 -1.3814e-14 1.0783e-12 1.0783e-12 1.0783e-12 1.0783e-12 1.52881e-13 1.52881e-13 1.52881e-13 1.52881e-13 4.67072e-13 4.67072e-13 4.67072e-13 4.67072e-13 3.76119e-14 3.76119e-14 3.76119e-14 3.76119e-14 7.37557e-13 7.37557e-13 7.37557e-13 7.37557e-13 -7.53722e-13 -7.53722e-13 -7.53722e-13 -7.53722e-13 7.22241e-14 7.22241e-14 7.22241e-14 7.22241e-14 6.94864e-13 6.94864e-13 6.94864e-13 6.94864e-13 6.7304e-13 6.7304e-13 6.7304e-13 6.7304e-13 1.40213e-12 1.40213e-12 1.40213e-12 1.40213e-12 2.11588e-14 2.11588e-14 2.11588e-14 2.11588e-14 5.76939e-14 5.76939e-14 5.76939e-14 5.76939e-14 6.59373e-14 6.59373e-14 6.59373e-14 6.59373e-14 3.57421e-14 3.57421e-14 3.57421e-14 3.57421e-14 1.43295e-12 1.43295e-12 1.43295e-12 1.43295e-12 -3.29739e-14 -3.29739e-14 -3.29739e-14 -3.29739e-14 -7.21527e-13 -7.21527e-13 -7.21527e-13 -7.21527e-13 1.17479e-12 1.17479e-12 1.17479e-12 1.17479e-12 1.74118e-13 1.74118e-13 1.74118e-13 1.74118e-13 9.7851e-13 9.7851e-13 9.7851e-13 9.7851e-13 8.53848e-13 8.53848e-13 8.53848e-13 8.53848e-13 1.86627e-13 1.86627e-13 1.86627e-13 1.86627e-13 1.64832e-13 1.64832e-13 1.64832e-13 1.64832e-13 -6.73319e-14 -6.73319e-14 -6.73319e-14 -6.73319e-14 2.01393e-13 2.01393e-13 2.01393e-13 2.01393e-13 9.06466e-13 9.06466e-13 9.06466e-13 9.06466e-13 -1.11025e-13 -1.11025e-13 -1.11025e-13 -1.11025e-13 9.25938e-13 9.25938e-13 9.25938e-13 9.25938e-13 -6.8051e-13 -6.8051e-13 -6.8051e-13 -6.8051e-13 3.84932e-13 3.84932e-13 3.84932e-13 3.84932e-13 4.35354e-13 4.35354e-13 4.35354e-13 4.35354e-13 3.58235e-13 3.58235e-13 3.58235e-13 3.58235e-13 -3.23997e-13 -3.23997e-13 -3.23997e-13 -3.23997e-13 -7.15854e-15 -7.15854e-15 -7.15854e-15 -7.15854e-15 -2.94113e-13 -2.94113e-13 -2.94113e-13 -2.94113e-13 2.40658e-13 2.40658e-13 2.40658e-13 2.40658e-13 3.25098e-13 3.25098e-13 3.25098e-13 3.25098e-13 3.19981e-13 3.19981e-13 3.19981e-13 3.19981e-13 2.15649e-13 2.15649e-13 2.15649e-13 2.15649e-13 -3.29649e-14 -3.29649e-14 -3.29649e-14 -3.29649e-14 0.00014817 0.00014817 0.00014817 0.00014817 8.03258e-15 8.03258e-15 8.03258e-15 8.03258e-15 6.65741e-14 6.65741e-14 6.65741e-14 6.65741e-14 -3.94906e-13 -3.94906e-13 -3.94906e-13 -3.94906e-13 5.25232e-14 5.25232e-14 5.25232e-14 5.25232e-14 8.40094e-13 8.40094e-13 8.40094e-13 8.40094e-13 2.81417e-13 2.81417e-13 2.81417e-13 2.81417e-13 9.49541e-13 9.49541e-13 9.49541e-13 9.49541e-13 1.07401e-12 1.07401e-12 1.07401e-12 1.07401e-12 -7.68549e-13 -7.68549e-13 -7.68549e-13 -7.68549e-13 6.59661e-14 6.59661e-14 6.59661e-14 6.59661e-14 1.70495e-13 1.70495e-13 1.70495e-13 1.70495e-13 1.14493e-12 1.14493e-12 1.14493e-12 1.14493e-12 4.17222e-13 4.17222e-13 4.17222e-13 4.17222e-13 0.000149368 0.000149368 0.000149368 0.000149368 -5.69495e-13 -5.69495e-13 -5.69495e-13 -5.69495e-13 -4.24571e-13 -4.24571e-13 -4.24571e-13 -4.24571e-13 5.00784e-14 5.00784e-14 5.00784e-14 5.00784e-14 6.29959e-13 6.29959e-13 6.29959e-13 6.29959e-13 1.38156e-12 1.38156e-12 1.38156e-12 1.38156e-12 6.57089e-13 6.57089e-13 6.57089e-13 6.57089e-13 1.53535e-13 1.53535e-13 1.53535e-13 1.53535e-13 -9.02704e-15 -9.02704e-15 -9.02704e-15 -9.02704e-15 -4.44089e-13 -4.44089e-13 -4.44089e-13 -4.44089e-13 -6.58464e-13 -6.58464e-13 -6.58464e-13 -6.58464e-13 1.91306e-14 1.91306e-14 1.91306e-14 1.91306e-14 2.68041e-12 2.68041e-12 2.68041e-12 2.68041e-12 -2.40488e-13 -2.40488e-13 -2.40488e-13 -2.40488e-13 7.34739e-13 7.34739e-13 7.34739e-13 7.34739e-13 5.35661e-13 5.35661e-13 5.35661e-13 5.35661e-13 -2.14642e-14 -2.14642e-14 -2.14642e-14 -2.14642e-14 8.27961e-13 8.27961e-13 8.27961e-13 8.27961e-13 -5.0068e-14 -5.0068e-14 -5.0068e-14 -5.0068e-14 5.29625e-13 5.29625e-13 5.29625e-13 5.29625e-13 5.48121e-14 5.48121e-14 5.48121e-14 5.48121e-14 1.40869e-13 1.40869e-13 1.40869e-13 1.40869e-13 7.90978e-14 7.90978e-14 7.90978e-14 7.90978e-14 1.23985e-13 1.23985e-13 1.23985e-13 1.23985e-13 -5.61952e-13 -5.61952e-13 -5.61952e-13 -5.61952e-13 4.28247e-14 4.28247e-14 4.28247e-14 4.28247e-14 8.35455e-13 8.35455e-13 8.35455e-13 8.35455e-13 -3.88282e-13 -3.88282e-13 -3.88282e-13 -3.88282e-13 -6.41052e-13 -6.41052e-13 -6.41052e-13 -6.41052e-13 9.80822e-13 9.80822e-13 9.80822e-13 9.80822e-13 6.9816e-13 6.9816e-13 6.9816e-13 6.9816e-13 -7.29423e-13 -7.29423e-13 -7.29423e-13 -7.29423e-13 -7.84695e-07 -7.84695e-07 -7.84695e-07 -7.84695e-07 -4.10604e-13 -4.10604e-13 -4.10604e-13 -4.10604e-13 3.74253e-14 3.74253e-14 3.74253e-14 3.74253e-14 -5.85865e-13 -5.85865e-13 -5.85865e-13 -5.85865e-13 9.28724e-13 9.28724e-13 9.28724e-13 9.28724e-13 9.07655e-13 9.07655e-13 9.07655e-13 9.07655e-13 1.30678e-12 1.30678e-12 1.30678e-12 1.30678e-12 -3.95046e-14 -3.95046e-14 -3.95046e-14 -3.95046e-14 -5.2618e-13 -5.2618e-13 -5.2618e-13 -5.2618e-13 -9.3932e-13 -9.3932e-13 -9.3932e-13 -9.3932e-13 6.16536 6.16536 6.16536 6.16536 -1.37541e-13 -1.37541e-13 -1.37541e-13 -1.37541e-13 1.01178e-12 1.01178e-12 1.01178e-12 1.01178e-12 -8.10691e-13 -8.10691e-13 -8.10691e-13 -8.10691e-13 1.00621e-12 1.00621e-12 1.00621e-12 1.00621e-12 6.71881e-13 6.71881e-13 6.71881e-13 6.71881e-13 -9.51311e-13 -9.51311e-13 -9.51311e-13 -9.51311e-13 1.55379e-13 1.55379e-13 1.55379e-13 1.55379e-13 4.06503e-14 4.06503e-14 4.06503e-14 4.06503e-14 4.44089e-13 4.44089e-13 4.44089e-13 4.44089e-13 0.00281793 0.00281793 0.00281793 0.00281793 1.07217e-08 1.07217e-08 1.07217e-08 1.07217e-08 -3.33612e-13 -3.33612e-13 -3.33612e-13 -3.33612e-13 -2.18412e-13 -2.18412e-13 -2.18412e-13 -2.18412e-13 -7.50675e-13 -7.50675e-13 -7.50675e-13 -7.50675e-13 9.25817e-13 9.25817e-13 9.25817e-13 9.25817e-13 2.45512e-13 2.45512e-13 2.45512e-13 2.45512e-13 1.00608e-12 1.00608e-12 1.00608e-12 1.00608e-12 9.79541e-13 9.79541e-13 9.79541e-13 9.79541e-13 -8.66143e-14 -8.66143e-14 -8.66143e-14 -8.66143e-14 -4.71744e-13 -4.71744e-13 -4.71744e-13 -4.71744e-13 -2.48314e-12 -2.48314e-12 -2.48314e-12 -2.48314e-12 9.17725e-14 9.17725e-14 9.17725e-14 9.17725e-14 1.76471e-12 1.76471e-12 1.76471e-12 1.76471e-12 -6.27806e-13 -6.27806e-13 -6.27806e-13 -6.27806e-13 -8.07982e-07 -8.07982e-07 -8.07982e-07 -8.07982e-07 1.01665e-12 1.01665e-12 1.01665e-12 1.01665e-12 1.01037e-12 1.01037e-12 1.01037e-12 1.01037e-12 0.00098511 0.00098511 0.00098511 0.00098511 0.00287794 0.00287794 0.00287794 0.00287794 -6.03217e-13 -6.03217e-13 -6.03217e-13 -6.03217e-13 -1.3937e-14 -1.3937e-14 -1.3937e-14 -1.3937e-14 -7.12325e-14 -7.12325e-14 -7.12325e-14 -7.12325e-14 -1.64481e-13 -1.64481e-13 -1.64481e-13 -1.64481e-13 -5.54578e-15 -5.54578e-15 -5.54578e-15 -5.54578e-15 -0.00254141 -0.00254141 -0.00254141 -0.00254141 -5.85468e-13 -5.85468e-13 -5.85468e-13 -5.85468e-13 7.93015e-13 7.93015e-13 7.93015e-13 7.93015e-13 6.01426e-13 6.01426e-13 6.01426e-13 6.01426e-13 1.07968e-12 1.07968e-12 1.07968e-12 1.07968e-12 6.15996 6.15996 6.15996 6.15996 1.97259e-14 1.97259e-14 1.97259e-14 1.97259e-14 -2.04027e-13 -2.04027e-13 -2.04027e-13 -2.04027e-13 1.7659e-12 1.7659e-12 1.7659e-12 1.7659e-12 2.91311e-13 2.91311e-13 2.91311e-13 2.91311e-13 -3.42601e-13 -3.42601e-13 -3.42601e-13 -3.42601e-13 1.10232e-12 1.10232e-12 1.10232e-12 1.10232e-12 1.04047e-13 1.04047e-13 1.04047e-13 1.04047e-13 5.84143e-13 5.84143e-13 5.84143e-13 5.84143e-13 3.17782e-13 3.17782e-13 3.17782e-13 3.17782e-13 -0.00252044 -0.00252044 -0.00252044 -0.00252044 4.17224e-13 4.17224e-13 4.17224e-13 4.17224e-13 -4.83618e-13 -4.83618e-13 -4.83618e-13 -4.83618e-13 6.15622 6.15622 6.15622 6.15622 -3.539e-13 -3.539e-13 -3.539e-13 -3.539e-13 6.14896 6.14896 6.14896 6.14896 -6.24048e-13 -6.24048e-13 -6.24048e-13 -6.24048e-13 -2.50286e-13 -2.50286e-13 -2.50286e-13 -2.50286e-13 6.64353 6.64353 6.64353 6.64353 6.73269e-13 6.73269e-13 6.73269e-13 6.73269e-13 1.05672e-13 1.05672e-13 1.05672e-13 1.05672e-13 1.8065e-13 1.8065e-13 1.8065e-13 1.8065e-13 1.35671e-12 1.35671e-12 1.35671e-12 1.35671e-12 2.12737e-13 2.12737e-13 2.12737e-13 2.12737e-13 7.79771 7.79771 7.79771 7.79771 -0.0025167 -0.0025167 -0.0025167 -0.0025167 8.71519e-13 8.71519e-13 8.71519e-13 8.71519e-13 4.39689e-14 4.39689e-14 4.39689e-14 4.39689e-14 -0.0025771 -0.0025771 -0.0025771 -0.0025771 1.20018e-12 1.20018e-12 1.20018e-12 1.20018e-12 2.96692e-13 2.96692e-13 2.96692e-13 2.96692e-13 -6.40652e-13 -6.40652e-13 -6.40652e-13 -6.40652e-13 1.11149e-08 1.11149e-08 1.11149e-08 1.11149e-08 6.15987 6.15987 6.15987 6.15987 -6.25064e-13 -6.25064e-13 -6.25064e-13 -6.25064e-13 7.987 7.987 7.987 7.987 7.81938 7.81938 7.81938 7.81938 4.19164e-14 4.19164e-14 4.19164e-14 4.19164e-14 1.02961e-12 1.02961e-12 1.02961e-12 1.02961e-12 1.4467e-12 1.4467e-12 1.4467e-12 1.4467e-12 4.12666e-13 4.12666e-13 4.12666e-13 4.12666e-13 -2.22535e-13 -2.22535e-13 -2.22535e-13 -2.22535e-13 6.15934 6.15934 6.15934 6.15934 -2.48831e-12 -2.48831e-12 -2.48831e-12 -2.48831e-12 6.46497e-13 6.46497e-13 6.46497e-13 6.46497e-13 3.16864e-13 3.16864e-13 3.16864e-13 3.16864e-13 1.41469e-12 1.41469e-12 1.41469e-12 1.41469e-12 -5.89107e-14 -5.89107e-14 -5.89107e-14 -5.89107e-14 8.20165e-13 8.20165e-13 8.20165e-13 8.20165e-13 -4.72032e-13 -4.72032e-13 -4.72032e-13 -4.72032e-13 -1.08664e-12 -1.08664e-12 -1.08664e-12 -1.08664e-12 -1.47245e-15 -1.47245e-15 -1.47245e-15 -1.47245e-15 0.00103303 0.00103303 0.00103303 0.00103303 5.28085e-14 5.28085e-14 5.28085e-14 5.28085e-14 -7.77156e-13 -7.77156e-13 -7.77156e-13 -7.77156e-13 6.19749 6.19749 6.19749 6.19749 3.60283e-13 3.60283e-13 3.60283e-13 3.60283e-13 9.54092e-13 9.54092e-13 9.54092e-13 9.54092e-13 -0.00244174 -0.00244174 -0.00244174 -0.00244174 1.20183e-12 1.20183e-12 1.20183e-12 1.20183e-12 6.94723 6.94723 6.94723 6.94723 6.32746e-13 6.32746e-13 6.32746e-13 6.32746e-13 -6.04434e-13 -6.04434e-13 -6.04434e-13 -6.04434e-13 4.43912e-13 4.43912e-13 4.43912e-13 4.43912e-13 3.46152e-14 3.46152e-14 3.46152e-14 3.46152e-14 6.20482 6.20482 6.20482 6.20482 6.9144e-13 6.9144e-13 6.9144e-13 6.9144e-13 6.1675 6.1675 6.1675 6.1675 3.87048e-13 3.87048e-13 3.87048e-13 3.87048e-13 5.55723e-13 5.55723e-13 5.55723e-13 5.55723e-13 6.16519 6.16519 6.16519 6.16519 -4.69472e-13 -4.69472e-13 -4.69472e-13 -4.69472e-13 6.17246 6.17246 6.17246 6.17246 -1.02906e-13 -1.02906e-13 -1.02906e-13 -1.02906e-13 -5.94044e-13 -5.94044e-13 -5.94044e-13 -5.94044e-13 0 0 0 0 9.39908e-15 9.39908e-15 9.39908e-15 9.39908e-15 -4.2662e-13 -4.2662e-13 -4.2662e-13 -4.2662e-13 6.95035e-13 6.95035e-13 6.95035e-13 6.95035e-13 6.90369 6.90369 6.90369 6.90369 8.32353e-13 8.32353e-13 8.32353e-13 8.32353e-13 4.55794e-14 4.55794e-14 4.55794e-14 4.55794e-14 3.05391e-14 3.05391e-14 3.05391e-14 3.05391e-14 1.3914e-13 1.3914e-13 1.3914e-13 1.3914e-13 1.51069e-13 1.51069e-13 1.51069e-13 1.51069e-13 5.73891e-15 5.73891e-15 5.73891e-15 5.73891e-15 5.62856e-13 5.62856e-13 5.62856e-13 5.62856e-13 5.7468e-14 5.7468e-14 5.7468e-14 5.7468e-14 -4.35497e-13 -4.35497e-13 -4.35497e-13 -4.35497e-13 -1.52493e-13 -1.52493e-13 -1.52493e-13 -1.52493e-13 7.08379 7.08379 7.08379 7.08379 7.06593 7.06593 7.06593 7.06593 0.000585135 0.000585135 0.000585135 0.000585135 -1.15793e-13 -1.15793e-13 -1.15793e-13 -1.15793e-13 3.0902e-13 3.0902e-13 3.0902e-13 3.0902e-13 1.85473e-13 1.85473e-13 1.85473e-13 1.85473e-13 2.85123e-14 2.85123e-14 2.85123e-14 2.85123e-14 0.000479675 0.000479675 0.000479675 0.000479675 1.5638e-13 1.5638e-13 1.5638e-13 1.5638e-13 -0.0024298 -0.0024298 -0.0024298 -0.0024298 -0.000504486 -0.000504486 -0.000504486 -0.000504486 6.17584 6.17584 6.17584 6.17584 6.12324 6.12324 6.12324 6.12324 -5.3208e-13 -5.3208e-13 -5.3208e-13 -5.3208e-13 -8.50767e-13 -8.50767e-13 -8.50767e-13 -8.50767e-13 -7.59575e-13 -7.59575e-13 -7.59575e-13 -7.59575e-13 8.5233e-14 8.5233e-14 8.5233e-14 8.5233e-14 -1.64303e-13 -1.64303e-13 -1.64303e-13 -1.64303e-13 1.95077e-13 1.95077e-13 1.95077e-13 1.95077e-13 0 0 0 0 -9.46102e-05 -9.46102e-05 -9.46102e-05 -9.46102e-05 4.44089e-13 4.44089e-13 4.44089e-13 4.44089e-13 6.43071 6.43071 6.43071 6.43071 7.11832e-14 7.11832e-14 7.11832e-14 7.11832e-14 6.17217 6.17217 6.17217 6.17217 6.16135 6.16135 6.16135 6.16135 3.86577e-13 3.86577e-13 3.86577e-13 3.86577e-13 5.87506e-14 5.87506e-14 5.87506e-14 5.87506e-14 -9.16041e-14 -9.16041e-14 -9.16041e-14 -9.16041e-14 -6.77139e-13 -6.77139e-13 -6.77139e-13 -6.77139e-13 3.22955e-14 3.22955e-14 3.22955e-14 3.22955e-14 6.1323 6.1323 6.1323 6.1323 6.12482 6.12482 6.12482 6.12482 -0.00101113 -0.00101113 -0.00101113 -0.00101113 7.27645e-14 7.27645e-14 7.27645e-14 7.27645e-14 2.21047e-14 2.21047e-14 2.21047e-14 2.21047e-14 -0.000499491 -0.000499491 -0.000499491 -0.000499491 6.30675 6.30675 6.30675 6.30675 -6.66134e-13 -6.66134e-13 -6.66134e-13 -6.66134e-13 -1.25537e-13 -1.25537e-13 -1.25537e-13 -1.25537e-13 -0.000136345 -0.000136345 -0.000136345 -0.000136345 -0.000842542 -0.000842542 -0.000842542 -0.000842542 -0.000114079 -0.000114079 -0.000114079 -0.000114079 0.00318386 0.00318386 0.00318386 0.00318386 -7.00319e-15 -7.00319e-15 -7.00319e-15 -7.00319e-15 12.1367 12.1367 12.1367 12.1367 6.76014 6.76014 6.76014 6.76014 7.0915 7.0915 7.0915 7.0915 1.25104e-13 1.25104e-13 1.25104e-13 1.25104e-13 7.07217 7.07217 7.07217 7.07217 5.06817e-13 5.06817e-13 5.06817e-13 5.06817e-13 6.12341 6.12341 6.12341 6.12341 12.1365 12.1365 12.1365 12.1365 1.42229e-13 1.42229e-13 1.42229e-13 1.42229e-13 0.00399171 0.00399171 0.00399171 0.00399171 3.49104e-14 3.49104e-14 3.49104e-14 3.49104e-14 6.36597e-13 6.36597e-13 6.36597e-13 6.36597e-13 8.94627e-14 8.94627e-14 8.94627e-14 8.94627e-14 7.78754 7.78754 7.78754 7.78754 -5.18399e-13 -5.18399e-13 -5.18399e-13 -5.18399e-13 8.65976e-07 8.65976e-07 8.65976e-07 8.65976e-07 2.38494e-14 2.38494e-14 2.38494e-14 2.38494e-14 4.44089e-13 4.44089e-13 4.44089e-13 4.44089e-13 -3.21372e-13 -3.21372e-13 -3.21372e-13 -3.21372e-13 7.91944 7.91944 7.91944 7.91944 5.96727 5.96727 5.96727 5.96727 4.81869e-13 4.81869e-13 4.81869e-13 4.81869e-13 -9.25739e-05 -9.25739e-05 -9.25739e-05 -9.25739e-05 8.46819e-13 8.46819e-13 8.46819e-13 8.46819e-13 1.95232e-12 1.95232e-12 1.95232e-12 1.95232e-12 7.54283 7.54283 7.54283 7.54283 6.18658e-13 6.18658e-13 6.18658e-13 6.18658e-13 6.16586 6.16586 6.16586 6.16586 2.72659e-13 2.72659e-13 2.72659e-13 2.72659e-13 8.86644e-13 8.86644e-13 8.86644e-13 8.86644e-13 3.82051e-13 3.82051e-13 3.82051e-13 3.82051e-13 -0.00104963 -0.00104963 -0.00104963 -0.00104963 6.16453 6.16453 6.16453 6.16453 1.50937e-13 1.50937e-13 1.50937e-13 1.50937e-13 8.27031e-07 8.27031e-07 8.27031e-07 8.27031e-07 8.89731 8.89731 8.89731 8.89731 0.00299629 0.00299629 0.00299629 0.00299629 7.77801 7.77801 7.77801 7.77801 -8.55583e-13 -8.55583e-13 -8.55583e-13 -8.55583e-13 -1.11022e-12 -1.11022e-12 -1.11022e-12 -1.11022e-12 6.70756 6.70756 6.70756 6.70756 7.8067 7.8067 7.8067 7.8067 12.1365 12.1365 12.1365 12.1365 6.5585e-13 6.5585e-13 6.5585e-13 6.5585e-13 7.09842 7.09842 7.09842 7.09842 7.50672 7.50672 7.50672 7.50672 5.86684e-13 5.86684e-13 5.86684e-13 5.86684e-13 -0.000147907 -0.000147907 -0.000147907 -0.000147907 8.38749 8.38749 8.38749 8.38749 -6.63852e-13 -6.63852e-13 -6.63852e-13 -6.63852e-13 -1.4012e-12 -1.4012e-12 -1.4012e-12 -1.4012e-12 0.00337133 0.00337133 0.00337133 0.00337133 -6.68616e-13 -6.68616e-13 -6.68616e-13 -6.68616e-13 2.17612e-13 2.17612e-13 2.17612e-13 2.17612e-13 -6.66134e-13 -6.66134e-13 -6.66134e-13 -6.66134e-13 7.24378 7.24378 7.24378 7.24378 0.000536644 0.000536644 0.000536644 0.000536644 1.87031e-14 1.87031e-14 1.87031e-14 1.87031e-14 -5.96879e-13 -5.96879e-13 -5.96879e-13 -5.96879e-13 2.95678e-14 2.95678e-14 2.95678e-14 2.95678e-14 -9.95526e-14 -9.95526e-14 -9.95526e-14 -9.95526e-14 12.1365 12.1365 12.1365 12.1365 12.1365 12.1365 12.1365 12.1365 7.07094 7.07094 7.07094 7.07094 9.22824 9.22824 9.22824 9.22824 1.50826e-12 1.50826e-12 1.50826e-12 1.50826e-12 -0.000147907 -0.000147907 -0.000147907 -0.000147907 0.00060974 0.00060974 0.00060974 0.00060974 4.59407e-13 4.59407e-13 4.59407e-13 4.59407e-13 6.97747 6.97747 6.97747 6.97747 6.9725e-13 6.9725e-13 6.9725e-13 6.9725e-13 7.78797 7.78797 7.78797 7.78797 -0.00124672 -0.00124672 -0.00124672 -0.00124672 7.82177 7.82177 7.82177 7.82177 12.1367 12.1367 12.1367 12.1367 8.34498 8.34498 8.34498 8.34498 1.60833e-12 1.60833e-12 1.60833e-12 1.60833e-12 -2.22045e-13 -2.22045e-13 -2.22045e-13 -2.22045e-13 -1.11022e-12 -1.11022e-12 -1.11022e-12 -1.11022e-12 -3.50866e-13 -3.50866e-13 -3.50866e-13 -3.50866e-13 7.87325 7.87325 7.87325 7.87325 1.05378e-12 1.05378e-12 1.05378e-12 1.05378e-12 2.65058e-13 2.65058e-13 2.65058e-13 2.65058e-13 7.80918 7.80918 7.80918 7.80918 -8.95234e-13 -8.95234e-13 -8.95234e-13 -8.95234e-13 -5.79182e-13 -5.79182e-13 -5.79182e-13 -5.79182e-13 -6.73172e-13 -6.73172e-13 -6.73172e-13 -6.73172e-13 5.82131e-13 5.82131e-13 5.82131e-13 5.82131e-13 7.79177 7.79177 7.79177 7.79177 -4.30572e-13 -4.30572e-13 -4.30572e-13 -4.30572e-13 -7.0843e-08 -7.0843e-08 -7.0843e-08 -7.0843e-08 -6.85139e-13 -6.85139e-13 -6.85139e-13 -6.85139e-13 -8.15012e-14 -8.15012e-14 -8.15012e-14 -8.15012e-14 -2.22045e-13 -2.22045e-13 -2.22045e-13 -2.22045e-13 3.88687e-13 3.88687e-13 3.88687e-13 3.88687e-13 12.1367 12.1367 12.1367 12.1367 -7.05723e-14 -7.05723e-14 -7.05723e-14 -7.05723e-14 -0.000147907 -0.000147907 -0.000147907 -0.000147907 -4.8867e-13 -4.8867e-13 -4.8867e-13 -4.8867e-13 6.97689e-13 6.97689e-13 6.97689e-13 6.97689e-13 4.54636e-13 4.54636e-13 4.54636e-13 4.54636e-13 12.1365 12.1365 12.1365 12.1365 5.12499e-13 5.12499e-13 5.12499e-13 5.12499e-13 12.1365 12.1365 12.1365 12.1365 -3.79349e-13 -3.79349e-13 -3.79349e-13 -3.79349e-13 7.87666e-13 7.87666e-13 7.87666e-13 7.87666e-13 7.63815e-15 7.63815e-15 7.63815e-15 7.63815e-15 -2.88607e-14 -2.88607e-14 -2.88607e-14 -2.88607e-14 -7.55914e-13 -7.55914e-13 -7.55914e-13 -7.55914e-13 3.05721e-13 3.05721e-13 3.05721e-13 3.05721e-13 3.23701e-13 3.23701e-13 3.23701e-13 3.23701e-13 4.40389e-13 4.40389e-13 4.40389e-13 4.40389e-13 7.18393e-13 7.18393e-13 7.18393e-13 7.18393e-13 1.99783e-13 1.99783e-13 1.99783e-13 1.99783e-13 4.85072e-13 4.85072e-13 4.85072e-13 4.85072e-13 4.71044e-13 4.71044e-13 4.71044e-13 4.71044e-13 4.01013e-13 4.01013e-13 4.01013e-13 4.01013e-13 1.31134e-13 1.31134e-13 1.31134e-13 1.31134e-13 4.78236e-13 4.78236e-13 4.78236e-13 4.78236e-13 -1.11022e-12 -1.11022e-12 -1.11022e-12 -1.11022e-12 6.92188e-13 6.92188e-13 6.92188e-13 6.92188e-13 -6.66134e-13 -6.66134e-13 -6.66134e-13 -6.66134e-13 7.45313e-13 7.45313e-13 7.45313e-13 7.45313e-13 -7.07329e-13 -7.07329e-13 -7.07329e-13 -7.07329e-13 -2.81954e-13 -2.81954e-13 -2.81954e-13 -2.81954e-13 6.27855e-13 6.27855e-13 6.27855e-13 6.27855e-13 4.0711e-13 4.0711e-13 4.0711e-13 4.0711e-13 3.97837e-13 3.97837e-13 3.97837e-13 3.97837e-13 -2.83329e-13 -2.83329e-13 -2.83329e-13 -2.83329e-13 4.09944e-13 4.09944e-13 4.09944e-13 4.09944e-13 -8.67996e-08 -8.67996e-08 -8.67996e-08 -8.67996e-08 -2.94975e-13 -2.94975e-13 -2.94975e-13 -2.94975e-13 6.07492e-13 6.07492e-13 6.07492e-13 6.07492e-13 1.33763e-12 1.33763e-12 1.33763e-12 1.33763e-12 3.8459e-13 3.8459e-13 3.8459e-13 3.8459e-13 12.1365 12.1365 12.1365 12.1365 2.5755e-13 2.5755e-13 2.5755e-13 2.5755e-13 2.65058e-13 2.65058e-13 2.65058e-13 2.65058e-13 6.15287e-13 6.15287e-13 6.15287e-13 6.15287e-13 1.99873e-13 1.99873e-13 1.99873e-13 1.99873e-13 12.1365 12.1365 12.1365 12.1365 2.48502e-13 2.48502e-13 2.48502e-13 2.48502e-13 -2.22045e-13 -2.22045e-13 -2.22045e-13 -2.22045e-13 3.87665e-14 3.87665e-14 3.87665e-14 3.87665e-14 3.96229e-13 3.96229e-13 3.96229e-13 3.96229e-13 9.86364 9.86364 9.86364 9.86364 -1.33998e-13 -1.33998e-13 -1.33998e-13 -1.33998e-13 12.1365 12.1365 12.1365 12.1365 9.89838 9.89838 9.89838 9.89838 -2.36025e-13 -2.36025e-13 -2.36025e-13 -2.36025e-13 1.03749e-13 1.03749e-13 1.03749e-13 1.03749e-13 4.73125e-13 4.73125e-13 4.73125e-13 4.73125e-13 7.13737e-13 7.13737e-13 7.13737e-13 7.13737e-13 -7.64763e-13 -7.64763e-13 -7.64763e-13 -7.64763e-13 7.12343e-13 7.12343e-13 7.12343e-13 7.12343e-13 -4.84975e-13 -4.84975e-13 -4.84975e-13 -4.84975e-13 5.02865e-13 5.02865e-13 5.02865e-13 5.02865e-13 -6.9958e-13 -6.9958e-13 -6.9958e-13 -6.9958e-13 -0.00160932 -0.00160932 -0.00160932 -0.00160932 6.55327 6.55327 6.55327 6.55327 1.90559e-13 1.90559e-13 1.90559e-13 1.90559e-13 -5.94317e-05 -5.94317e-05 -5.94317e-05 -5.94317e-05 9.91305 9.91305 9.91305 9.91305 0.000423207 0.000423207 0.000423207 0.000423207 -4.45425e-13 -4.45425e-13 -4.45425e-13 -4.45425e-13 6.52079 6.52079 6.52079 6.52079 0.00160262 0.00160262 0.00160262 0.00160262 9.70625e-13 9.70625e-13 9.70625e-13 9.70625e-13 9.93015 9.93015 9.93015 9.93015 -3.21189e-08 -3.21189e-08 -3.21189e-08 -3.21189e-08 6.54772 6.54772 6.54772 6.54772 7.89124e-05 7.89124e-05 7.89124e-05 7.89124e-05 6.83406e-13 6.83406e-13 6.83406e-13 6.83406e-13 5.99602e-13 5.99602e-13 5.99602e-13 5.99602e-13 9.91354 9.91354 9.91354 9.91354 5.68512e-09 5.68512e-09 5.68512e-09 5.68512e-09 6.55165 6.55165 6.55165 6.55165 6.55435 6.55435 6.55435 6.55435 7.39795 7.39795 7.39795 7.39795 1.17056e-13 1.17056e-13 1.17056e-13 1.17056e-13 0.000185155 0.000185155 0.000185155 0.000185155 6.5738e-05 6.5738e-05 6.5738e-05 6.5738e-05 4.51495e-13 4.51495e-13 4.51495e-13 4.51495e-13 0.000197147 0.000197147 0.000197147 0.000197147 -0.000268471 -0.000268471 -0.000268471 -0.000268471 -0.00160639 -0.00160639 -0.00160639 -0.00160639 7.40467 7.40467 7.40467 7.40467 7.37809 7.37809 7.37809 7.37809 -3.02763e-13 -3.02763e-13 -3.02763e-13 -3.02763e-13 6.52996 6.52996 6.52996 6.52996 6.53835 6.53835 6.53835 6.53835 -4.29676e-07 -4.29676e-07 -4.29676e-07 -4.29676e-07 6.54807 6.54807 6.54807 6.54807 -0.000541203 -0.000541203 -0.000541203 -0.000541203 7.41381 7.41381 7.41381 7.41381 3.83979e-13 3.83979e-13 3.83979e-13 3.83979e-13 0.000522788 0.000522788 0.000522788 0.000522788 9.97243 9.97243 9.97243 9.97243 -0.00138519 -0.00138519 -0.00138519 -0.00138519 9.9908 9.9908 9.9908 9.9908 -4.63946e-13 -4.63946e-13 -4.63946e-13 -4.63946e-13 -3.16278e-13 -3.16278e-13 -3.16278e-13 -3.16278e-13 -3.64522e-13 -3.64522e-13 -3.64522e-13 -3.64522e-13 -6.26929e-13 -6.26929e-13 -6.26929e-13 -6.26929e-13 0.000267284 0.000267284 0.000267284 0.000267284 3.71678e-08 3.71678e-08 3.71678e-08 3.71678e-08 0.000278649 0.000278649 0.000278649 0.000278649 6.58382 6.58382 6.58382 6.58382 7.43095 7.43095 7.43095 7.43095 9.95485 9.95485 9.95485 9.95485 6.59469 6.59469 6.59469 6.59469 7.44436 7.44436 7.44436 7.44436 7.4304 7.4304 7.4304 7.4304 4.90814e-13 4.90814e-13 4.90814e-13 4.90814e-13 7.43235 7.43235 7.43235 7.43235 4.20601e-07 4.20601e-07 4.20601e-07 4.20601e-07 0.00162659 0.00162659 0.00162659 0.00162659 6.5978 6.5978 6.5978 6.5978 6.58175 6.58175 6.58175 6.58175 -0.000220487 -0.000220487 -0.000220487 -0.000220487 6.64661 6.64661 6.64661 6.64661 0.00199452 0.00199452 0.00199452 0.00199452 6.59652 6.59652 6.59652 6.59652 6.59779 6.59779 6.59779 6.59779 -0.00051892 -0.00051892 -0.00051892 -0.00051892 6.63624 6.63624 6.63624 6.63624 1.58491e-13 1.58491e-13 1.58491e-13 1.58491e-13 8.54043e-13 8.54043e-13 8.54043e-13 8.54043e-13 -4.56346e-13 -4.56346e-13 -4.56346e-13 -4.56346e-13 -8.51563e-13 -8.51563e-13 -8.51563e-13 -8.51563e-13 1.47446e-13 1.47446e-13 1.47446e-13 1.47446e-13 1.74001e-13 1.74001e-13 1.74001e-13 1.74001e-13 4.62444e-13 4.62444e-13 4.62444e-13 4.62444e-13 8.47683e-13 8.47683e-13 8.47683e-13 8.47683e-13 -8.85961e-13 -8.85961e-13 -8.85961e-13 -8.85961e-13 6.70237e-13 6.70237e-13 6.70237e-13 6.70237e-13 -3.29336e-13 -3.29336e-13 -3.29336e-13 -3.29336e-13 -5.48627e-13 -5.48627e-13 -5.48627e-13 -5.48627e-13 1.3553e-13 1.3553e-13 1.3553e-13 1.3553e-13 -8.88178e-13 -8.88178e-13 -8.88178e-13 -8.88178e-13 -7.29002e-14 -7.29002e-14 -7.29002e-14 -7.29002e-14 3.328e-13 3.328e-13 3.328e-13 3.328e-13 5.67083e-13 5.67083e-13 5.67083e-13 5.67083e-13 -3.0538e-13 -3.0538e-13 -3.0538e-13 -3.0538e-13 -6.80914e-13 -6.80914e-13 -6.80914e-13 -6.80914e-13 -5.04721e-13 -5.04721e-13 -5.04721e-13 -5.04721e-13 -2.08906e-12 -2.08906e-12 -2.08906e-12 -2.08906e-12 1.13578e-13 1.13578e-13 1.13578e-13 1.13578e-13 1.5062e-12 1.5062e-12 1.5062e-12 1.5062e-12 1.11022e-13 1.11022e-13 1.11022e-13 1.11022e-13 -4.80163e-13 -4.80163e-13 -4.80163e-13 -4.80163e-13 1.63474e-13 1.63474e-13 1.63474e-13 1.63474e-13 -4.54258e-13 -4.54258e-13 -4.54258e-13 -4.54258e-13 1.49579e-13 1.49579e-13 1.49579e-13 1.49579e-13 -6.07366e-13 -6.07366e-13 -6.07366e-13 -6.07366e-13 -4.10159e-13 -4.10159e-13 -4.10159e-13 -4.10159e-13 -3.96546e-13 -3.96546e-13 -3.96546e-13 -3.96546e-13 -3.37386e-14 -3.37386e-14 -3.37386e-14 -3.37386e-14 8.47606e-13 8.47606e-13 8.47606e-13 8.47606e-13 -6.50338e-14 -6.50338e-14 -6.50338e-14 -6.50338e-14 2.28923e-13 2.28923e-13 2.28923e-13 2.28923e-13 7.47931e-14 7.47931e-14 7.47931e-14 7.47931e-14 5.75849e-13 5.75849e-13 5.75849e-13 5.75849e-13 -2.27563e-13 -2.27563e-13 -2.27563e-13 -2.27563e-13 -2.94768e-13 -2.94768e-13 -2.94768e-13 -2.94768e-13 -7.03476e-13 -7.03476e-13 -7.03476e-13 -7.03476e-13 7.81897e-13 7.81897e-13 7.81897e-13 7.81897e-13 6.93255 6.93255 6.93255 6.93255 7.83378 7.83378 7.83378 7.83378 -1.7006e-14 -1.7006e-14 -1.7006e-14 -1.7006e-14 -9.59878e-14 -9.59878e-14 -9.59878e-14 -9.59878e-14 3.39966e-14 3.39966e-14 3.39966e-14 3.39966e-14 -4.45915e-14 -4.45915e-14 -4.45915e-14 -4.45915e-14 -4.44089e-13 -4.44089e-13 -4.44089e-13 -4.44089e-13 -4.44089e-13 -4.44089e-13 -4.44089e-13 -4.44089e-13 -4.44089e-13 -4.44089e-13 -4.44089e-13 -4.44089e-13 -4.44089e-13 -4.44089e-13 -4.44089e-13 -4.44089e-13 4.63989e-13 4.63989e-13 4.63989e-13 4.63989e-13 -1.92061e-13 -1.92061e-13 -1.92061e-13 -1.92061e-13 6.20294e-13 6.20294e-13 6.20294e-13 6.20294e-13 -8.30647e-13 -8.30647e-13 -8.30647e-13 -8.30647e-13 -9.84397e-13 -9.84397e-13 -9.84397e-13 -9.84397e-13 1.91751e-14 1.91751e-14 1.91751e-14 1.91751e-14 8.18562e-15 8.18562e-15 8.18562e-15 8.18562e-15 -7.66459e-13 -7.66459e-13 -7.66459e-13 -7.66459e-13 2.1446e-13 2.1446e-13 2.1446e-13 2.1446e-13 -6.33761e-13 -6.33761e-13 -6.33761e-13 -6.33761e-13 1.22472e-12 1.22472e-12 1.22472e-12 1.22472e-12 1.05352e-12 1.05352e-12 1.05352e-12 1.05352e-12 9.65252e-13 9.65252e-13 9.65252e-13 9.65252e-13 1.70245e-13 1.70245e-13 1.70245e-13 1.70245e-13 1.30444e-13 1.30444e-13 1.30444e-13 1.30444e-13 1.10421e-12 1.10421e-12 1.10421e-12 1.10421e-12 1.97783e-12 1.97783e-12 1.97783e-12 1.97783e-12 4.1238e-13 4.1238e-13 4.1238e-13 4.1238e-13 2.64549e-12 2.64549e-12 2.64549e-12 2.64549e-12 -3.68606e-13 -3.68606e-13 -3.68606e-13 -3.68606e-13 5.48976e-13 5.48976e-13 5.48976e-13 5.48976e-13 6.92692e-13 6.92692e-13 6.92692e-13 6.92692e-13 5.56348e-13 5.56348e-13 5.56348e-13 5.56348e-13 -6.93291e-13 -6.93291e-13 -6.93291e-13 -6.93291e-13 7.33421e-13 7.33421e-13 7.33421e-13 7.33421e-13 -5.07853e-13 -5.07853e-13 -5.07853e-13 -5.07853e-13 -6.15915e-13 -6.15915e-13 -6.15915e-13 -6.15915e-13 1.71983e-12 1.71983e-12 1.71983e-12 1.71983e-12 -8.48311e-13 -8.48311e-13 -8.48311e-13 -8.48311e-13 -2.30186e-12 -2.30186e-12 -2.30186e-12 -2.30186e-12 -2.84403e-13 -2.84403e-13 -2.84403e-13 -2.84403e-13 1.71589e-13 1.71589e-13 1.71589e-13 1.71589e-13 9.16224e-13 9.16224e-13 9.16224e-13 9.16224e-13 -5.39701e-13 -5.39701e-13 -5.39701e-13 -5.39701e-13 -5.30184e-13 -5.30184e-13 -5.30184e-13 -5.30184e-13 -3.37226e-15 -3.37226e-15 -3.37226e-15 -3.37226e-15 3.26063e-13 3.26063e-13 3.26063e-13 3.26063e-13 1.20608e-12 1.20608e-12 1.20608e-12 1.20608e-12 -6.8782e-13 -6.8782e-13 -6.8782e-13 -6.8782e-13 -4.75836e-13 -4.75836e-13 -4.75836e-13 -4.75836e-13 1.42625e-13 1.42625e-13 1.42625e-13 1.42625e-13 1.54182e-12 1.54182e-12 1.54182e-12 1.54182e-12 -6.21283e-13 -6.21283e-13 -6.21283e-13 -6.21283e-13 -1.20269e-12 -1.20269e-12 -1.20269e-12 -1.20269e-12 2.16266e-13 2.16266e-13 2.16266e-13 2.16266e-13 1.70598e-12 1.70598e-12 1.70598e-12 1.70598e-12 -8.53167e-13 -8.53167e-13 -8.53167e-13 -8.53167e-13 1.48461e-13 1.48461e-13 1.48461e-13 1.48461e-13 5.45501e-13 5.45501e-13 5.45501e-13 5.45501e-13 2.80407e-12 2.80407e-12 2.80407e-12 2.80407e-12 -1.99274e-12 -1.99274e-12 -1.99274e-12 -1.99274e-12 7.67279e-13 7.67279e-13 7.67279e-13 7.67279e-13 -1.77236e-12 -1.77236e-12 -1.77236e-12 -1.77236e-12 3.16887e-13 3.16887e-13 3.16887e-13 3.16887e-13 3.5145e-12 3.5145e-12 3.5145e-12 3.5145e-12 -3.37629e-13 -3.37629e-13 -3.37629e-13 -3.37629e-13 -1.23156e-12 -1.23156e-12 -1.23156e-12 -1.23156e-12 9.37952e-14 9.37952e-14 9.37952e-14 9.37952e-14 3.19078e-14 3.19078e-14 3.19078e-14 3.19078e-14 -1.56849e-13 -1.56849e-13 -1.56849e-13 -1.56849e-13 -3.43785e-14 -3.43785e-14 -3.43785e-14 -3.43785e-14 2.48016e-13 2.48016e-13 2.48016e-13 2.48016e-13 3.2359e-14 3.2359e-14 3.2359e-14 3.2359e-14 -6.91305e-13 -6.91305e-13 -6.91305e-13 -6.91305e-13 -5.93693e-14 -5.93693e-14 -5.93693e-14 -5.93693e-14 2.51543e-12 2.51543e-12 2.51543e-12 2.51543e-12 6.43878e-13 6.43878e-13 6.43878e-13 6.43878e-13 -2.0873e-13 -2.0873e-13 -2.0873e-13 -2.0873e-13 -8.61413e-13 -8.61413e-13 -8.61413e-13 -8.61413e-13 2.20723e-12 2.20723e-12 2.20723e-12 2.20723e-12 1.50122e-14 1.50122e-14 1.50122e-14 1.50122e-14 2.23084e-13 2.23084e-13 2.23084e-13 2.23084e-13 -1.52526e-12 -1.52526e-12 -1.52526e-12 -1.52526e-12 3.96746e-13 3.96746e-13 3.96746e-13 3.96746e-13 -2.0601e-13 -2.0601e-13 -2.0601e-13 -2.0601e-13 3.92798e-13 3.92798e-13 3.92798e-13 3.92798e-13 3.6419e-13 3.6419e-13 3.6419e-13 3.6419e-13 9.03135e-13 9.03135e-13 9.03135e-13 9.03135e-13 -7.23339e-13 -7.23339e-13 -7.23339e-13 -7.23339e-13 3.21456e-14 3.21456e-14 3.21456e-14 3.21456e-14 -1.31368e-13 -1.31368e-13 -1.31368e-13 -1.31368e-13 1.93457e-12 1.93457e-12 1.93457e-12 1.93457e-12 3.39113e-12 3.39113e-12 3.39113e-12 3.39113e-12 5.2642e-13 5.2642e-13 5.2642e-13 5.2642e-13 -3.29951e-14 -3.29951e-14 -3.29951e-14 -3.29951e-14 7.83343e-13 7.83343e-13 7.83343e-13 7.83343e-13 4.31977e-13 4.31977e-13 4.31977e-13 4.31977e-13 -1.08032e-12 -1.08032e-12 -1.08032e-12 -1.08032e-12 -7.97974e-13 -7.97974e-13 -7.97974e-13 -7.97974e-13 6.15453e-13 6.15453e-13 6.15453e-13 6.15453e-13 1.81078e-12 1.81078e-12 1.81078e-12 1.81078e-12 2.4825e-12 2.4825e-12 2.4825e-12 2.4825e-12 7.88953e-14 7.88953e-14 7.88953e-14 7.88953e-14 -6.16035e-13 -6.16035e-13 -6.16035e-13 -6.16035e-13 -4.59343e-13 -4.59343e-13 -4.59343e-13 -4.59343e-13 -8.46818e-14 -8.46818e-14 -8.46818e-14 -8.46818e-14 -5.50882e-13 -5.50882e-13 -5.50882e-13 -5.50882e-13 -3.42305e-13 -3.42305e-13 -3.42305e-13 -3.42305e-13 -1.15097e-12 -1.15097e-12 -1.15097e-12 -1.15097e-12 8.19107e-13 8.19107e-13 8.19107e-13 8.19107e-13 -9.98384e-13 -9.98384e-13 -9.98384e-13 -9.98384e-13 -3.72436e-13 -3.72436e-13 -3.72436e-13 -3.72436e-13 7.37806e-13 7.37806e-13 7.37806e-13 7.37806e-13 4.66282e-13 4.66282e-13 4.66282e-13 4.66282e-13 7.70425e-13 7.70425e-13 7.70425e-13 7.70425e-13 6.34625e-13 6.34625e-13 6.34625e-13 6.34625e-13 2.00636e-12 2.00636e-12 2.00636e-12 2.00636e-12 -5.26018e-13 -5.26018e-13 -5.26018e-13 -5.26018e-13 2.67723e-12 2.67723e-12 2.67723e-12 2.67723e-12 3.00186e-13 3.00186e-13 3.00186e-13 3.00186e-13 1.92923e-13 1.92923e-13 1.92923e-13 1.92923e-13 -1.43901e-12 -1.43901e-12 -1.43901e-12 -1.43901e-12 8.28215e-13 8.28215e-13 8.28215e-13 8.28215e-13 4.36199e-13 4.36199e-13 4.36199e-13 4.36199e-13 3.98586e-13 3.98586e-13 3.98586e-13 3.98586e-13 -7.74063e-13 -7.74063e-13 -7.74063e-13 -7.74063e-13 3.18429e-13 3.18429e-13 3.18429e-13 3.18429e-13 -1.921e-14 -1.921e-14 -1.921e-14 -1.921e-14 -4.77156e-13 -4.77156e-13 -4.77156e-13 -4.77156e-13 -1.09342e-12 -1.09342e-12 -1.09342e-12 -1.09342e-12 -5.2691e-13 -5.2691e-13 -5.2691e-13 -5.2691e-13 -5.20916e-13 -5.20916e-13 -5.20916e-13 -5.20916e-13 7.46862e-14 7.46862e-14 7.46862e-14 7.46862e-14 1.5424e-12 1.5424e-12 1.5424e-12 1.5424e-12 -1.06018e-12 -1.06018e-12 -1.06018e-12 -1.06018e-12 2.07514e-12 2.07514e-12 2.07514e-12 2.07514e-12 -7.84467e-14 -7.84467e-14 -7.84467e-14 -7.84467e-14 -9.25357e-13 -9.25357e-13 -9.25357e-13 -9.25357e-13 -1.78258e-12 -1.78258e-12 -1.78258e-12 -1.78258e-12 -1.86835e-13 -1.86835e-13 -1.86835e-13 -1.86835e-13 3.06038e-12 3.06038e-12 3.06038e-12 3.06038e-12 1.91483e-12 1.91483e-12 1.91483e-12 1.91483e-12 1.98227e-14 1.98227e-14 1.98227e-14 1.98227e-14 -8.01452e-13 -8.01452e-13 -8.01452e-13 -8.01452e-13 -1.67229e-12 -1.67229e-12 -1.67229e-12 -1.67229e-12 -9.23999e-13 -9.23999e-13 -9.23999e-13 -9.23999e-13 -4.2937e-13 -4.2937e-13 -4.2937e-13 -4.2937e-13 2.754e-13 2.754e-13 2.754e-13 2.754e-13 1.58978e-13 1.58978e-13 1.58978e-13 1.58978e-13 3.08001e-13 3.08001e-13 3.08001e-13 3.08001e-13 1.13462e-12 1.13462e-12 1.13462e-12 1.13462e-12 -1.87542e-12 -1.87542e-12 -1.87542e-12 -1.87542e-12 -5.29715e-15 -5.29715e-15 -5.29715e-15 -5.29715e-15 7.14696e-13 7.14696e-13 7.14696e-13 7.14696e-13 3.79895e-13 3.79895e-13 3.79895e-13 3.79895e-13 9.69634e-13 9.69634e-13 9.69634e-13 9.69634e-13 -6.29618e-13 -6.29618e-13 -6.29618e-13 -6.29618e-13 1.3618e-12 1.3618e-12 1.3618e-12 1.3618e-12 -5.26146e-13 -5.26146e-13 -5.26146e-13 -5.26146e-13 1.33991e-12 1.33991e-12 1.33991e-12 1.33991e-12 -4.17901e-13 -4.17901e-13 -4.17901e-13 -4.17901e-13 -1.06756e-13 -1.06756e-13 -1.06756e-13 -1.06756e-13 1.60478e-13 1.60478e-13 1.60478e-13 1.60478e-13 -1.03305e-12 -1.03305e-12 -1.03305e-12 -1.03305e-12 -4.69688e-13 -4.69688e-13 -4.69688e-13 -4.69688e-13 -3.82192e-13 -3.82192e-13 -3.82192e-13 -3.82192e-13 1.51303e-12 1.51303e-12 1.51303e-12 1.51303e-12 5.44236e-13 5.44236e-13 5.44236e-13 5.44236e-13 3.20609e-13 3.20609e-13 3.20609e-13 3.20609e-13 1.53489e-13 1.53489e-13 1.53489e-13 1.53489e-13 -1.37752e-13 -1.37752e-13 -1.37752e-13 -1.37752e-13 1.05489e-12 1.05489e-12 1.05489e-12 1.05489e-12 5.4145e-13 5.4145e-13 5.4145e-13 5.4145e-13 2.81413e-13 2.81413e-13 2.81413e-13 2.81413e-13 -1.79893e-13 -1.79893e-13 -1.79893e-13 -1.79893e-13 1.38971e-12 1.38971e-12 1.38971e-12 1.38971e-12 1.565e-12 1.565e-12 1.565e-12 1.565e-12 -3.70783e-13 -3.70783e-13 -3.70783e-13 -3.70783e-13 -2.72476e-13 -2.72476e-13 -2.72476e-13 -2.72476e-13 1.11022e-13 1.11022e-13 1.11022e-13 1.11022e-13 -3.35713e-13 -3.35713e-13 -3.35713e-13 -3.35713e-13 -3.07545e-13 -3.07545e-13 -3.07545e-13 -3.07545e-13 2.56926e-12 2.56926e-12 2.56926e-12 2.56926e-12 -2.98279e-13 -2.98279e-13 -2.98279e-13 -2.98279e-13 -1.80559e-13 -1.80559e-13 -1.80559e-13 -1.80559e-13 -1.07087e-12 -1.07087e-12 -1.07087e-12 -1.07087e-12 -2.2733e-12 -2.2733e-12 -2.2733e-12 -2.2733e-12 -3.52291e-13 -3.52291e-13 -3.52291e-13 -3.52291e-13 -6.07266e-13 -6.07266e-13 -6.07266e-13 -6.07266e-13 4.72359e-14 4.72359e-14 4.72359e-14 4.72359e-14 -3.7273e-14 -3.7273e-14 -3.7273e-14 -3.7273e-14 5.80113e-14 5.80113e-14 5.80113e-14 5.80113e-14 -1.65924e-12 -1.65924e-12 -1.65924e-12 -1.65924e-12 6.32128e-13 6.32128e-13 6.32128e-13 6.32128e-13 2.74943e-13 2.74943e-13 2.74943e-13 2.74943e-13 1.65681e-12 1.65681e-12 1.65681e-12 1.65681e-12 4.38978e-13 4.38978e-13 4.38978e-13 4.38978e-13 -2.05396e-12 -2.05396e-12 -2.05396e-12 -2.05396e-12 -2.09009e-13 -2.09009e-13 -2.09009e-13 -2.09009e-13 -7.56977e-13 -7.56977e-13 -7.56977e-13 -7.56977e-13 -1.36402e-14 -1.36402e-14 -1.36402e-14 -1.36402e-14 1.25255e-12 1.25255e-12 1.25255e-12 1.25255e-12 -7.04545e-13 -7.04545e-13 -7.04545e-13 -7.04545e-13 1.59071e-12 1.59071e-12 1.59071e-12 1.59071e-12 -7.51267e-13 -7.51267e-13 -7.51267e-13 -7.51267e-13 6.37081e-13 6.37081e-13 6.37081e-13 6.37081e-13 -6.88476e-13 -6.88476e-13 -6.88476e-13 -6.88476e-13 5.62078e-13 5.62078e-13 5.62078e-13 5.62078e-13 2.52752e-13 2.52752e-13 2.52752e-13 2.52752e-13 -7.59519e-13 -7.59519e-13 -7.59519e-13 -7.59519e-13 9.17944e-13 9.17944e-13 9.17944e-13 9.17944e-13 -1.03193e-13 -1.03193e-13 -1.03193e-13 -1.03193e-13 -4.9046e-13 -4.9046e-13 -4.9046e-13 -4.9046e-13 -1.78886e-12 -1.78886e-12 -1.78886e-12 -1.78886e-12 1.0897e-13 1.0897e-13 1.0897e-13 1.0897e-13 3.91292e-13 3.91292e-13 3.91292e-13 3.91292e-13 1.63904e-13 1.63904e-13 1.63904e-13 1.63904e-13 1.46419e-12 1.46419e-12 1.46419e-12 1.46419e-12 -3.82907e-13 -3.82907e-13 -3.82907e-13 -3.82907e-13 -6.23748e-13 -6.23748e-13 -6.23748e-13 -6.23748e-13 2.31622e-13 2.31622e-13 2.31622e-13 2.31622e-13 1.24997e-13 1.24997e-13 1.24997e-13 1.24997e-13 1.3299e-12 1.3299e-12 1.3299e-12 1.3299e-12 1.06434e-12 1.06434e-12 1.06434e-12 1.06434e-12 -2.41414e-13 -2.41414e-13 -2.41414e-13 -2.41414e-13 3.2476e-13 3.2476e-13 3.2476e-13 3.2476e-13 5.57776e-13 5.57776e-13 5.57776e-13 5.57776e-13 -5.40014e-13 -5.40014e-13 -5.40014e-13 -5.40014e-13 -9.1142e-13 -9.1142e-13 -9.1142e-13 -9.1142e-13 1.3891e-12 1.3891e-12 1.3891e-12 1.3891e-12 -2.55489e-13 -2.55489e-13 -2.55489e-13 -2.55489e-13 1.84418e-12 1.84418e-12 1.84418e-12 1.84418e-12 3.15018e-13 3.15018e-13 3.15018e-13 3.15018e-13 5.23392e-13 5.23392e-13 5.23392e-13 5.23392e-13 -2.79319e-12 -2.79319e-12 -2.79319e-12 -2.79319e-12 -3.853e-13 -3.853e-13 -3.853e-13 -3.853e-13 5.92566e-13 5.92566e-13 5.92566e-13 5.92566e-13 -1.08168e-13 -1.08168e-13 -1.08168e-13 -1.08168e-13 -7.43858e-13 -7.43858e-13 -7.43858e-13 -7.43858e-13 -1.65893e-12 -1.65893e-12 -1.65893e-12 -1.65893e-12 1.70761e-12 1.70761e-12 1.70761e-12 1.70761e-12 3.50818e-13 3.50818e-13 3.50818e-13 3.50818e-13 6.95377e-13 6.95377e-13 6.95377e-13 6.95377e-13 6.7945e-13 6.7945e-13 6.7945e-13 6.7945e-13 3.11203e-13 3.11203e-13 3.11203e-13 3.11203e-13 -2.35369e-13 -2.35369e-13 -2.35369e-13 -2.35369e-13 -5.10607e-13 -5.10607e-13 -5.10607e-13 -5.10607e-13 -1.84666e-12 -1.84666e-12 -1.84666e-12 -1.84666e-12 6.00812e-13 6.00812e-13 6.00812e-13 6.00812e-13 -8.93289e-13 -8.93289e-13 -8.93289e-13 -8.93289e-13 4.10529e-13 4.10529e-13 4.10529e-13 4.10529e-13 -1.88045e-13 -1.88045e-13 -1.88045e-13 -1.88045e-13 -1.6808e-12 -1.6808e-12 -1.6808e-12 -1.6808e-12 6.11677e-14 6.11677e-14 6.11677e-14 6.11677e-14 1.49189e-13 1.49189e-13 1.49189e-13 1.49189e-13 3.28082e-14 3.28082e-14 3.28082e-14 3.28082e-14 -3.17587e-13 -3.17587e-13 -3.17587e-13 -3.17587e-13 -5.11753e-13 -5.11753e-13 -5.11753e-13 -5.11753e-13 5.14112e-13 5.14112e-13 5.14112e-13 5.14112e-13 -1.55995e-14 -1.55995e-14 -1.55995e-14 -1.55995e-14 1.34905e-12 1.34905e-12 1.34905e-12 1.34905e-12 -1.16446e-12 -1.16446e-12 -1.16446e-12 -1.16446e-12 2.08078e-12 2.08078e-12 2.08078e-12 2.08078e-12 9.99918e-14 9.99918e-14 9.99918e-14 9.99918e-14 1.89574e-13 1.89574e-13 1.89574e-13 1.89574e-13 -7.77021e-13 -7.77021e-13 -7.77021e-13 -7.77021e-13 3.26752e-13 3.26752e-13 3.26752e-13 3.26752e-13 -7.95131e-13 -7.95131e-13 -7.95131e-13 -7.95131e-13 -2.74032e-13 -2.74032e-13 -2.74032e-13 -2.74032e-13 -7.89919e-13 -7.89919e-13 -7.89919e-13 -7.89919e-13 1.17551e-13 1.17551e-13 1.17551e-13 1.17551e-13 5.60047e-13 5.60047e-13 5.60047e-13 5.60047e-13 -8.47328e-13 -8.47328e-13 -8.47328e-13 -8.47328e-13 1.56444e-12 1.56444e-12 1.56444e-12 1.56444e-12 4.17052e-13 4.17052e-13 4.17052e-13 4.17052e-13 -2.79794e-13 -2.79794e-13 -2.79794e-13 -2.79794e-13 -5.96195e-13 -5.96195e-13 -5.96195e-13 -5.96195e-13 1.48495e-12 1.48495e-12 1.48495e-12 1.48495e-12 -5.99875e-14 -5.99875e-14 -5.99875e-14 -5.99875e-14 3.50645e-13 3.50645e-13 3.50645e-13 3.50645e-13 7.93497e-13 7.93497e-13 7.93497e-13 7.93497e-13 -2.23978e-13 -2.23978e-13 -2.23978e-13 -2.23978e-13 8.26438e-13 8.26438e-13 8.26438e-13 8.26438e-13 -7.39839e-14 -7.39839e-14 -7.39839e-14 -7.39839e-14 -7.12992e-13 -7.12992e-13 -7.12992e-13 -7.12992e-13 -1.09817e-12 -1.09817e-12 -1.09817e-12 -1.09817e-12 6.86393e-13 6.86393e-13 6.86393e-13 6.86393e-13 1.38445e-14 1.38445e-14 1.38445e-14 1.38445e-14 1.92894e-13 1.92894e-13 1.92894e-13 1.92894e-13 3.32568e-13 3.32568e-13 3.32568e-13 3.32568e-13 -6.08162e-13 -6.08162e-13 -6.08162e-13 -6.08162e-13 5.83749e-13 5.83749e-13 5.83749e-13 5.83749e-13 3.112e-13 3.112e-13 3.112e-13 3.112e-13 3.80496e-13 3.80496e-13 3.80496e-13 3.80496e-13 2.91191e-13 2.91191e-13 2.91191e-13 2.91191e-13 5.21101e-13 5.21101e-13 5.21101e-13 5.21101e-13 6.33951e-13 6.33951e-13 6.33951e-13 6.33951e-13 1.03494e-12 1.03494e-12 1.03494e-12 1.03494e-12 5.39968e-13 5.39968e-13 5.39968e-13 5.39968e-13 -2.27498e-14 -2.27498e-14 -2.27498e-14 -2.27498e-14 1.32224e-14 1.32224e-14 1.32224e-14 1.32224e-14 1.60751e-13 1.60751e-13 1.60751e-13 1.60751e-13 -2.55389e-13 -2.55389e-13 -2.55389e-13 -2.55389e-13 6.46594e-14 6.46594e-14 6.46594e-14 6.46594e-14 -9.38231e-13 -9.38231e-13 -9.38231e-13 -9.38231e-13 -5.26193e-13 -5.26193e-13 -5.26193e-13 -5.26193e-13 2.01896e-13 2.01896e-13 2.01896e-13 2.01896e-13 1.15465e-12 1.15465e-12 1.15465e-12 1.15465e-12 -4.01438e-13 -4.01438e-13 -4.01438e-13 -4.01438e-13 -1.10808e-12 -1.10808e-12 -1.10808e-12 -1.10808e-12 2.91851e-13 2.91851e-13 2.91851e-13 2.91851e-13 8.19363e-13 8.19363e-13 8.19363e-13 8.19363e-13 -1.94292e-14 -1.94292e-14 -1.94292e-14 -1.94292e-14 -4.16356e-13 -4.16356e-13 -4.16356e-13 -4.16356e-13 1.43648e-12 1.43648e-12 1.43648e-12 1.43648e-12 6.4515e-13 6.4515e-13 6.4515e-13 6.4515e-13 -2.27133e-13 -2.27133e-13 -2.27133e-13 -2.27133e-13 -1.59794e-12 -1.59794e-12 -1.59794e-12 -1.59794e-12 -1.4075e-12 -1.4075e-12 -1.4075e-12 -1.4075e-12 1.44027e-13 1.44027e-13 1.44027e-13 1.44027e-13 -1.0822e-13 -1.0822e-13 -1.0822e-13 -1.0822e-13 1.16086e-13 1.16086e-13 1.16086e-13 1.16086e-13 1.20458e-13 1.20458e-13 1.20458e-13 1.20458e-13 5.55112e-13 5.55112e-13 5.55112e-13 5.55112e-13 -5.6679e-13 -5.6679e-13 -5.6679e-13 -5.6679e-13 -2.26558e-13 -2.26558e-13 -2.26558e-13 -2.26558e-13 8.81847e-13 8.81847e-13 8.81847e-13 8.81847e-13 4.43301e-13 4.43301e-13 4.43301e-13 4.43301e-13 -7.22877e-13 -7.22877e-13 -7.22877e-13 -7.22877e-13 -7.9318e-13 -7.9318e-13 -7.9318e-13 -7.9318e-13 2.78557e-13 2.78557e-13 2.78557e-13 2.78557e-13 -8.96088e-13 -8.96088e-13 -8.96088e-13 -8.96088e-13 -1.08003e-12 -1.08003e-12 -1.08003e-12 -1.08003e-12 -2.23381e-12 -2.23381e-12 -2.23381e-12 -2.23381e-12 1.36914e-12 1.36914e-12 1.36914e-12 1.36914e-12 -8.53732e-13 -8.53732e-13 -8.53732e-13 -8.53732e-13 -2.06706e-13 -2.06706e-13 -2.06706e-13 -2.06706e-13 7.54841e-13 7.54841e-13 7.54841e-13 7.54841e-13 -8.69322e-13 -8.69322e-13 -8.69322e-13 -8.69322e-13 1.46076e-13 1.46076e-13 1.46076e-13 1.46076e-13 -1.81983e-14 -1.81983e-14 -1.81983e-14 -1.81983e-14 -1.96334e-12 -1.96334e-12 -1.96334e-12 -1.96334e-12 7.72076e-14 7.72076e-14 7.72076e-14 7.72076e-14 1.16159e-13 1.16159e-13 1.16159e-13 1.16159e-13 -3.25022e-13 -3.25022e-13 -3.25022e-13 -3.25022e-13 1.44114e-15 1.44114e-15 1.44114e-15 1.44114e-15 -1.84279e-13 -1.84279e-13 -1.84279e-13 -1.84279e-13 -4.69086e-14 -4.69086e-14 -4.69086e-14 -4.69086e-14 8.33012e-13 8.33012e-13 8.33012e-13 8.33012e-13 1.06597e-12 1.06597e-12 1.06597e-12 1.06597e-12 -6.39796e-13 -6.39796e-13 -6.39796e-13 -6.39796e-13 1.3861e-12 1.3861e-12 1.3861e-12 1.3861e-12 -2.19245e-12 -2.19245e-12 -2.19245e-12 -2.19245e-12 3.36785e-14 3.36785e-14 3.36785e-14 3.36785e-14 9.13141e-15 9.13141e-15 9.13141e-15 9.13141e-15 -6.82677e-13 -6.82677e-13 -6.82677e-13 -6.82677e-13 -4.32498e-14 -4.32498e-14 -4.32498e-14 -4.32498e-14 2.4852e-13 2.4852e-13 2.4852e-13 2.4852e-13 2.47129e-13 2.47129e-13 2.47129e-13 2.47129e-13 3.45777e-13 3.45777e-13 3.45777e-13 3.45777e-13 -1.18963e-13 -1.18963e-13 -1.18963e-13 -1.18963e-13 1.72072e-13 1.72072e-13 1.72072e-13 1.72072e-13 7.30757e-14 7.30757e-14 7.30757e-14 7.30757e-14 3.85569e-13 3.85569e-13 3.85569e-13 3.85569e-13 -1.95034e-12 -1.95034e-12 -1.95034e-12 -1.95034e-12 4.98832e-13 4.98832e-13 4.98832e-13 4.98832e-13 8.69175e-13 8.69175e-13 8.69175e-13 8.69175e-13 2.39219e-12 2.39219e-12 2.39219e-12 2.39219e-12 -8.37701e-13 -8.37701e-13 -8.37701e-13 -8.37701e-13 -1.84514e-14 -1.84514e-14 -1.84514e-14 -1.84514e-14 1.06598e-12 1.06598e-12 1.06598e-12 1.06598e-12 -1.23126e-12 -1.23126e-12 -1.23126e-12 -1.23126e-12 -3.79961e-13 -3.79961e-13 -3.79961e-13 -3.79961e-13 -2.3396e-13 -2.3396e-13 -2.3396e-13 -2.3396e-13 1.47839e-13 1.47839e-13 1.47839e-13 1.47839e-13 6.39828e-13 6.39828e-13 6.39828e-13 6.39828e-13 4.46625e-13 4.46625e-13 4.46625e-13 4.46625e-13 -1.4317e-12 -1.4317e-12 -1.4317e-12 -1.4317e-12 9.03903e-13 9.03903e-13 9.03903e-13 9.03903e-13 -5.06077e-13 -5.06077e-13 -5.06077e-13 -5.06077e-13 2.07683e-15 2.07683e-15 2.07683e-15 2.07683e-15 -1.2736e-12 -1.2736e-12 -1.2736e-12 -1.2736e-12 -1.08939e-12 -1.08939e-12 -1.08939e-12 -1.08939e-12 3.4171e-13 3.4171e-13 3.4171e-13 3.4171e-13 -6.71397e-13 -6.71397e-13 -6.71397e-13 -6.71397e-13 -1.08054e-12 -1.08054e-12 -1.08054e-12 -1.08054e-12 -3.72321e-13 -3.72321e-13 -3.72321e-13 -3.72321e-13 6.91233e-13 6.91233e-13 6.91233e-13 6.91233e-13 2.21727e-13 2.21727e-13 2.21727e-13 2.21727e-13 -2.10035e-13 -2.10035e-13 -2.10035e-13 -2.10035e-13 -4.49441e-13 -4.49441e-13 -4.49441e-13 -4.49441e-13 -7.73485e-13 -7.73485e-13 -7.73485e-13 -7.73485e-13 4.2513e-13 4.2513e-13 4.2513e-13 4.2513e-13 2.01818e-12 2.01818e-12 2.01818e-12 2.01818e-12 -5.93481e-13 -5.93481e-13 -5.93481e-13 -5.93481e-13 -1.97024e-12 -1.97024e-12 -1.97024e-12 -1.97024e-12 7.54851e-13 7.54851e-13 7.54851e-13 7.54851e-13 1.13057e-15 1.13057e-15 1.13057e-15 1.13057e-15 -5.64379e-13 -5.64379e-13 -5.64379e-13 -5.64379e-13 6.61643e-13 6.61643e-13 6.61643e-13 6.61643e-13 -1.62803e-12 -1.62803e-12 -1.62803e-12 -1.62803e-12 1.78353e-13 1.78353e-13 1.78353e-13 1.78353e-13 -7.37481e-13 -7.37481e-13 -7.37481e-13 -7.37481e-13 -8.4325e-14 -8.4325e-14 -8.4325e-14 -8.4325e-14 -2.68726e-14 -2.68726e-14 -2.68726e-14 -2.68726e-14 4.36669e-13 4.36669e-13 4.36669e-13 4.36669e-13 7.74792e-14 7.74792e-14 7.74792e-14 7.74792e-14 4.1013e-13 4.1013e-13 4.1013e-13 4.1013e-13 -4.40524e-13 -4.40524e-13 -4.40524e-13 -4.40524e-13 8.23949e-13 8.23949e-13 8.23949e-13 8.23949e-13 6.88175e-13 6.88175e-13 6.88175e-13 6.88175e-13 -4.10898e-13 -4.10898e-13 -4.10898e-13 -4.10898e-13 5.92841e-13 5.92841e-13 5.92841e-13 5.92841e-13 -2.29757e-12 -2.29757e-12 -2.29757e-12 -2.29757e-12 -1.27096e-12 -1.27096e-12 -1.27096e-12 -1.27096e-12 -8.66121e-14 -8.66121e-14 -8.66121e-14 -8.66121e-14 2.73601e-13 2.73601e-13 2.73601e-13 2.73601e-13 -6.47204e-13 -6.47204e-13 -6.47204e-13 -6.47204e-13 -1.20184e-12 -1.20184e-12 -1.20184e-12 -1.20184e-12 -2.7505e-13 -2.7505e-13 -2.7505e-13 -2.7505e-13 -7.6751e-15 -7.6751e-15 -7.6751e-15 -7.6751e-15 1.00426e-12 1.00426e-12 1.00426e-12 1.00426e-12 -1.06455e-12 -1.06455e-12 -1.06455e-12 -1.06455e-12 -3.12069e-13 -3.12069e-13 -3.12069e-13 -3.12069e-13 8.43226e-13 8.43226e-13 8.43226e-13 8.43226e-13 8.56116e-13 8.56116e-13 8.56116e-13 8.56116e-13 -7.154e-13 -7.154e-13 -7.154e-13 -7.154e-13 6.91393e-13 6.91393e-13 6.91393e-13 6.91393e-13 -5.94483e-13 -5.94483e-13 -5.94483e-13 -5.94483e-13 6.69056e-13 6.69056e-13 6.69056e-13 6.69056e-13 1.76079e-13 1.76079e-13 1.76079e-13 1.76079e-13 6.10588e-13 6.10588e-13 6.10588e-13 6.10588e-13 8.28852e-13 8.28852e-13 8.28852e-13 8.28852e-13 1.07792e-12 1.07792e-12 1.07792e-12 1.07792e-12 -7.96621e-13 -7.96621e-13 -7.96621e-13 -7.96621e-13 -5.98746e-13 -5.98746e-13 -5.98746e-13 -5.98746e-13 -1.65168e-13 -1.65168e-13 -1.65168e-13 -1.65168e-13 -7.30311e-13 -7.30311e-13 -7.30311e-13 -7.30311e-13 1.5378e-13 1.5378e-13 1.5378e-13 1.5378e-13 1.46608e-12 1.46608e-12 1.46608e-12 1.46608e-12 7.21672e-13 7.21672e-13 7.21672e-13 7.21672e-13 7.16998e-13 7.16998e-13 7.16998e-13 7.16998e-13 -8.16995e-13 -8.16995e-13 -8.16995e-13 -8.16995e-13 3.98314e-13 3.98314e-13 3.98314e-13 3.98314e-13 3.24978e-13 3.24978e-13 3.24978e-13 3.24978e-13 1.14791e-12 1.14791e-12 1.14791e-12 1.14791e-12 4.14401e-13 4.14401e-13 4.14401e-13 4.14401e-13 5.12799e-13 5.12799e-13 5.12799e-13 5.12799e-13 -1.19729e-12 -1.19729e-12 -1.19729e-12 -1.19729e-12 -6.11787e-13 -6.11787e-13 -6.11787e-13 -6.11787e-13 -7.84834e-13 -7.84834e-13 -7.84834e-13 -7.84834e-13 4.55941e-14 4.55941e-14 4.55941e-14 4.55941e-14 -8.26746e-15 -8.26746e-15 -8.26746e-15 -8.26746e-15 -1.42581e-12 -1.42581e-12 -1.42581e-12 -1.42581e-12 1.48175e-12 1.48175e-12 1.48175e-12 1.48175e-12 3.27447e-15 3.27447e-15 3.27447e-15 3.27447e-15 -3.79737e-13 -3.79737e-13 -3.79737e-13 -3.79737e-13 5.10421e-14 5.10421e-14 5.10421e-14 5.10421e-14 4.74279e-13 4.74279e-13 4.74279e-13 4.74279e-13 4.64778e-13 4.64778e-13 4.64778e-13 4.64778e-13 -1.22623e-12 -1.22623e-12 -1.22623e-12 -1.22623e-12 8.4758e-13 8.4758e-13 8.4758e-13 8.4758e-13 -8.14938e-13 -8.14938e-13 -8.14938e-13 -8.14938e-13 -7.24293e-13 -7.24293e-13 -7.24293e-13 -7.24293e-13 3.99908e-13 3.99908e-13 3.99908e-13 3.99908e-13 8.80448e-14 8.80448e-14 8.80448e-14 8.80448e-14 4.13454e-13 4.13454e-13 4.13454e-13 4.13454e-13 -1.52361e-13 -1.52361e-13 -1.52361e-13 -1.52361e-13 -5.71151e-14 -5.71151e-14 -5.71151e-14 -5.71151e-14 -8.34684e-13 -8.34684e-13 -8.34684e-13 -8.34684e-13 -1.37351e-12 -1.37351e-12 -1.37351e-12 -1.37351e-12 -1.4371e-12 -1.4371e-12 -1.4371e-12 -1.4371e-12 2.87408e-14 2.87408e-14 2.87408e-14 2.87408e-14 1.342e-13 1.342e-13 1.342e-13 1.342e-13 8.98201e-13 8.98201e-13 8.98201e-13 8.98201e-13 9.0271e-13 9.0271e-13 9.0271e-13 9.0271e-13 2.62084e-13 2.62084e-13 2.62084e-13 2.62084e-13 -8.05508e-14 -8.05508e-14 -8.05508e-14 -8.05508e-14 2.25446e-14 2.25446e-14 2.25446e-14 2.25446e-14 4.62868e-13 4.62868e-13 4.62868e-13 4.62868e-13 8.20024e-13 8.20024e-13 8.20024e-13 8.20024e-13 4.66925e-13 4.66925e-13 4.66925e-13 4.66925e-13 -4.01465e-13 -4.01465e-13 -4.01465e-13 -4.01465e-13 1.23118e-12 1.23118e-12 1.23118e-12 1.23118e-12 -1.30077e-12 -1.30077e-12 -1.30077e-12 -1.30077e-12 -5.05907e-13 -5.05907e-13 -5.05907e-13 -5.05907e-13 2.22045e-13 2.22045e-13 2.22045e-13 2.22045e-13 4.31266e-13 4.31266e-13 4.31266e-13 4.31266e-13 6.17427e-13 6.17427e-13 6.17427e-13 6.17427e-13 7.372e-13 7.372e-13 7.372e-13 7.372e-13 -2.52116e-13 -2.52116e-13 -2.52116e-13 -2.52116e-13 1.66408e-13 1.66408e-13 1.66408e-13 1.66408e-13 9.14903e-13 9.14903e-13 9.14903e-13 9.14903e-13 1.29855e-12 1.29855e-12 1.29855e-12 1.29855e-12 8.01891e-13 8.01891e-13 8.01891e-13 8.01891e-13 5.60264e-14 5.60264e-14 5.60264e-14 5.60264e-14 9.6488e-14 9.6488e-14 9.6488e-14 9.6488e-14 -8.68181e-13 -8.68181e-13 -8.68181e-13 -8.68181e-13 -1.13775e-12 -1.13775e-12 -1.13775e-12 -1.13775e-12 1.09575e-12 1.09575e-12 1.09575e-12 1.09575e-12 -1.51369e-12 -1.51369e-12 -1.51369e-12 -1.51369e-12 3.02357e-13 3.02357e-13 3.02357e-13 3.02357e-13 -5.26298e-13 -5.26298e-13 -5.26298e-13 -5.26298e-13 1.04723e-12 1.04723e-12 1.04723e-12 1.04723e-12 -1.22329e-12 -1.22329e-12 -1.22329e-12 -1.22329e-12 4.89284e-13 4.89284e-13 4.89284e-13 4.89284e-13 5.1379e-13 5.1379e-13 5.1379e-13 5.1379e-13 -1.46992e-12 -1.46992e-12 -1.46992e-12 -1.46992e-12 7.57684e-14 7.57684e-14 7.57684e-14 7.57684e-14 -8.77457e-13 -8.77457e-13 -8.77457e-13 -8.77457e-13 4.02169e-13 4.02169e-13 4.02169e-13 4.02169e-13 1.14578e-13 1.14578e-13 1.14578e-13 1.14578e-13 -9.5039e-13 -9.5039e-13 -9.5039e-13 -9.5039e-13 3.41788e-13 3.41788e-13 3.41788e-13 3.41788e-13 3.55239e-13 3.55239e-13 3.55239e-13 3.55239e-13 4.00543e-13 4.00543e-13 4.00543e-13 4.00543e-13 3.16803e-13 3.16803e-13 3.16803e-13 3.16803e-13 -3.28083e-13 -3.28083e-13 -3.28083e-13 -3.28083e-13 -1.77528e-13 -1.77528e-13 -1.77528e-13 -1.77528e-13 4.17071e-13 4.17071e-13 4.17071e-13 4.17071e-13 -4.64508e-13 -4.64508e-13 -4.64508e-13 -4.64508e-13 -1.09704e-12 -1.09704e-12 -1.09704e-12 -1.09704e-12 -4.74788e-13 -4.74788e-13 -4.74788e-13 -4.74788e-13 4.11332e-13 4.11332e-13 4.11332e-13 4.11332e-13 -4.33488e-13 -4.33488e-13 -4.33488e-13 -4.33488e-13 -4.49641e-13 -4.49641e-13 -4.49641e-13 -4.49641e-13 -5.01706e-13 -5.01706e-13 -5.01706e-13 -5.01706e-13 6.0363e-13 6.0363e-13 6.0363e-13 6.0363e-13 2.71814e-13 2.71814e-13 2.71814e-13 2.71814e-13 1.41901e-12 1.41901e-12 1.41901e-12 1.41901e-12 1.17394e-12 1.17394e-12 1.17394e-12 1.17394e-12 3.08197e-14 3.08197e-14 3.08197e-14 3.08197e-14 -8.67796e-13 -8.67796e-13 -8.67796e-13 -8.67796e-13 1.69808e-13 1.69808e-13 1.69808e-13 1.69808e-13 -4.85801e-13 -4.85801e-13 -4.85801e-13 -4.85801e-13 1.4704e-13 1.4704e-13 1.4704e-13 1.4704e-13 -1.07062e-12 -1.07062e-12 -1.07062e-12 -1.07062e-12 8.64744e-13 8.64744e-13 8.64744e-13 8.64744e-13 2.60843e-13 2.60843e-13 2.60843e-13 2.60843e-13 -1.47202e-12 -1.47202e-12 -1.47202e-12 -1.47202e-12 -9.783e-13 -9.783e-13 -9.783e-13 -9.783e-13 -1.36081e-12 -1.36081e-12 -1.36081e-12 -1.36081e-12 4.3024e-13 4.3024e-13 4.3024e-13 4.3024e-13 1.33941e-13 1.33941e-13 1.33941e-13 1.33941e-13 2.22045e-13 2.22045e-13 2.22045e-13 2.22045e-13 7.22161e-13 7.22161e-13 7.22161e-13 7.22161e-13 -1.9474e-12 -1.9474e-12 -1.9474e-12 -1.9474e-12 8.84851e-14 8.84851e-14 8.84851e-14 8.84851e-14 5.27701e-13 5.27701e-13 5.27701e-13 5.27701e-13 -8.76753e-13 -8.76753e-13 -8.76753e-13 -8.76753e-13 -2.06875e-13 -2.06875e-13 -2.06875e-13 -2.06875e-13 -4.62869e-13 -4.62869e-13 -4.62869e-13 -4.62869e-13 -6.95428e-14 -6.95428e-14 -6.95428e-14 -6.95428e-14 1.3084e-13 1.3084e-13 1.3084e-13 1.3084e-13 4.96157e-13 4.96157e-13 4.96157e-13 4.96157e-13 1.49244e-12 1.49244e-12 1.49244e-12 1.49244e-12 -1.84246e-13 -1.84246e-13 -1.84246e-13 -1.84246e-13 -8.68592e-13 -8.68592e-13 -8.68592e-13 -8.68592e-13 1.50479e-12 1.50479e-12 1.50479e-12 1.50479e-12 -6.08247e-13 -6.08247e-13 -6.08247e-13 -6.08247e-13 6.93745e-13 6.93745e-13 6.93745e-13 6.93745e-13 -6.06977e-13 -6.06977e-13 -6.06977e-13 -6.06977e-13 -3.14349e-13 -3.14349e-13 -3.14349e-13 -3.14349e-13 -5.8028e-13 -5.8028e-13 -5.8028e-13 -5.8028e-13 6.27943e-13 6.27943e-13 6.27943e-13 6.27943e-13 -3.15266e-13 -3.15266e-13 -3.15266e-13 -3.15266e-13 7.78642e-13 7.78642e-13 7.78642e-13 7.78642e-13 -3.22464e-13 -3.22464e-13 -3.22464e-13 -3.22464e-13 -1.70229e-14 -1.70229e-14 -1.70229e-14 -1.70229e-14 5.45564e-13 5.45564e-13 5.45564e-13 5.45564e-13 -1.783e-13 -1.783e-13 -1.783e-13 -1.783e-13 4.24122e-13 4.24122e-13 4.24122e-13 4.24122e-13 -0.000148335 -0.000148335 -0.000148335 -0.000148335 5.65877e-13 5.65877e-13 5.65877e-13 5.65877e-13 1.50916e-13 1.50916e-13 1.50916e-13 1.50916e-13 6.99037e-13 6.99037e-13 6.99037e-13 6.99037e-13 3.91566e-13 3.91566e-13 3.91566e-13 3.91566e-13 -7.00815e-13 -7.00815e-13 -7.00815e-13 -7.00815e-13 -4.05343e-13 -4.05343e-13 -4.05343e-13 -4.05343e-13 -2.58219e-13 -2.58219e-13 -2.58219e-13 -2.58219e-13 -1.00343e-12 -1.00343e-12 -1.00343e-12 -1.00343e-12 1.13237e-12 1.13237e-12 1.13237e-12 1.13237e-12 1.11001e-13 1.11001e-13 1.11001e-13 1.11001e-13 -5.85976e-13 -5.85976e-13 -5.85976e-13 -5.85976e-13 -1.41949e-12 -1.41949e-12 -1.41949e-12 -1.41949e-12 2.48912e-13 2.48912e-13 2.48912e-13 2.48912e-13 -0.000149534 -0.000149534 -0.000149534 -0.000149534 9.64016e-13 9.64016e-13 9.64016e-13 9.64016e-13 3.24395e-13 3.24395e-13 3.24395e-13 3.24395e-13 1.07646e-13 1.07646e-13 1.07646e-13 1.07646e-13 -9.13825e-13 -9.13825e-13 -9.13825e-13 -9.13825e-13 -1.53925e-12 -1.53925e-12 -1.53925e-12 -1.53925e-12 -1.01977e-12 -1.01977e-12 -1.01977e-12 -1.01977e-12 6.06401e-13 6.06401e-13 6.06401e-13 6.06401e-13 2.54976e-13 2.54976e-13 2.54976e-13 2.54976e-13 1.69571e-12 1.69571e-12 1.69571e-12 1.69571e-12 7.69486e-13 7.69486e-13 7.69486e-13 7.69486e-13 4.51846e-13 4.51846e-13 4.51846e-13 4.51846e-13 -2.99039e-12 -2.99039e-12 -2.99039e-12 -2.99039e-12 -1.48933e-12 -1.48933e-12 -1.48933e-12 -1.48933e-12 -6.63967e-13 -6.63967e-13 -6.63967e-13 -6.63967e-13 -1.26546e-12 -1.26546e-12 -1.26546e-12 -1.26546e-12 5.26153e-13 5.26153e-13 5.26153e-13 5.26153e-13 -7.93236e-13 -7.93236e-13 -7.93236e-13 -7.93236e-13 -1.27241e-13 -1.27241e-13 -1.27241e-13 -1.27241e-13 -1.18681e-12 -1.18681e-12 -1.18681e-12 -1.18681e-12 6.11322e-13 6.11322e-13 6.11322e-13 6.11322e-13 1.08038e-12 1.08038e-12 1.08038e-12 1.08038e-12 3.41751e-13 3.41751e-13 3.41751e-13 3.41751e-13 -1.77674e-12 -1.77674e-12 -1.77674e-12 -1.77674e-12 7.26702e-13 7.26702e-13 7.26702e-13 7.26702e-13 1.60035e-13 1.60035e-13 1.60035e-13 1.60035e-13 -7.24433e-13 -7.24433e-13 -7.24433e-13 -7.24433e-13 7.6888e-14 7.6888e-14 7.6888e-14 7.6888e-14 -5.71996e-13 -5.71996e-13 -5.71996e-13 -5.71996e-13 -5.74537e-13 -5.74537e-13 -5.74537e-13 -5.74537e-13 -1.03123e-12 -1.03123e-12 -1.03123e-12 -1.03123e-12 6.29747e-13 6.29747e-13 6.29747e-13 6.29747e-13 7.85358e-07 7.85358e-07 7.85358e-07 7.85358e-07 5.34831e-13 5.34831e-13 5.34831e-13 5.34831e-13 -1.65178e-12 -1.65178e-12 -1.65178e-12 -1.65178e-12 2.10148e-13 2.10148e-13 2.10148e-13 2.10148e-13 -5.21994e-13 -5.21994e-13 -5.21994e-13 -5.21994e-13 -7.96633e-13 -7.96633e-13 -7.96633e-13 -7.96633e-13 7.96092e-13 7.96092e-13 7.96092e-13 7.96092e-13 -5.41716e-13 -5.41716e-13 -5.41716e-13 -5.41716e-13 2.60566e-13 2.60566e-13 2.60566e-13 2.60566e-13 -1.88096e-13 -1.88096e-13 -1.88096e-13 -1.88096e-13 -9.98721e-13 -9.98721e-13 -9.98721e-13 -9.98721e-13 1.52594e-13 1.52594e-13 1.52594e-13 1.52594e-13 6.16906 6.16906 6.16906 6.16906 8.34097e-13 8.34097e-13 8.34097e-13 8.34097e-13 -6.06033e-13 -6.06033e-13 -6.06033e-13 -6.06033e-13 -9.97559e-13 -9.97559e-13 -9.97559e-13 -9.97559e-13 -1.66075e-13 -1.66075e-13 -1.66075e-13 -1.66075e-13 3.59667e-13 3.59667e-13 3.59667e-13 3.59667e-13 1.65566e-13 1.65566e-13 1.65566e-13 1.65566e-13 -4.77179e-14 -4.77179e-14 -4.77179e-14 -4.77179e-14 -0.00281987 -0.00281987 -0.00281987 -0.00281987 4.44634e-13 4.44634e-13 4.44634e-13 4.44634e-13 -1.07374e-08 -1.07374e-08 -1.07374e-08 -1.07374e-08 1.74675e-12 1.74675e-12 1.74675e-12 1.74675e-12 1.09577e-12 1.09577e-12 1.09577e-12 1.09577e-12 -8.32799e-13 -8.32799e-13 -8.32799e-13 -8.32799e-13 -4.74978e-14 -4.74978e-14 -4.74978e-14 -4.74978e-14 -1.00618e-12 -1.00618e-12 -1.00618e-12 -1.00618e-12 -8.68519e-13 -8.68519e-13 -8.68519e-13 -8.68519e-13 2.80456e-13 2.80456e-13 2.80456e-13 2.80456e-13 3.43051e-13 3.43051e-13 3.43051e-13 3.43051e-13 4.63339e-13 4.63339e-13 4.63339e-13 4.63339e-13 1.12651e-12 1.12651e-12 1.12651e-12 1.12651e-12 -2.31278e-12 -2.31278e-12 -2.31278e-12 -2.31278e-12 1.20535e-12 1.20535e-12 1.20535e-12 1.20535e-12 8.08314e-07 8.08314e-07 8.08314e-07 8.08314e-07 -1.57176e-12 -1.57176e-12 -1.57176e-12 -1.57176e-12 -1.56548e-12 -1.56548e-12 -1.56548e-12 -1.56548e-12 -0.000983895 -0.000983895 -0.000983895 -0.000983895 -0.00288055 -0.00288055 -0.00288055 -0.00288055 3.7379e-13 3.7379e-13 3.7379e-13 3.7379e-13 6.97109e-13 6.97109e-13 6.97109e-13 6.97109e-13 -1.09693e-13 -1.09693e-13 -1.09693e-13 -1.09693e-13 -5.75635e-14 -5.75635e-14 -5.75635e-14 -5.75635e-14 7.82702e-13 7.82702e-13 7.82702e-13 7.82702e-13 0.00254327 0.00254327 0.00254327 0.00254327 7.47271e-13 7.47271e-13 7.47271e-13 7.47271e-13 -6.81992e-13 -6.81992e-13 -6.81992e-13 -6.81992e-13 -1.3805e-12 -1.3805e-12 -1.3805e-12 -1.3805e-12 -1.06854e-12 -1.06854e-12 -1.06854e-12 -1.06854e-12 7.06316e-13 7.06316e-13 7.06316e-13 7.06316e-13 6.16657 6.16657 6.16657 6.16657 5.91641e-13 5.91641e-13 5.91641e-13 5.91641e-13 -2.33151e-12 -2.33151e-12 -2.33151e-12 -2.33151e-12 -2.91311e-13 -2.91311e-13 -2.91311e-13 -2.91311e-13 2.52804e-12 2.52804e-12 2.52804e-12 2.52804e-12 -4.36182e-13 -4.36182e-13 -4.36182e-13 -4.36182e-13 7.89165e-13 7.89165e-13 7.89165e-13 7.89165e-13 -8.06188e-13 -8.06188e-13 -8.06188e-13 -8.06188e-13 -3.17782e-13 -3.17782e-13 -3.17782e-13 -3.17782e-13 0.00252194 0.00252194 0.00252194 0.00252194 2.4891e-13 2.4891e-13 2.4891e-13 2.4891e-13 2.86004e-13 2.86004e-13 2.86004e-13 2.86004e-13 6.15488 6.15488 6.15488 6.15488 6.374e-13 6.374e-13 6.374e-13 6.374e-13 6.14644 6.14644 6.14644 6.14644 8.46093e-13 8.46093e-13 8.46093e-13 8.46093e-13 -4.71958e-13 -4.71958e-13 -4.71958e-13 -4.71958e-13 6.64353 6.64353 6.64353 6.64353 -7.21905e-13 -7.21905e-13 -7.21905e-13 -7.21905e-13 6.04289e-14 6.04289e-14 6.04289e-14 6.04289e-14 8.18551e-13 8.18551e-13 8.18551e-13 8.18551e-13 7.79035 7.79035 7.79035 7.79035 -1.48543e-12 -1.48543e-12 -1.48543e-12 -1.48543e-12 -1.82744e-13 -1.82744e-13 -1.82744e-13 -1.82744e-13 0.00251866 0.00251866 0.00251866 0.00251866 -1.01499e-12 -1.01499e-12 -1.01499e-12 -1.01499e-12 1.0991e-13 1.0991e-13 1.0991e-13 1.0991e-13 0.00257857 0.00257857 0.00257857 0.00257857 -1.02462e-12 -1.02462e-12 -1.02462e-12 -1.02462e-12 -6.591e-13 -6.591e-13 -6.591e-13 -6.591e-13 9.50036e-13 9.50036e-13 9.50036e-13 9.50036e-13 -7.7153e-13 -7.7153e-13 -7.7153e-13 -7.7153e-13 -1.11315e-08 -1.11315e-08 -1.11315e-08 -1.11315e-08 6.15879 6.15879 6.15879 6.15879 5.71911e-13 5.71911e-13 5.71911e-13 5.71911e-13 7.987 7.987 7.987 7.987 7.81938 7.81938 7.81938 7.81938 8.31535e-13 8.31535e-13 8.31535e-13 8.31535e-13 -1.08276e-12 -1.08276e-12 -1.08276e-12 -1.08276e-12 -1.85402e-12 -1.85402e-12 -1.85402e-12 -1.85402e-12 -7.95994e-14 -7.95994e-14 -7.95994e-14 -7.95994e-14 -3.89436e-14 -3.89436e-14 -3.89436e-14 -3.89436e-14 6.15582 6.15582 6.15582 6.15582 4.89911e-13 4.89911e-13 4.89911e-13 4.89911e-13 -9.51786e-13 -9.51786e-13 -9.51786e-13 -9.51786e-13 -6.10303e-13 -6.10303e-13 -6.10303e-13 -6.10303e-13 -1.7587e-12 -1.7587e-12 -1.7587e-12 -1.7587e-12 1.69933e-13 1.69933e-13 1.69933e-13 1.69933e-13 -8.90072e-13 -8.90072e-13 -8.90072e-13 -8.90072e-13 8.17584e-13 8.17584e-13 8.17584e-13 8.17584e-13 -8.92126e-14 -8.92126e-14 -8.92126e-14 -8.92126e-14 -1.47573e-13 -1.47573e-13 -1.47573e-13 -1.47573e-13 -0.00103247 -0.00103247 -0.00103247 -0.00103247 -1.26586e-12 -1.26586e-12 -1.26586e-12 -1.26586e-12 1.06756e-12 1.06756e-12 1.06756e-12 1.06756e-12 6.20267 6.20267 6.20267 6.20267 -4.87421e-14 -4.87421e-14 -4.87421e-14 -4.87421e-14 -3.76833e-12 -3.76833e-12 -3.76833e-12 -3.76833e-12 1.18261e-13 1.18261e-13 1.18261e-13 1.18261e-13 0.00244295 0.00244295 0.00244295 0.00244295 -1.06959e-12 -1.06959e-12 -1.06959e-12 -1.06959e-12 6.94685 6.94685 6.94685 6.94685 -3.11425e-13 -3.11425e-13 -3.11425e-13 -3.11425e-13 2.71367e-13 2.71367e-13 2.71367e-13 2.71367e-13 -2.48558e-13 -2.48558e-13 -2.48558e-13 -2.48558e-13 6.20013 6.20013 6.20013 6.20013 7.10391e-13 7.10391e-13 7.10391e-13 7.10391e-13 -2.53066e-14 -2.53066e-14 -2.53066e-14 -2.53066e-14 6.15732 6.15732 6.15732 6.15732 -6.09093e-13 -6.09093e-13 -6.09093e-13 -6.09093e-13 -8.88808e-13 -8.88808e-13 -8.88808e-13 -8.88808e-13 6.15614 6.15614 6.15614 6.15614 6.16829 6.16829 6.16829 6.16829 -7.9307e-14 -7.9307e-14 -7.9307e-14 -7.9307e-14 2.07275e-14 2.07275e-14 2.07275e-14 2.07275e-14 -8.21667e-13 -8.21667e-13 -8.21667e-13 -8.21667e-13 1.49331e-13 1.49331e-13 1.49331e-13 1.49331e-13 -6.75618e-13 -6.75618e-13 -6.75618e-13 -6.75618e-13 1.68772e-12 1.68772e-12 1.68772e-12 1.68772e-12 -2.89009e-14 -2.89009e-14 -2.89009e-14 -2.89009e-14 6.89931 6.89931 6.89931 6.89931 -7.21331e-13 -7.21331e-13 -7.21331e-13 -7.21331e-13 -6.00691e-13 -6.00691e-13 -6.00691e-13 -6.00691e-13 1.932e-13 1.932e-13 1.932e-13 1.932e-13 -3.61185e-13 -3.61185e-13 -3.61185e-13 -3.61185e-13 5.1502e-13 5.1502e-13 5.1502e-13 5.1502e-13 1.05296e-13 1.05296e-13 1.05296e-13 1.05296e-13 -6.73878e-13 -6.73878e-13 -6.73878e-13 -6.73878e-13 4.97644e-13 4.97644e-13 4.97644e-13 4.97644e-13 7.55889e-13 7.55889e-13 7.55889e-13 7.55889e-13 7.07605e-13 7.07605e-13 7.07605e-13 7.07605e-13 7.07781 7.07781 7.07781 7.07781 -0.000584348 -0.000584348 -0.000584348 -0.000584348 7.07073 7.07073 7.07073 7.07073 1.4811e-13 1.4811e-13 1.4811e-13 1.4811e-13 -5.7216e-13 -5.7216e-13 -5.7216e-13 -5.7216e-13 -2.40984e-13 -2.40984e-13 -2.40984e-13 -2.40984e-13 -6.38713e-13 -6.38713e-13 -6.38713e-13 -6.38713e-13 -0.000479248 -0.000479248 -0.000479248 -0.000479248 -3.78425e-13 -3.78425e-13 -3.78425e-13 -3.78425e-13 0.00243009 0.00243009 0.00243009 0.00243009 0.000504602 0.000504602 0.000504602 0.000504602 6.11567 6.11567 6.11567 6.11567 6.17496 6.17496 6.17496 6.17496 7.02343e-13 7.02343e-13 7.02343e-13 7.02343e-13 7.148e-13 7.148e-13 7.148e-13 7.148e-13 1.47303e-12 1.47303e-12 1.47303e-12 1.47303e-12 -1.08443e-12 -1.08443e-12 -1.08443e-12 -1.08443e-12 5.51918e-13 5.51918e-13 5.51918e-13 5.51918e-13 7.61574e-13 7.61574e-13 7.61574e-13 7.61574e-13 -9.99201e-13 -9.99201e-13 -9.99201e-13 -9.99201e-13 9.46752e-05 9.46752e-05 9.46752e-05 9.46752e-05 6.42104 6.42104 6.42104 6.42104 -3.51849e-13 -3.51849e-13 -3.51849e-13 -3.51849e-13 6.4166e-13 6.4166e-13 6.4166e-13 6.4166e-13 6.16661 6.16661 6.16661 6.16661 6.1667 6.1667 6.1667 6.1667 1.05072e-13 1.05072e-13 1.05072e-13 1.05072e-13 -1.45371e-14 -1.45371e-14 -1.45371e-14 -1.45371e-14 3.42114e-13 3.42114e-13 3.42114e-13 3.42114e-13 6.12062 6.12062 6.12062 6.12062 8.74295e-13 8.74295e-13 8.74295e-13 8.74295e-13 1.8651e-13 1.8651e-13 1.8651e-13 1.8651e-13 6.11531 6.11531 6.11531 6.11531 0.00101155 0.00101155 0.00101155 0.00101155 -5.95966e-13 -5.95966e-13 -5.95966e-13 -5.95966e-13 6.44029e-13 6.44029e-13 6.44029e-13 6.44029e-13 0.000499725 0.000499725 0.000499725 0.000499725 6.30918 6.30918 6.30918 6.30918 4.44089e-13 4.44089e-13 4.44089e-13 4.44089e-13 -1.25423e-13 -1.25423e-13 -1.25423e-13 -1.25423e-13 0.000136161 0.000136161 0.000136161 0.000136161 0.000113983 0.000113983 0.000113983 0.000113983 0.000842159 0.000842159 0.000842159 0.000842159 -0.00318449 -0.00318449 -0.00318449 -0.00318449 3.54055e-13 3.54055e-13 3.54055e-13 3.54055e-13 12.1367 12.1367 12.1367 12.1367 6.75754 6.75754 6.75754 6.75754 7.09433 7.09433 7.09433 7.09433 7.06153 7.06153 7.06153 7.06153 -1.66303e-12 -1.66303e-12 -1.66303e-12 -1.66303e-12 1.67863e-12 1.67863e-12 1.67863e-12 1.67863e-12 6.12126 6.12126 6.12126 6.12126 12.1365 12.1365 12.1365 12.1365 -8.24626e-14 -8.24626e-14 -8.24626e-14 -8.24626e-14 -0.00399569 -0.00399569 -0.00399569 -0.00399569 -3.00992e-13 -3.00992e-13 -3.00992e-13 -3.00992e-13 -1.51053e-12 -1.51053e-12 -1.51053e-12 -1.51053e-12 -7.20615e-13 -7.20615e-13 -7.20615e-13 -7.20615e-13 7.78754 7.78754 7.78754 7.78754 3.20784e-13 3.20784e-13 3.20784e-13 3.20784e-13 -4.28008e-13 -4.28008e-13 -4.28008e-13 -4.28008e-13 -8.67029e-07 -8.67029e-07 -8.67029e-07 -8.67029e-07 -5.3356e-13 -5.3356e-13 -5.3356e-13 -5.3356e-13 2.00225e-14 2.00225e-14 2.00225e-14 2.00225e-14 5.95832 5.95832 5.95832 5.95832 7.91944 7.91944 7.91944 7.91944 7.97741e-13 7.97741e-13 7.97741e-13 7.97741e-13 9.26485e-05 9.26485e-05 9.26485e-05 9.26485e-05 -9.45705e-13 -9.45705e-13 -9.45705e-13 -9.45705e-13 7.53646 7.53646 7.53646 7.53646 -2.7302e-12 -2.7302e-12 -2.7302e-12 -2.7302e-12 2.41608e-12 2.41608e-12 2.41608e-12 2.41608e-12 6.15736 6.15736 6.15736 6.15736 -1.81058e-12 -1.81058e-12 -1.81058e-12 -1.81058e-12 3.92966e-13 3.92966e-13 3.92966e-13 3.92966e-13 1.40951e-12 1.40951e-12 1.40951e-12 1.40951e-12 0.00104904 0.00104904 0.00104904 0.00104904 6.15755 6.15755 6.15755 6.15755 -7.24933e-13 -7.24933e-13 -7.24933e-13 -7.24933e-13 -8.28357e-07 -8.28357e-07 -8.28357e-07 -8.28357e-07 8.89731 8.89731 8.89731 8.89731 -0.00300054 -0.00300054 -0.00300054 -0.00300054 7.77801 7.77801 7.77801 7.77801 -1.7727e-12 -1.7727e-12 -1.7727e-12 -1.7727e-12 6.70159 6.70159 6.70159 6.70159 1.11022e-12 1.11022e-12 1.11022e-12 1.11022e-12 7.8067 7.8067 7.8067 7.8067 12.1365 12.1365 12.1365 12.1365 -1.11008e-12 -1.11008e-12 -1.11008e-12 -1.11008e-12 7.48896 7.48896 7.48896 7.48896 7.09968 7.09968 7.09968 7.09968 3.25792e-15 3.25792e-15 3.25792e-15 3.25792e-15 0.000147907 0.000147907 0.000147907 0.000147907 8.38749 8.38749 8.38749 8.38749 1.14838e-12 1.14838e-12 1.14838e-12 1.14838e-12 1.82709e-12 1.82709e-12 1.82709e-12 1.82709e-12 -0.00337462 -0.00337462 -0.00337462 -0.00337462 6.68616e-13 6.68616e-13 6.68616e-13 6.68616e-13 -1.76705e-12 -1.76705e-12 -1.76705e-12 -1.76705e-12 4.44089e-13 4.44089e-13 4.44089e-13 4.44089e-13 7.23018 7.23018 7.23018 7.23018 -0.000537058 -0.000537058 -0.000537058 -0.000537058 1.50964e-12 1.50964e-12 1.50964e-12 1.50964e-12 2.12522e-12 2.12522e-12 2.12522e-12 2.12522e-12 3.89414e-13 3.89414e-13 3.89414e-13 3.89414e-13 1.83516e-13 1.83516e-13 1.83516e-13 1.83516e-13 12.1365 12.1365 12.1365 12.1365 12.1367 12.1367 12.1367 12.1367 7.067 7.067 7.067 7.067 9.21092 9.21092 9.21092 9.21092 -2.38219e-12 -2.38219e-12 -2.38219e-12 -2.38219e-12 0.000147907 0.000147907 0.000147907 0.000147907 -0.000610229 -0.000610229 -0.000610229 -0.000610229 -6.89738e-13 -6.89738e-13 -6.89738e-13 -6.89738e-13 -5.23866e-13 -5.23866e-13 -5.23866e-13 -5.23866e-13 6.987 6.987 6.987 6.987 7.79563 7.79563 7.79563 7.79563 0.00124672 0.00124672 0.00124672 0.00124672 7.82045 7.82045 7.82045 7.82045 12.1367 12.1367 12.1367 12.1367 8.34705 8.34705 8.34705 8.34705 1.07109e-13 1.07109e-13 1.07109e-13 1.07109e-13 2.22045e-13 2.22045e-13 2.22045e-13 2.22045e-13 1.11022e-12 1.11022e-12 1.11022e-12 1.11022e-12 -8.62182e-13 -8.62182e-13 -8.62182e-13 -8.62182e-13 7.87205 7.87205 7.87205 7.87205 -1.38653e-12 -1.38653e-12 -1.38653e-12 -1.38653e-12 -1.78258e-12 -1.78258e-12 -1.78258e-12 -1.78258e-12 7.7969 7.7969 7.7969 7.7969 8.95234e-13 8.95234e-13 8.95234e-13 8.95234e-13 2.35554e-12 2.35554e-12 2.35554e-12 2.35554e-12 3.70791e-12 3.70791e-12 3.70791e-12 3.70791e-12 7.43073e-13 7.43073e-13 7.43073e-13 7.43073e-13 7.78298 7.78298 7.78298 7.78298 1.36571e-12 1.36571e-12 1.36571e-12 1.36571e-12 7.09531e-08 7.09531e-08 7.09531e-08 7.09531e-08 1.16967e-12 1.16967e-12 1.16967e-12 1.16967e-12 2.26695e-12 2.26695e-12 2.26695e-12 2.26695e-12 2.22045e-13 2.22045e-13 2.22045e-13 2.22045e-13 -2.50013e-13 -2.50013e-13 -2.50013e-13 -2.50013e-13 12.1367 12.1367 12.1367 12.1367 -1.46735e-12 -1.46735e-12 -1.46735e-12 -1.46735e-12 0.000147907 0.000147907 0.000147907 0.000147907 8.76285e-13 8.76285e-13 8.76285e-13 8.76285e-13 2.33705e-12 2.33705e-12 2.33705e-12 2.33705e-12 9.27774e-13 9.27774e-13 9.27774e-13 9.27774e-13 12.1365 12.1365 12.1365 12.1365 -1.3708e-12 -1.3708e-12 -1.3708e-12 -1.3708e-12 12.1367 12.1367 12.1367 12.1367 -8.337e-13 -8.337e-13 -8.337e-13 -8.337e-13 -2.39497e-13 -2.39497e-13 -2.39497e-13 -2.39497e-13 -6.07915e-14 -6.07915e-14 -6.07915e-14 -6.07915e-14 -1.58353e-13 -1.58353e-13 -1.58353e-13 -1.58353e-13 1.24044e-12 1.24044e-12 1.24044e-12 1.24044e-12 2.50169e-13 2.50169e-13 2.50169e-13 2.50169e-13 2.69145e-12 2.69145e-12 2.69145e-12 2.69145e-12 -3.58158e-13 -3.58158e-13 -3.58158e-13 -3.58158e-13 -3.75974e-13 -3.75974e-13 -3.75974e-13 -3.75974e-13 -2.98092e-12 -2.98092e-12 -2.98092e-12 -2.98092e-12 -9.83641e-14 -9.83641e-14 -9.83641e-14 -9.83641e-14 4.9318e-13 4.9318e-13 4.9318e-13 4.9318e-13 2.76905e-12 2.76905e-12 2.76905e-12 2.76905e-12 -4.71194e-13 -4.71194e-13 -4.71194e-13 -4.71194e-13 1.40946e-12 1.40946e-12 1.40946e-12 1.40946e-12 1.11022e-12 1.11022e-12 1.11022e-12 1.11022e-12 6.96307e-13 6.96307e-13 6.96307e-13 6.96307e-13 4.44089e-13 4.44089e-13 4.44089e-13 4.44089e-13 -2.61214e-12 -2.61214e-12 -2.61214e-12 -2.61214e-12 -9.57073e-13 -9.57073e-13 -9.57073e-13 -9.57073e-13 1.51924e-12 1.51924e-12 1.51924e-12 1.51924e-12 6.51755e-13 6.51755e-13 6.51755e-13 6.51755e-13 -2.94791e-13 -2.94791e-13 -2.94791e-13 -2.94791e-13 6.82334e-13 6.82334e-13 6.82334e-13 6.82334e-13 2.48979e-12 2.48979e-12 2.48979e-12 2.48979e-12 -2.52626e-12 -2.52626e-12 -2.52626e-12 -2.52626e-12 1.82331e-12 1.82331e-12 1.82331e-12 1.82331e-12 8.69304e-08 8.69304e-08 8.69304e-08 8.69304e-08 6.07492e-13 6.07492e-13 6.07492e-13 6.07492e-13 -7.23627e-13 -7.23627e-13 -7.23627e-13 -7.23627e-13 -2.67788e-12 -2.67788e-12 -2.67788e-12 -2.67788e-12 12.1365 12.1365 12.1365 12.1365 5.20998e-13 5.20998e-13 5.20998e-13 5.20998e-13 -2.51977e-12 -2.51977e-12 -2.51977e-12 -2.51977e-12 -1.36379e-12 -1.36379e-12 -1.36379e-12 -1.36379e-12 1.39576e-12 1.39576e-12 1.39576e-12 1.39576e-12 12.1365 12.1365 12.1365 12.1365 9.31107e-13 9.31107e-13 9.31107e-13 9.31107e-13 2.22045e-13 2.22045e-13 2.22045e-13 2.22045e-13 9.42186e-13 9.42186e-13 9.42186e-13 9.42186e-13 7.47032e-13 7.47032e-13 7.47032e-13 7.47032e-13 9.86364 9.86364 9.86364 9.86364 2.31944e-12 2.31944e-12 2.31944e-12 2.31944e-12 12.1367 12.1367 12.1367 12.1367 9.89838 9.89838 9.89838 9.89838 2.01238e-12 2.01238e-12 2.01238e-12 2.01238e-12 1.82464e-12 1.82464e-12 1.82464e-12 1.82464e-12 7.07231e-13 7.07231e-13 7.07231e-13 7.07231e-13 -2.78212e-12 -2.78212e-12 -2.78212e-12 -2.78212e-12 9.87363e-14 9.87363e-14 9.87363e-14 9.87363e-14 -1.58627e-12 -1.58627e-12 -1.58627e-12 -1.58627e-12 -6.33201e-13 -6.33201e-13 -6.33201e-13 -6.33201e-13 -3.24837e-13 -3.24837e-13 -3.24837e-13 -3.24837e-13 8.1079e-13 8.1079e-13 8.1079e-13 8.1079e-13 0.00160946 0.00160946 0.00160946 0.00160946 6.55183 6.55183 6.55183 6.55183 3.84714e-13 3.84714e-13 3.84714e-13 3.84714e-13 5.94317e-05 5.94317e-05 5.94317e-05 5.94317e-05 9.91552 9.91552 9.91552 9.91552 -0.000422434 -0.000422434 -0.000422434 -0.000422434 6.51199 6.51199 6.51199 6.51199 -9.15039e-13 -9.15039e-13 -9.15039e-13 -9.15039e-13 -0.00160441 -0.00160441 -0.00160441 -0.00160441 -3.006e-12 -3.006e-12 -3.006e-12 -3.006e-12 9.93021 9.93021 9.93021 9.93021 3.21674e-08 3.21674e-08 3.21674e-08 3.21674e-08 6.5488 6.5488 6.5488 6.5488 -7.89999e-05 -7.89999e-05 -7.89999e-05 -7.89999e-05 -1.55734e-12 -1.55734e-12 -1.55734e-12 -1.55734e-12 6.80008e-13 6.80008e-13 6.80008e-13 6.80008e-13 9.91354 9.91354 9.91354 9.91354 -5.69316e-09 -5.69316e-09 -5.69316e-09 -5.69316e-09 6.54612 6.54612 6.54612 6.54612 6.54936 6.54936 6.54936 6.54936 7.38246 7.38246 7.38246 7.38246 2.91768e-12 2.91768e-12 2.91768e-12 2.91768e-12 -6.56013e-05 -6.56013e-05 -6.56013e-05 -6.56013e-05 -0.000184379 -0.000184379 -0.000184379 -0.000184379 -8.13912e-13 -8.13912e-13 -8.13912e-13 -8.13912e-13 -0.000196882 -0.000196882 -0.000196882 -0.000196882 0.000268471 0.000268471 0.000268471 0.000268471 0.00160709 0.00160709 0.00160709 0.00160709 7.40467 7.40467 7.40467 7.40467 7.36424 7.36424 7.36424 7.36424 9.68739e-13 9.68739e-13 9.68739e-13 9.68739e-13 6.52764 6.52764 6.52764 6.52764 6.54187 6.54187 6.54187 6.54187 4.29675e-07 4.29675e-07 4.29675e-07 4.29675e-07 0.000541203 0.000541203 0.000541203 0.000541203 6.55669 6.55669 6.55669 6.55669 7.40676 7.40676 7.40676 7.40676 -1.63391e-12 -1.63391e-12 -1.63391e-12 -1.63391e-12 -0.000521807 -0.000521807 -0.000521807 -0.000521807 9.96996 9.96996 9.96996 9.96996 0.00138591 0.00138591 0.00138591 0.00138591 9.9913 9.9913 9.9913 9.9913 1.30838e-13 1.30838e-13 1.30838e-13 1.30838e-13 -1.09943e-12 -1.09943e-12 -1.09943e-12 -1.09943e-12 -1.63388e-12 -1.63388e-12 -1.63388e-12 -1.63388e-12 1.11146e-12 1.11146e-12 1.11146e-12 1.11146e-12 -0.000266606 -0.000266606 -0.000266606 -0.000266606 -3.72001e-08 -3.72001e-08 -3.72001e-08 -3.72001e-08 -0.000278891 -0.000278891 -0.000278891 -0.000278891 6.57392 6.57392 6.57392 6.57392 7.4315 7.4315 7.4315 7.4315 9.95237 9.95237 9.95237 9.95237 6.59768 6.59768 6.59768 6.59768 7.44436 7.44436 7.44436 7.44436 7.43067 7.43067 7.43067 7.43067 6.32409e-13 6.32409e-13 6.32409e-13 6.32409e-13 7.4458 7.4458 7.4458 7.4458 -4.21275e-07 -4.21275e-07 -4.21275e-07 -4.21275e-07 -0.00162965 -0.00162965 -0.00162965 -0.00162965 6.58832 6.58832 6.58832 6.58832 6.57615 6.57615 6.57615 6.57615 0.000220755 0.000220755 0.000220755 0.000220755 6.63598 6.63598 6.63598 6.63598 -0.00199367 -0.00199367 -0.00199367 -0.00199367 6.59162 6.59162 6.59162 6.59162 6.59039 6.59039 6.59039 6.59039 0.00051872 0.00051872 0.00051872 0.00051872 6.62961 6.62961 6.62961 6.62961 -8.29063e-13 -8.29063e-13 -8.29063e-13 -8.29063e-13 -5.83013e-13 -5.83013e-13 -5.83013e-13 -5.83013e-13 7.04618e-14 7.04618e-14 7.04618e-14 7.04618e-14 3.68212e-13 3.68212e-13 3.68212e-13 3.68212e-13 -2.03736e-13 -2.03736e-13 -2.03736e-13 -2.03736e-13 2.39637e-13 2.39637e-13 2.39637e-13 2.39637e-13 -4.03594e-13 -4.03594e-13 -4.03594e-13 -4.03594e-13 1.77546e-13 1.77546e-13 1.77546e-13 1.77546e-13 -1.35212e-12 -1.35212e-12 -1.35212e-12 -1.35212e-12 3.9207e-12 3.9207e-12 3.9207e-12 3.9207e-12 3.58336e-12 3.58336e-12 3.58336e-12 3.58336e-12 1.22885e-12 1.22885e-12 1.22885e-12 1.22885e-12 1.50176e-13 1.50176e-13 1.50176e-13 1.50176e-13 1.07087e-12 1.07087e-12 1.07087e-12 1.07087e-12 5.05499e-13 5.05499e-13 5.05499e-13 5.05499e-13 5.40205e-13 5.40205e-13 5.40205e-13 5.40205e-13 2.2809e-13 2.2809e-13 2.2809e-13 2.2809e-13 2.35765e-14 2.35765e-14 2.35765e-14 2.35765e-14 1.78433e-12 1.78433e-12 1.78433e-12 1.78433e-12 9.17838e-13 9.17838e-13 9.17838e-13 9.17838e-13 2.57359e-12 2.57359e-12 2.57359e-12 2.57359e-12 -6.41693e-14 -6.41693e-14 -6.41693e-14 -6.41693e-14 -1.33967e-12 -1.33967e-12 -1.33967e-12 -1.33967e-12 3.75341e-15 3.75341e-15 3.75341e-15 3.75341e-15 3.65383e-13 3.65383e-13 3.65383e-13 3.65383e-13 4.34758e-13 4.34758e-13 4.34758e-13 4.34758e-13 2.61739e-14 2.61739e-14 2.61739e-14 2.61739e-14 -1.02351e-12 -1.02351e-12 -1.02351e-12 -1.02351e-12 4.32828e-13 4.32828e-13 4.32828e-13 4.32828e-13 -3.8903e-13 -3.8903e-13 -3.8903e-13 -3.8903e-13 6.95873e-13 6.95873e-13 6.95873e-13 6.95873e-13 -1.17201e-12 -1.17201e-12 -1.17201e-12 -1.17201e-12 1.40799e-12 1.40799e-12 1.40799e-12 1.40799e-12 8.21373e-13 8.21373e-13 8.21373e-13 8.21373e-13 1.48319e-12 1.48319e-12 1.48319e-12 1.48319e-12 -1.07551e-12 -1.07551e-12 -1.07551e-12 -1.07551e-12 -3.03181e-13 -3.03181e-13 -3.03181e-13 -3.03181e-13 -2.75694e-14 -2.75694e-14 -2.75694e-14 -2.75694e-14 3.3295e-12 3.3295e-12 3.3295e-12 3.3295e-12 9.87726e-13 9.87726e-13 9.87726e-13 9.87726e-13 6.61393e-13 6.61393e-13 6.61393e-13 6.61393e-13 7.82611 7.82611 7.82611 7.82611 6.93083 6.93083 6.93083 6.93083 3.41781e-14 3.41781e-14 3.41781e-14 3.41781e-14 5.0157e-13 5.0157e-13 5.0157e-13 5.0157e-13 -2.37079e-13 -2.37079e-13 -2.37079e-13 -2.37079e-13 2.95737e-13 2.95737e-13 2.95737e-13 2.95737e-13 5.75519e-13 5.75519e-13 5.75519e-13 5.75519e-13 9.99201e-13 9.99201e-13 9.99201e-13 9.99201e-13 3.59362e-13 3.59362e-13 3.59362e-13 3.59362e-13 3.18915e-13 3.18915e-13 3.18915e-13 3.18915e-13 1.52433e-12 1.52433e-12 1.52433e-12 1.52433e-12 -9.21037e-14 -9.21037e-14 -9.21037e-14 -9.21037e-14 8.56447e-13 8.56447e-13 8.56447e-13 8.56447e-13 7.75654e-13 7.75654e-13 7.75654e-13 7.75654e-13 -1.61087e-12 -1.61087e-12 -1.61087e-12 -1.61087e-12 -2.28651e-13 -2.28651e-13 -2.28651e-13 -2.28651e-13 9.12016e-13 9.12016e-13 9.12016e-13 9.12016e-13 1.19806e-13 1.19806e-13 1.19806e-13 1.19806e-13 7.31741e-13 7.31741e-13 7.31741e-13 7.31741e-13 -2.69971e-13 -2.69971e-13 -2.69971e-13 -2.69971e-13 
VECTORS Displacement float 
1.52656e-17 3.98986e-18 4.44089e-16 
0 5.20417e-18 0 
-2.08167e-17 1.38778e-17 -8.88178e-16 
0 2.77556e-17 1.11022e-16 
-3.53016e-17 -1.45229e-17 0 
1.38778e-17 0 -8.88178e-16 
0 0 0 
8.67362e-18 2.77556e-17 0 
-1.38778e-17 2.77556e-17 -4.44089e-16 
-3.19189e-17 -3.51752e-17 -5.55112e-17 
0 0 4.44089e-16 
-3.46945e-18 4.16334e-17 -2.22045e-16 
-3.1225e-17 0 8.88178e-16 
-3.46945e-17 0 -1.11022e-16 
5.55112e-17 0 -4.44089e-16 
-2.10335e-17 6.93889e-18 -5.55112e-16 
-3.46945e-17 0 -1.11022e-16 
5.20417e-18 0 -4.44089e-16 
5.55112e-17 0 -4.44089e-16 
-2.10335e-17 6.93889e-18 -5.55112e-16 
-2.08167e-17 1.38778e-17 -8.88178e-16 
0 2.77556e-17 1.11022e-16 
0 5.20417e-18 0 
2.77556e-17 -2.77556e-17 2.22045e-16 
3.1225e-17 2.08167e-17 3.33067e-16 
2.77556e-17 -2.77556e-17 7.77156e-16 
1.38778e-17 0 -8.88178e-16 
1.38778e-17 2.77556e-17 2.22045e-16 
1.52656e-17 3.98986e-18 4.44089e-16 
0 0 0 
1.249e-17 -2.11636e-17 1.94289e-16 
3.46945e-17 -1.38778e-17 1.11022e-16 
-1.38778e-17 2.77556e-17 -4.44089e-16 
0 0 4.44089e-16 
3.46945e-18 -8.32667e-18 2.77556e-17 
-2.08167e-17 -1.73472e-17 2.22045e-16 
7.63278e-18 5.55112e-18 1.38778e-17 
2.77556e-17 -2.77556e-17 7.77156e-16 
-5.55112e-18 1.8735e-17 -2.22045e-16 
3.46945e-17 -1.38778e-17 1.11022e-16 
2.77556e-17 -3.1225e-17 6.66134e-16 
0 2.08167e-17 -2.22045e-16 
-2.77556e-17 0 -8.88178e-16 
0 0 0 
1.52656e-17 3.98986e-18 4.44089e-16 
-2.08167e-17 1.38778e-17 -8.88178e-16 
5.20417e-17 1.11022e-16 8.88178e-16 
0 2.77556e-17 1.11022e-16 
5.55112e-17 2.77556e-17 2.22045e-16 
-1.94289e-17 -3.46945e-19 4.44089e-16 
1.38778e-17 0 -1.11022e-16 
-4.16334e-17 1.04083e-17 -2.22045e-16 
-1.38778e-17 2.77556e-17 -4.44089e-16 
6.93889e-18 0 2.22045e-16 
0 0 4.44089e-16 
-2.08167e-17 -1.73472e-17 2.22045e-16 
3.1225e-17 2.08167e-17 3.33067e-16 
-1.52656e-17 1.11022e-17 2.22045e-16 
2.77556e-17 -2.77556e-17 7.77156e-16 
1.38778e-17 0 -1.11022e-16 
5.55112e-17 2.77556e-17 2.22045e-16 
1.38778e-17 0 -1.11022e-16 
-2.77556e-17 0 -8.88178e-16 
-4.16334e-17 1.04083e-17 -2.22045e-16 
-5.55112e-18 1.8735e-17 -2.22045e-16 
2.77556e-17 -2.77556e-17 7.77156e-16 
6.93889e-17 0 0 
2.77556e-17 0 -1.11022e-16 
-1.38778e-17 -1.38778e-17 1.11022e-16 
-4.02456e-17 3.19189e-17 4.44089e-16 
-1.94289e-17 -3.46945e-19 4.44089e-16 
5.55112e-17 2.77556e-17 2.22045e-16 
-1.9082e-17 -5.18249e-17 4.44089e-16 
2.08167e-17 0 0 
2.77556e-17 0 8.88178e-16 
1.38778e-17 5.55112e-17 -4.44089e-16 
5.55112e-17 0 -4.44089e-16 
1.38778e-17 1.38778e-17 1.11022e-16 
-3.1225e-17 0 8.88178e-16 
6.93889e-18 -2.77556e-17 0 
8.32667e-17 -4.16334e-17 4.44089e-16 
2.98372e-17 2.84495e-17 0 
2.28983e-17 -1.38778e-18 4.996e-16 
4.96131e-17 -1.83881e-17 2.22045e-16 
-4.02456e-17 3.19189e-17 4.44089e-16 
5.55112e-17 2.77556e-17 2.22045e-16 
-1.38778e-17 -1.38778e-17 1.11022e-16 
0 0 2.22045e-16 
5.20417e-18 0 -4.44089e-16 
-2.10335e-17 6.93889e-18 -5.55112e-16 
-3.46945e-17 0 -1.11022e-16 
4.96131e-17 -1.83881e-17 2.22045e-16 
1.52656e-17 3.98986e-18 4.44089e-16 
0 5.20417e-18 0 
0 2.77556e-17 1.11022e-16 
3.46945e-17 -1.38778e-17 1.11022e-16 
0 1.38778e-17 0 
8.32667e-17 0 7.77156e-16 
0 -2.77556e-17 -1.11022e-16 
1.11022e-17 -7.70372e-34 0 
8.32667e-17 0 7.77156e-16 
0 -1.66533e-17 8.88178e-16 
0 4.16334e-17 0 
-5.55112e-17 3.46945e-18 6.66134e-16 
2.34749e-17 1.249e-17 4.44089e-16 
-2.77556e-17 1.52656e-17 8.88178e-16 
-5.31693e-17 6.53991e-17 2.22045e-16 
-2.77556e-17 1.38778e-17 -3.33067e-16 
-2.10335e-17 6.93889e-18 -5.55112e-16 
-3.1225e-17 0 8.88178e-16 
-3.46945e-17 0 -1.11022e-16 
-2.77556e-17 0 0 
-3.19189e-17 2.63678e-17 2.77556e-17 
5.55112e-17 0 -4.44089e-16 
-2.77556e-17 1.52656e-17 8.88178e-16 
-3.46945e-18 4.16334e-17 -2.22045e-16 
0 5.55112e-17 4.44089e-16 
2.77556e-17 -2.77556e-17 7.77156e-16 
-1.52656e-17 1.11022e-17 2.22045e-16 
1.38778e-17 0 -1.11022e-16 
5.20417e-17 1.11022e-16 8.88178e-16 
-2.77556e-17 1.52656e-17 8.88178e-16 
-2.77556e-17 1.38778e-17 -3.33067e-16 
-3.46945e-18 4.16334e-17 -2.22045e-16 
-1.38778e-17 2.77556e-17 0 
8.32667e-17 -2.91434e-17 -7.77156e-16 
-2.77556e-17 0 0 
6.58761e-17 4.47559e-17 0 
-2.70617e-17 -1.56125e-17 2.22045e-16 
6.93889e-17 0 0 
0 5.55112e-17 4.44089e-16 
-2.77556e-17 -2.64545e-17 1.11022e-16 
-1.38778e-17 4.85723e-17 2.22045e-16 
-1.38778e-17 -1.38778e-17 1.11022e-16 
1.37043e-17 4.02673e-17 4.44089e-16 
-1.94289e-17 -3.46945e-19 4.44089e-16 
2.77556e-17 -2.77556e-17 0 
-1.38778e-17 2.77556e-17 0 
3.1225e-17 2.08167e-17 3.33067e-16 
1.38778e-17 2.77556e-17 2.22045e-16 
0 8.32667e-17 3.33067e-16 
-4.02456e-17 3.19189e-17 4.44089e-16 
-1.38778e-17 -1.38778e-17 1.11022e-16 
1.38778e-17 1.38778e-17 2.22045e-16 
3.1225e-17 1.38778e-17 0 
0 -1.66533e-17 8.88178e-16 
8.32667e-17 0 7.77156e-16 
0 1.38778e-17 0 
-3.53016e-17 -1.45229e-17 0 
1.38778e-17 0 5.55112e-17 
2.77556e-17 -2.77556e-17 0 
1.38778e-17 2.77556e-17 2.22045e-16 
7.28584e-18 -6.07153e-18 1.11022e-16 
0 0 4.44089e-16 
1.38778e-17 -6.93889e-18 2.22045e-16 
-2.08167e-17 -1.73472e-17 2.22045e-16 
-1.38778e-17 2.77556e-17 -4.44089e-16 
0 0 4.44089e-16 
6.93889e-18 0 2.22045e-16 
-3.46945e-18 4.16334e-17 -2.22045e-16 
-1.9082e-17 -5.18249e-17 4.44089e-16 
1.38778e-17 5.55112e-17 -4.44089e-16 
-1.62386e-17 9.78066e-19 -4.85723e-17 
1.38778e-17 1.38778e-17 2.22045e-16 
0 2.77556e-17 2.22045e-16 
-2.42861e-17 1.38778e-17 1.11022e-16 
2.77556e-17 5.55112e-17 -6.66134e-16 
-2.63678e-17 -4.02456e-17 1.33227e-15 
1.52656e-17 3.98986e-18 4.44089e-16 
5.20417e-17 1.11022e-16 8.88178e-16 
1.38778e-17 2.77556e-17 4.44089e-16 
0 -2.08167e-17 2.22045e-16 
0 2.77556e-17 -4.44089e-16 
1.21431e-17 -3.46945e-17 8.88178e-16 
7.28584e-18 -6.07153e-18 1.11022e-16 
-2.08167e-17 -1.73472e-17 2.22045e-16 
2.77556e-17 0 -1.11022e-16 
0 5.55112e-17 4.44089e-16 
6.93889e-17 0 0 
-2.77556e-17 -2.64545e-17 1.11022e-16 
2.91434e-17 -2.79488e-17 4.16334e-17 
-4.02456e-17 3.19189e-17 4.44089e-16 
0 8.32667e-17 3.33067e-16 
1.38778e-17 1.38778e-17 2.22045e-16 
2.77556e-17 -5.55112e-17 0 
7.21645e-17 -5.55112e-18 0 
-5.55112e-17 3.46945e-18 6.66134e-16 
4.16334e-17 0 0 
5.20417e-18 0 -4.44089e-16 
-1.31839e-17 2.1684e-18 -1.66533e-16 
-2.10335e-17 6.93889e-18 -5.55112e-16 
4.96131e-17 -1.83881e-17 2.22045e-16 
1.21431e-17 -3.46945e-17 8.88178e-16 
3.1225e-17 3.46945e-17 0 
3.05311e-17 2.25514e-17 -3.33067e-16 
-3.46945e-18 4.16334e-17 -2.22045e-16 
5.20417e-17 1.11022e-16 8.88178e-16 
-2.77556e-17 1.52656e-17 8.88178e-16 
2.34749e-17 1.249e-17 4.44089e-16 
-2.77556e-17 1.38778e-17 -3.33067e-16 
6.93889e-18 -2.77556e-17 0 
5.55112e-17 0 -4.44089e-16 
-2.77556e-17 -2.08167e-17 0 
-2.77556e-17 1.52656e-17 8.88178e-16 
-5.31693e-17 6.53991e-17 2.22045e-16 
-2.77556e-17 -5.55112e-17 -4.44089e-16 
2.34749e-17 1.249e-17 4.44089e-16 
-2.77556e-17 1.38778e-17 -3.33067e-16 
5.20417e-18 0 -4.44089e-16 
-2.77556e-17 -2.08167e-17 0 
-3.46945e-17 0 -1.11022e-16 
5.55112e-17 0 -4.44089e-16 
1.38778e-17 2.77556e-17 4.44089e-16 
5.20417e-17 1.11022e-16 8.88178e-16 
2.34749e-17 1.249e-17 4.44089e-16 
-2.77556e-17 1.38778e-17 -3.33067e-16 
0 5.55112e-17 4.44089e-16 
6.93889e-17 0 0 
2.77556e-17 -2.77556e-17 7.77156e-16 
2.77556e-17 0 -1.11022e-16 
-5.55112e-18 1.8735e-17 -2.22045e-16 
2.77556e-17 0 -1.11022e-16 
6.93889e-17 0 0 
4.16334e-17 4.33681e-18 2.22045e-16 
0 5.20417e-18 0 
1.52656e-17 3.98986e-18 4.44089e-16 
1.249e-17 -2.11636e-17 1.94289e-16 
3.46945e-17 -1.38778e-17 1.11022e-16 
-1.38778e-17 4.85723e-17 2.22045e-16 
1.38778e-17 0 -1.11022e-16 
-1.94289e-17 -3.46945e-19 4.44089e-16 
-4.16334e-17 1.04083e-17 -2.22045e-16 
-5.55112e-17 3.46945e-18 6.66134e-16 
2.98372e-17 2.84495e-17 0 
2.77556e-17 -5.55112e-17 0 
-2.77556e-17 0 0 
-3.46945e-17 0 -1.11022e-16 
1.38778e-17 1.38778e-17 1.11022e-16 
-3.1225e-17 0 8.88178e-16 
5.55112e-17 0 -4.44089e-16 
1.38778e-17 0 -8.88178e-16 
1.249e-17 -2.11636e-17 1.94289e-16 
0 0 0 
3.46945e-17 -1.38778e-17 1.11022e-16 
1.38778e-17 2.77556e-17 4.44089e-16 
2.34749e-17 1.249e-17 4.44089e-16 
-1.66533e-17 2.35922e-17 0 
-2.77556e-17 1.38778e-17 -3.33067e-16 
-3.53016e-17 -1.45229e-17 0 
1.38778e-17 0 -8.88178e-16 
8.67362e-18 2.77556e-17 0 
1.38778e-17 2.77556e-17 2.22045e-16 
-1.38778e-17 3.46945e-17 2.22045e-16 
8.32667e-17 -4.16334e-17 4.44089e-16 
3.46945e-18 -2.77556e-17 0 
-3.46945e-18 4.16334e-17 -2.22045e-16 
5.20417e-18 0 -4.44089e-16 
4.96131e-17 -1.83881e-17 2.22045e-16 
-2.77556e-17 -2.08167e-17 0 
-3.46945e-18 4.16334e-17 -2.22045e-16 
-1.38778e-17 2.77556e-17 -4.44089e-16 
3.46945e-18 -8.32667e-18 2.77556e-17 
-1.38778e-17 -2.08167e-17 1.11022e-16 
-2.08167e-17 -1.73472e-17 2.22045e-16 
0 2.08167e-17 -2.22045e-16 
-2.77556e-17 0 -8.88178e-16 
1.38778e-17 0 -1.11022e-16 
-4.16334e-17 1.04083e-17 -2.22045e-16 
1.52656e-17 3.98986e-18 4.44089e-16 
0 1.73472e-17 4.44089e-16 
0 0 0 
0 -2.08167e-17 2.22045e-16 
0 2.08167e-17 -2.22045e-16 
1.38778e-17 0 -1.11022e-16 
-2.77556e-17 0 -8.88178e-16 
0 0 0 
-1.38778e-17 2.77556e-17 0 
-1.52656e-17 1.11022e-17 2.22045e-16 
3.1225e-17 2.08167e-17 3.33067e-16 
1.38778e-17 0 -1.11022e-16 
-3.46945e-17 0 -1.11022e-16 
2.98372e-17 2.84495e-17 0 
-2.10335e-17 6.93889e-18 -5.55112e-16 
-2.77556e-17 0 0 
5.55112e-17 0 -4.44089e-16 
5.20417e-18 0 -4.44089e-16 
-2.77556e-17 -2.08167e-17 0 
-3.46945e-18 4.16334e-17 -2.22045e-16 
2.77556e-17 -3.1225e-17 6.66134e-16 
2.77556e-18 2.63678e-17 -5.55112e-17 
6.85216e-18 -1.63498e-17 -3.33067e-16 
-2.77556e-17 -2.64545e-17 1.11022e-16 
7.63278e-18 5.55112e-18 1.38778e-17 
1.38778e-17 0 -8.88178e-16 
2.77556e-17 -2.77556e-17 7.77156e-16 
3.46945e-17 -1.38778e-17 1.11022e-16 
0 1.38778e-18 -4.44089e-16 
2.77556e-17 5.55112e-17 -6.66134e-16 
6.93889e-18 -2.77556e-17 0 
1.38778e-17 0 -2.22045e-16 
-1.66533e-17 2.35922e-17 0 
2.34749e-17 1.249e-17 4.44089e-16 
-2.77556e-17 -5.55112e-17 -4.44089e-16 
-2.77556e-17 1.38778e-17 -3.33067e-16 
1.38778e-17 2.77556e-17 4.44089e-16 
-1.66533e-17 2.35922e-17 0 
-4.16334e-17 -5.55112e-17 -4.44089e-16 
0 0 -1.11022e-16 
1.38778e-17 -5.55112e-17 -8.88178e-16 
1.73472e-17 2.77556e-17 -1.11022e-16 
-1.9082e-17 -5.18249e-17 4.44089e-16 
2.77556e-17 -5.55112e-17 -4.44089e-16 
-6.93889e-18 -1.38778e-17 0 
2.77556e-17 0 0 
1.17961e-17 -4.16334e-18 0 
1.69136e-17 1.73472e-17 2.49366e-16 
-1.31839e-17 2.1684e-18 -1.66533e-16 
5.20417e-18 0 -4.44089e-16 
-1.38778e-17 2.77556e-17 -4.44089e-16 
4.96131e-17 -1.83881e-17 2.22045e-16 
8.32667e-17 -4.16334e-17 4.44089e-16 
0 -1.66533e-17 8.88178e-16 
0 4.16334e-17 0 
1.38778e-17 5.55112e-17 -4.44089e-16 
-2.08167e-17 1.38778e-17 -8.88178e-16 
0 5.20417e-18 0 
-9.06393e-18 5.89806e-18 -3.33067e-16 
2.77556e-17 -2.77556e-17 2.22045e-16 
3.1225e-17 1.38778e-17 0 
0 -1.66533e-17 8.88178e-16 
0 1.38778e-17 0 
1.38778e-17 5.55112e-17 -4.44089e-16 
7.11237e-18 3.45312e-17 -1.11022e-16 
3.1225e-17 3.46945e-17 0 
1.21431e-17 -3.46945e-17 8.88178e-16 
0 0 2.22045e-16 
-2.08167e-17 -6.93889e-18 1.11022e-16 
5.55112e-17 2.77556e-17 2.22045e-16 
-2.77556e-17 0 -8.88178e-16 
1.38778e-17 -4.16334e-17 2.22045e-16 
-3.1225e-17 0 8.88178e-16 
-3.15764e-17 8.84376e-18 0 
1.38778e-17 1.38778e-17 1.11022e-16 
-2.77556e-17 0 0 
-1.94289e-17 -3.46945e-19 4.44089e-16 
1.38778e-17 0 -1.11022e-16 
-1.38778e-17 -1.38778e-17 1.11022e-16 
5.55112e-17 2.77556e-17 2.22045e-16 
0 0 0 
6.85216e-18 -1.63498e-17 -3.33067e-16 
2.77556e-17 -3.1225e-17 6.66134e-16 
2.85145e-17 2.77556e-17 6.66134e-16 
0 -2.77556e-17 -1.11022e-16 
0 1.38778e-17 0 
1.11022e-17 -7.70372e-34 0 
0 0 -2.22045e-16 
0 0 4.44089e-16 
-1.38778e-17 -6.93889e-18 2.22045e-16 
1.38778e-17 -6.93889e-18 2.22045e-16 
2.77556e-17 -2.77556e-17 2.22045e-16 
1.38778e-17 0 -8.88178e-16 
-3.53016e-17 -1.45229e-17 0 
3.1225e-17 2.08167e-17 3.33067e-16 
1.38778e-17 2.77556e-17 2.22045e-16 
-2.77556e-17 0 -8.88178e-16 
-2.08167e-17 -6.93889e-18 1.11022e-16 
1.38778e-17 0 -1.11022e-16 
5.55112e-17 2.77556e-17 2.22045e-16 
-3.15764e-17 8.84376e-18 0 
-6.93889e-18 -1.38778e-17 -1.66533e-16 
5.55112e-17 -2.90566e-17 6.66134e-16 
0 1.38778e-18 -4.44089e-16 
2.77556e-17 0 -1.11022e-16 
1.38778e-17 0 -8.88178e-16 
2.77556e-17 -2.77556e-17 7.77156e-16 
1.38778e-17 2.77556e-17 2.22045e-16 
7.28584e-18 -6.07153e-18 1.11022e-16 
3.46945e-18 -8.32667e-18 2.77556e-17 
0 0 4.44089e-16 
-2.08167e-17 -1.73472e-17 2.22045e-16 
-1.38778e-17 0 -1.11022e-16 
2.77556e-17 2.77556e-17 -2.22045e-16 
0 -2.77556e-17 0 
-1.38778e-17 4.85723e-17 2.22045e-16 
0 5.20417e-18 0 
2.77556e-17 -2.77556e-17 2.22045e-16 
0 2.77556e-17 1.11022e-16 
3.46945e-17 -1.38778e-17 1.11022e-16 
-1.38778e-17 2.77556e-17 -4.44089e-16 
4.96131e-17 -1.83881e-17 2.22045e-16 
5.20417e-18 0 -4.44089e-16 
-3.46945e-18 4.16334e-17 -2.22045e-16 
7.28584e-18 -6.07153e-18 1.11022e-16 
1.21431e-17 -3.46945e-17 8.88178e-16 
3.05311e-17 2.25514e-17 -3.33067e-16 
-2.08167e-17 -1.73472e-17 2.22045e-16 
-4.02456e-17 3.19189e-17 4.44089e-16 
0 8.32667e-17 3.33067e-16 
-1.38778e-17 -1.38778e-17 1.11022e-16 
-1.94289e-17 -3.46945e-19 4.44089e-16 
-2.77556e-17 0 -8.88178e-16 
5.55112e-17 2.77556e-17 2.22045e-16 
1.38778e-17 3.46945e-17 -4.44089e-16 
1.38778e-17 -4.16334e-17 2.22045e-16 
5.55112e-17 -1.11022e-16 -2.22045e-16 
0 1.73472e-17 4.44089e-16 
-4.16334e-17 -5.55112e-17 -4.44089e-16 
-1.38778e-17 1.38778e-17 -1.11022e-16 
-5.31693e-17 6.53991e-17 2.22045e-16 
-2.77556e-17 1.52656e-17 8.88178e-16 
6.93889e-18 -2.77556e-17 0 
1.38778e-17 0 -2.22045e-16 
-3.22659e-17 4.34548e-17 4.44089e-16 
0 2.77556e-17 0 
-4.85723e-17 0 0 
0 0 -5.55112e-17 
-1.38778e-17 -2.08167e-17 1.11022e-16 
2.25514e-17 1.38778e-17 0 
3.46945e-18 -2.77556e-17 0 
4.96131e-17 -1.83881e-17 2.22045e-16 
0 -5.55112e-17 -4.44089e-16 
0 -2.77556e-17 0 
1.38778e-17 2.77556e-17 0 
0 0 4.44089e-16 
0 0 -1.11022e-16 
1.38778e-17 2.77556e-17 4.44089e-16 
-1.66533e-17 2.35922e-17 0 
-2.77556e-17 1.38778e-17 -3.33067e-16 
0 0 0 
-3.53016e-17 -1.45229e-17 0 
8.67362e-18 2.77556e-17 0 
0 1.38778e-17 -1.11022e-16 
-5.55112e-17 0 -5.55112e-17 
0 -6.93889e-18 0 
-2.08167e-17 1.91904e-17 -1.11022e-16 
1.38778e-17 -2.08167e-17 0 
1.38778e-17 1.38778e-17 1.11022e-16 
-3.46945e-17 0 -1.11022e-16 
-3.1225e-17 0 8.88178e-16 
-2.77556e-17 0 0 
5.55112e-17 0 -4.44089e-16 
-2.77556e-17 -2.08167e-17 0 
1.38778e-17 1.38778e-17 1.11022e-16 
6.93889e-18 -2.77556e-17 0 
1.73472e-17 2.77556e-17 -1.11022e-16 
-1.9082e-17 -5.18249e-17 4.44089e-16 
2.08167e-17 0 0 
2.77556e-17 0 8.88178e-16 
-1.38778e-17 4.85723e-17 2.22045e-16 
1.38778e-17 0 -1.11022e-16 
-1.38778e-17 -1.38778e-17 1.11022e-16 
-1.94289e-17 -3.46945e-19 4.44089e-16 
1.38778e-17 2.77556e-17 2.22045e-16 
-1.38778e-17 2.77556e-17 0 
3.1225e-17 2.08167e-17 3.33067e-16 
1.38778e-17 0 -1.11022e-16 
8.32667e-17 0 7.77156e-16 
5.55112e-17 1.56125e-17 0 
0 -2.77556e-17 -1.11022e-16 
1.11022e-17 -7.70372e-34 0 
1.37043e-17 4.02673e-17 4.44089e-16 
-1.38778e-17 -1.38778e-17 1.11022e-16 
0 8.32667e-17 3.33067e-16 
-1.94289e-17 -3.46945e-19 4.44089e-16 
-2.77556e-17 -2.08167e-17 0 
5.20417e-18 0 -4.44089e-16 
-3.46945e-17 0 -1.11022e-16 
4.96131e-17 -1.83881e-17 2.22045e-16 
-2.77556e-17 -5.55112e-17 0 
-2.70617e-17 -1.56125e-17 2.22045e-16 
0 5.55112e-17 4.44089e-16 
-2.77556e-17 -2.64545e-17 1.11022e-16 
-6.93889e-18 -1.38778e-17 0 
0 2.77556e-17 -4.44089e-16 
1.80411e-17 2.63678e-17 1.66533e-16 
1.38778e-17 0 1.11022e-16 
1.38778e-17 3.46945e-17 -4.44089e-16 
1.38778e-17 -4.16334e-17 2.22045e-16 
5.55112e-17 2.77556e-17 2.22045e-16 
0 0 2.22045e-16 
2.98372e-17 2.84495e-17 0 
-3.46945e-17 0 -1.11022e-16 
2.77556e-17 -5.55112e-17 0 
-2.77556e-17 0 0 
-4.69131e-18 -1.36761e-17 -1.11022e-16 
3.46945e-18 -2.77556e-17 0 
2.25514e-17 1.38778e-17 0 
-3.46945e-18 4.16334e-17 -2.22045e-16 
1.38778e-17 0 -8.88178e-16 
2.77556e-17 0 -1.11022e-16 
2.77556e-17 -2.77556e-17 7.77156e-16 
3.46945e-17 -1.38778e-17 1.11022e-16 
8.32667e-17 -4.16334e-17 4.44089e-16 
0 4.16334e-17 0 
2.98372e-17 2.84495e-17 0 
4.96131e-17 -1.83881e-17 2.22045e-16 
-2.77556e-17 1.38778e-17 -1.11022e-16 
-5.10009e-17 -1.04083e-18 5.55112e-17 
0 0 2.22045e-16 
3.46945e-17 -1.38778e-17 1.11022e-16 
-5.55112e-18 1.8735e-17 -2.22045e-16 
-5.10009e-17 -1.04083e-18 5.55112e-17 
7.63278e-18 5.55112e-18 1.38778e-17 
3.46945e-17 -1.38778e-17 1.11022e-16 
1.11022e-16 1.38778e-17 8.88178e-16 
-5.55112e-17 0 -5.55112e-17 
-2.08167e-17 1.91904e-17 -1.11022e-16 
1.38778e-17 -2.08167e-17 0 
-1.38778e-17 -2.60209e-17 0 
3.46945e-18 -2.77556e-17 0 
8.32667e-17 -4.16334e-17 4.44089e-16 
-3.46945e-18 4.16334e-17 -2.22045e-16 
-2.08167e-17 -1.38778e-17 1.11022e-16 
1.38778e-17 2.77556e-17 0 
-1.04083e-17 -1.56125e-17 0 
0 -5.55112e-17 -4.44089e-16 
8.32667e-17 -4.16334e-17 4.44089e-16 
2.28983e-17 -1.38778e-18 4.996e-16 
3.46945e-18 -2.77556e-17 0 
4.96131e-17 -1.83881e-17 2.22045e-16 
2.77556e-17 -2.77556e-17 7.77156e-16 
0 5.55112e-17 4.44089e-16 
2.77556e-17 0 -1.11022e-16 
1.38778e-17 0 -1.11022e-16 
2.77556e-17 -2.77556e-17 7.77156e-16 
2.77556e-17 0 -1.11022e-16 
-5.55112e-18 1.8735e-17 -2.22045e-16 
3.46945e-17 -1.38778e-17 1.11022e-16 
1.38778e-17 2.77556e-17 0 
0 8.32667e-17 3.33067e-16 
2.77556e-17 2.77556e-17 0 
2.77556e-17 -5.55112e-17 -4.44089e-16 
-1.38778e-17 2.77556e-17 0 
-2.77556e-17 0 0 
8.32667e-17 -2.91434e-17 -7.77156e-16 
1.38778e-17 0 -1.11022e-16 
5.20417e-17 1.11022e-16 8.88178e-16 
1.38778e-17 2.77556e-17 4.44089e-16 
0 -2.08167e-17 2.22045e-16 
-2.77556e-17 1.38778e-17 -3.33067e-16 
-1.38778e-17 -2.60209e-17 0 
-3.46945e-18 4.16334e-17 -2.22045e-16 
8.32667e-17 -4.16334e-17 4.44089e-16 
1.38778e-17 1.38778e-17 2.22045e-16 
-1.38778e-17 -6.93889e-18 2.22045e-16 
1.80411e-17 2.63678e-17 1.66533e-16 
1.38778e-17 -6.93889e-18 2.22045e-16 
1.38778e-17 0 1.11022e-16 
0 2.77556e-17 0 
-3.22659e-17 4.34548e-17 4.44089e-16 
2.77556e-17 4.51028e-17 -1.11022e-16 
0 0 -5.55112e-17 
-2.08167e-17 -1.38778e-17 1.11022e-16 
0 -2.77556e-17 0 
1.38778e-17 2.77556e-17 0 
0 -5.55112e-17 -4.44089e-16 
-2.77556e-17 -5.55112e-17 0 
-4.16334e-17 0 0 
6.85216e-18 -1.63498e-17 -3.33067e-16 
-2.77556e-17 -2.64545e-17 1.11022e-16 
2.77556e-17 0 0 
5.27356e-17 -1.21431e-17 -2.77556e-16 
1.17961e-17 -4.16334e-18 0 
1.38778e-17 -4.16334e-17 2.22045e-16 
0 5.55112e-17 4.44089e-16 
-1.52656e-17 1.11022e-17 2.22045e-16 
-4.53413e-17 -6.66134e-17 -4.44089e-16 
1.38778e-17 0 -1.11022e-16 
1.38778e-17 0 -8.88178e-16 
1.38778e-17 2.77556e-17 2.22045e-16 
2.77556e-17 0 -1.11022e-16 
3.46945e-17 -1.38778e-17 1.11022e-16 
1.11022e-17 -7.70372e-34 0 
2.32426e-17 1.587e-17 -8.88178e-16 
0 -2.77556e-17 -1.11022e-16 
0 0 -2.22045e-16 
-2.77556e-17 1.52656e-17 8.88178e-16 
5.20417e-17 1.11022e-16 8.88178e-16 
-3.19189e-17 2.63678e-17 2.77556e-17 
-3.46945e-18 4.16334e-17 -2.22045e-16 
1.38778e-17 0 5.55112e-17 
-3.53016e-17 -1.45229e-17 0 
0 1.38778e-17 -1.11022e-16 
1.38778e-17 2.77556e-17 2.22045e-16 
-1.38778e-17 -2.60209e-17 0 
8.32667e-17 -4.16334e-17 4.44089e-16 
3.46945e-18 -2.77556e-17 0 
4.96131e-17 -1.83881e-17 2.22045e-16 
2.77556e-17 0 8.88178e-16 
1.73472e-17 2.77556e-17 -1.11022e-16 
-1.9082e-17 -5.18249e-17 4.44089e-16 
1.38778e-17 -5.55112e-17 -8.88178e-16 
-1.38778e-17 -5.20417e-18 -5.55112e-17 
0 0 0 
0 -2.08167e-17 -1.11022e-16 
0 0 1.33227e-15 
1.37043e-17 4.02673e-17 4.44089e-16 
-1.38778e-17 -1.38778e-17 0 
2.15106e-17 -3.33067e-17 8.88178e-16 
0 0 4.44089e-16 
0 0 2.22045e-16 
1.2739e-17 -6.85216e-18 -1.11022e-16 
1.80411e-17 2.63678e-17 1.66533e-16 
4.16334e-17 4.33681e-18 2.22045e-16 
1.80411e-17 -4.68375e-17 1.11022e-16 
2.77556e-17 -3.1225e-17 6.66134e-16 
-2.77556e-17 0 -8.88178e-16 
1.38778e-17 -4.16334e-17 2.22045e-16 
-2.77556e-17 2.32068e-17 -2.22045e-16 
0 0 0 
0 1.73472e-17 4.44089e-16 
0 1.38778e-17 -1.11022e-16 
-1.38778e-17 -1.38778e-17 1.11022e-16 
5.55112e-17 2.77556e-17 2.22045e-16 
-2.08167e-17 -6.93889e-18 1.11022e-16 
0 0 2.22045e-16 
-2.08167e-17 1.38778e-17 -8.88178e-16 
5.20417e-17 1.11022e-16 8.88178e-16 
0 2.77556e-17 1.11022e-16 
-3.46945e-18 4.16334e-17 -2.22045e-16 
-8.32667e-17 -5.55112e-17 4.44089e-16 
6.85216e-18 -1.63498e-17 -3.33067e-16 
-4.16334e-17 0 0 
2.85145e-17 2.77556e-17 6.66134e-16 
0 4.16334e-17 0 
2.08167e-17 0 0 
8.32667e-17 -4.16334e-17 4.44089e-16 
1.38778e-17 5.55112e-17 -4.44089e-16 
-3.53016e-17 -1.45229e-17 0 
0 0 0 
-2.77556e-17 2.32068e-17 -2.22045e-16 
0 1.38778e-17 -1.11022e-16 
2.77556e-17 5.55112e-17 -6.66134e-16 
-2.77556e-17 -8.32667e-17 -4.44089e-16 
-5.31693e-17 6.53991e-17 2.22045e-16 
1.38778e-17 0 -2.22045e-16 
1.52656e-17 3.98986e-18 4.44089e-16 
8.67362e-18 2.77556e-17 0 
0 0 0 
3.46945e-17 -1.38778e-17 1.11022e-16 
3.1225e-17 1.38778e-17 0 
0 1.38778e-17 0 
2.77556e-17 0 8.88178e-16 
1.38778e-17 5.55112e-17 -4.44089e-16 
1.38778e-17 0 -1.11022e-16 
-2.77556e-17 0 -8.88178e-16 
0 0 0 
1.38778e-17 -4.16334e-17 2.22045e-16 
0 -2.08167e-17 2.22045e-16 
1.52656e-17 3.98986e-18 4.44089e-16 
5.20417e-17 1.11022e-16 8.88178e-16 
0 2.77556e-17 1.11022e-16 
1.38778e-17 1.38778e-17 2.22045e-16 
-2.08167e-17 -1.38778e-17 1.11022e-16 
-1.12757e-17 -2.77556e-17 0 
1.38778e-17 -5.55112e-17 -8.88178e-16 
-2.77556e-17 0 0 
-3.15764e-17 8.84376e-18 0 
2.77556e-17 -5.55112e-17 0 
4.16334e-17 0 0 
2.77556e-17 -2.77556e-17 0 
1.38778e-17 0 5.55112e-17 
1.04083e-17 -4.16334e-17 0 
1.38778e-17 2.77556e-17 2.22045e-16 
0 -1.66533e-17 8.88178e-16 
0 4.16334e-17 0 
3.1225e-17 1.38778e-17 0 
8.32667e-17 0 7.77156e-16 
-1.9082e-17 -5.18249e-17 4.44089e-16 
2.91434e-17 -2.79488e-17 4.16334e-17 
2.77556e-17 -5.55112e-17 -4.44089e-16 
1.38778e-17 1.38778e-17 2.22045e-16 
6.93889e-18 -2.77556e-17 0 
1.38778e-17 1.38778e-17 1.11022e-16 
-3.1225e-17 0 8.88178e-16 
0 1.38778e-18 -4.44089e-16 
1.38778e-17 0 -8.88178e-16 
0 0 0 
8.67362e-18 2.77556e-17 0 
3.46945e-17 -1.38778e-17 1.11022e-16 
-3.53016e-17 -1.45229e-17 0 
2.77556e-17 -2.77556e-17 0 
3.1225e-17 2.08167e-17 3.33067e-16 
1.38778e-17 2.77556e-17 2.22045e-16 
5.55112e-17 -5.55112e-17 4.44089e-16 
1.38778e-17 2.77556e-17 -8.88178e-16 
-8.32667e-17 -3.46945e-17 0 
2.77556e-17 7.28584e-17 0 
6.93889e-18 0 2.22045e-16 
2.77556e-17 -2.77556e-17 2.22045e-16 
0 0 4.44089e-16 
-2.08167e-17 -1.73472e-17 2.22045e-16 
-1.52656e-17 1.11022e-17 2.22045e-16 
-1.38778e-17 2.77556e-17 0 
8.32667e-17 -2.91434e-17 -7.77156e-16 
1.38778e-17 0 -1.11022e-16 
0 0 2.22045e-16 
-1.38778e-17 -6.93889e-18 2.22045e-16 
-2.77556e-17 1.38778e-17 -1.11022e-16 
2.77556e-17 -2.77556e-17 2.22045e-16 
1.38778e-17 0 -2.22045e-16 
-5.31693e-17 6.53991e-17 2.22045e-16 
-2.77556e-17 1.52656e-17 8.88178e-16 
-2.77556e-17 1.38778e-17 -3.33067e-16 
7.21645e-17 -5.55112e-18 0 
2.77556e-17 -5.55112e-17 0 
0 2.08167e-17 -2.22045e-16 
4.16334e-17 0 0 
0 -6.93889e-18 0 
-2.42861e-17 1.38778e-17 1.11022e-16 
0 2.77556e-17 2.22045e-16 
-2.63678e-17 -4.02456e-17 1.33227e-15 
5.20417e-18 0 -4.44089e-16 
-3.19189e-17 -3.51752e-17 -5.55112e-17 
-1.38778e-17 2.77556e-17 -4.44089e-16 
-3.46945e-18 4.16334e-17 -2.22045e-16 
1.38778e-17 0 -1.11022e-16 
-2.08167e-17 -6.93889e-18 1.11022e-16 
-2.77556e-17 0 -8.88178e-16 
1.38778e-17 -4.16334e-17 2.22045e-16 
0 0 0 
1.52656e-17 3.98986e-18 4.44089e-16 
0 -2.08167e-17 2.22045e-16 
8.67362e-18 2.77556e-17 0 
2.28983e-17 -1.38778e-18 4.996e-16 
2.98372e-17 2.84495e-17 0 
-2.10335e-17 6.93889e-18 -5.55112e-16 
4.96131e-17 -1.83881e-17 2.22045e-16 
0 4.16334e-17 0 
0 -1.66533e-17 8.88178e-16 
2.98372e-17 2.84495e-17 0 
-5.55112e-17 3.46945e-18 6.66134e-16 
-2.08167e-17 -1.38778e-17 1.11022e-16 
-1.04083e-17 -1.56125e-17 0 
1.38778e-17 2.77556e-17 0 
2.77556e-17 -5.55112e-17 -4.44089e-16 
-1.38778e-17 -6.245e-17 -6.66134e-16 
1.38778e-17 1.38778e-17 2.22045e-16 
-1.12757e-17 -2.77556e-17 0 
1.38778e-17 -5.55112e-17 -8.88178e-16 
8.67362e-18 2.77556e-17 0 
1.38778e-17 2.77556e-17 2.22045e-16 
1.38778e-17 0 -8.88178e-16 
3.46945e-17 -1.38778e-17 1.11022e-16 
-2.08167e-17 -1.38778e-17 1.11022e-16 
1.38778e-17 1.38778e-17 2.22045e-16 
-1.04083e-17 -1.56125e-17 0 
1.38778e-17 -5.55112e-17 -8.88178e-16 
2.77556e-17 0 8.88178e-16 
2.08167e-17 0 0 
3.1225e-17 1.38778e-17 0 
1.38778e-17 5.55112e-17 -4.44089e-16 
-2.77556e-17 -2.08167e-17 0 
-2.77556e-17 1.38778e-17 -3.33067e-16 
-2.77556e-17 1.52656e-17 8.88178e-16 
-3.46945e-18 4.16334e-17 -2.22045e-16 
-5.55112e-17 0 -2.22045e-16 
1.0339e-16 -1.94289e-17 0 
-7.28584e-17 -5.55112e-17 2.22045e-16 
4.16334e-17 5.55112e-17 -2.22045e-16 
2.77556e-17 -3.1225e-17 6.66134e-16 
0 0 0 
-2.77556e-17 0 -8.88178e-16 
1.38778e-17 -4.16334e-17 2.22045e-16 
-5.55112e-17 -7.97973e-17 4.44089e-16 
-2.77556e-17 2.77556e-17 -2.22045e-16 
-8.32667e-17 -3.46945e-17 0 
1.38778e-17 2.77556e-17 -8.88178e-16 
2.77556e-17 0 -1.11022e-16 
6.93889e-17 0 0 
4.16334e-17 4.33681e-18 2.22045e-16 
-2.77556e-17 -2.64545e-17 1.11022e-16 
-1.04083e-17 -1.56125e-17 0 
-2.08167e-17 -1.38778e-17 1.11022e-16 
1.38778e-17 -5.55112e-17 -8.88178e-16 
2.77556e-17 -5.55112e-17 -4.44089e-16 
-2.63678e-17 -4.02456e-17 1.33227e-15 
0 -6.93889e-18 0 
6.93889e-18 -1.38778e-17 -2.22045e-16 
-8.32667e-17 0 0 
1.9082e-17 4.16334e-17 3.33067e-16 
-2.08167e-17 1.38778e-17 -8.88178e-16 
-9.06393e-18 5.89806e-18 -3.33067e-16 
2.77556e-17 -2.77556e-17 2.22045e-16 
-2.77556e-17 -5.55112e-17 0 
0 5.55112e-17 4.44089e-16 
-4.53413e-17 -6.66134e-17 -4.44089e-16 
-1.38778e-17 -2.77556e-17 0 
0 0 2.22045e-16 
1.80411e-17 2.63678e-17 1.66533e-16 
-1.38778e-17 -6.93889e-18 2.22045e-16 
1.38778e-17 0 1.11022e-16 
3.95517e-17 -9.71445e-18 0 
2.77556e-17 -3.46945e-17 2.22045e-16 
-5.55112e-17 5.55112e-17 -6.66134e-16 
-6.93889e-18 6.93889e-18 -1.11022e-16 
2.77556e-17 5.55112e-17 -6.66134e-16 
-2.42861e-17 1.38778e-17 1.11022e-16 
0 2.77556e-17 2.22045e-16 
6.93889e-18 -4.16334e-17 0 
4.16334e-17 0 0 
-3.15764e-17 8.84376e-18 0 
-6.93889e-18 -1.38778e-17 -1.66533e-16 
0 -2.91434e-17 -2.22045e-16 
0 2.77556e-17 2.22045e-16 
-5.55112e-17 0 -5.55112e-17 
0 -6.93889e-18 0 
-2.63678e-17 -4.02456e-17 1.33227e-15 
-2.77556e-17 1.52656e-17 8.88178e-16 
-2.77556e-17 -2.08167e-17 0 
6.93889e-18 -2.77556e-17 0 
1.38778e-17 0 -2.22045e-16 
1.2739e-17 -6.85216e-18 -1.11022e-16 
2.77556e-17 0 0 
-6.93889e-18 -1.38778e-17 0 
4.16334e-17 4.33681e-18 2.22045e-16 
1.38778e-17 2.77556e-17 0 
2.77556e-17 2.77556e-17 0 
-2.08167e-17 -1.38778e-17 1.11022e-16 
2.77556e-17 -5.55112e-17 -4.44089e-16 
1.38778e-17 2.77556e-17 -8.88178e-16 
-2.77556e-17 2.77556e-17 -2.22045e-16 
-8.32667e-17 -3.46945e-17 0 
0 -6.93889e-18 0 
-1.31839e-17 1.66533e-17 -7.63278e-17 
1.38778e-17 3.46945e-17 -4.44089e-16 
5.55112e-17 2.77556e-17 2.22045e-16 
0 0 2.22045e-16 
0 5.20417e-18 0 
-2.77556e-17 1.38778e-17 -1.11022e-16 
-9.06393e-18 5.89806e-18 -3.33067e-16 
2.77556e-17 -2.77556e-17 2.22045e-16 
0 -1.38778e-17 0 
-2.77556e-17 2.77556e-17 4.44089e-16 
-2.77556e-17 -5.55112e-17 0 
-4.16334e-17 0 0 
1.38778e-17 1.38778e-17 1.11022e-16 
-3.46945e-17 0 -1.11022e-16 
-2.77556e-17 -2.08167e-17 0 
5.55112e-17 0 -4.44089e-16 
1.38778e-17 0 5.55112e-17 
-3.53016e-17 -1.45229e-17 0 
-2.77556e-17 2.32068e-17 -2.22045e-16 
0 1.38778e-17 -1.11022e-16 
2.77556e-17 2.77556e-17 0 
0 8.32667e-17 3.33067e-16 
-1.38778e-17 -1.38778e-17 1.11022e-16 
1.38778e-17 1.38778e-17 2.22045e-16 
0 4.16334e-17 0 
-2.77556e-17 0 -2.22045e-16 
8.32667e-17 0 7.77156e-16 
-5.55112e-17 3.46945e-18 6.66134e-16 
-2.63678e-17 -4.02456e-17 1.33227e-15 
-5.55112e-17 0 -5.55112e-17 
0 -6.93889e-18 0 
-8.32667e-17 0 0 
6.85216e-18 -1.63498e-17 -3.33067e-16 
-2.77556e-17 -5.55112e-17 0 
-2.77556e-17 2.77556e-17 4.44089e-16 
-4.16334e-17 0 0 
1.21431e-17 -3.46945e-17 8.88178e-16 
3.05311e-17 2.25514e-17 -3.33067e-16 
-2.08167e-17 -1.73472e-17 2.22045e-16 
-3.46945e-18 4.16334e-17 -2.22045e-16 
2.77556e-17 1.38778e-17 0 
0 -2.77556e-17 0 
5.55112e-17 -5.55112e-17 -4.44089e-16 
0 0 4.44089e-16 
0 -2.77556e-17 0 
1.38778e-17 0 -1.11022e-16 
-1.38778e-17 4.85723e-17 2.22045e-16 
-4.16334e-17 1.04083e-17 -2.22045e-16 
1.38778e-17 2.77556e-17 0 
-1.38778e-17 -1.38778e-17 0 
0 8.32667e-17 3.33067e-16 
1.37043e-17 4.02673e-17 4.44089e-16 
5.55112e-17 -1.11022e-16 -2.22045e-16 
2.77556e-17 1.11022e-16 6.66134e-16 
-2.77556e-17 2.32068e-17 -2.22045e-16 
0 1.38778e-17 -1.11022e-16 
1.73472e-17 2.77556e-17 -1.11022e-16 
2.77556e-17 2.77556e-17 0 
-1.9082e-17 -5.18249e-17 4.44089e-16 
2.77556e-17 -5.55112e-17 -4.44089e-16 
2.98372e-17 2.84495e-17 0 
2.77556e-17 -5.55112e-17 0 
0 4.16334e-17 0 
-5.55112e-17 3.46945e-18 6.66134e-16 
0 -3.46945e-18 6.66134e-16 
1.38778e-17 1.38778e-17 2.22045e-16 
-1.04083e-17 -1.56125e-17 0 
-2.08167e-17 -1.38778e-17 1.11022e-16 
-2.08167e-17 1.38778e-17 -8.88178e-16 
1.9082e-17 4.16334e-17 3.33067e-16 
5.20417e-17 1.11022e-16 8.88178e-16 
-3.46945e-18 4.16334e-17 -2.22045e-16 
0 -2.77556e-17 -1.11022e-16 
3.1225e-17 1.38778e-17 0 
8.32667e-17 0 7.77156e-16 
0 1.38778e-17 0 
0 1.38778e-18 -4.44089e-16 
6.93889e-18 -2.77556e-17 0 
1.38778e-17 1.38778e-17 1.11022e-16 
1.38778e-17 0 -2.22045e-16 
-2.77556e-17 -5.55112e-17 0 
-4.53413e-17 -6.66134e-17 -4.44089e-16 
-2.77556e-17 2.77556e-17 4.44089e-16 
0 -1.38778e-17 0 
0 -2.77556e-17 0 
1.38778e-17 0 -1.11022e-16 
0 2.08167e-17 -2.22045e-16 
1.38778e-17 -4.77049e-18 1.11022e-16 
-2.77556e-17 -5.55112e-17 -4.44089e-16 
-5.31693e-17 6.53991e-17 2.22045e-16 
5.55112e-17 -2.77556e-17 1.11022e-16 
-2.77556e-17 1.38778e-17 -3.33067e-16 
2.98372e-17 2.84495e-17 0 
0 -1.66533e-17 8.88178e-16 
0 4.16334e-17 0 
8.32667e-17 -4.16334e-17 4.44089e-16 
0 -1.38778e-17 -2.22045e-16 
-4.02456e-17 3.19189e-17 4.44089e-16 
-1.38778e-17 -1.38778e-17 1.11022e-16 
0 0 2.22045e-16 
0 0 4.44089e-16 
1.38778e-17 0 1.11022e-16 
1.38778e-17 -6.93889e-18 2.22045e-16 
-2.08167e-17 -1.73472e-17 2.22045e-16 
-2.77556e-17 2.32068e-17 -2.22045e-16 
2.77556e-17 1.11022e-16 6.66134e-16 
1.38778e-17 0 5.55112e-17 
0 1.38778e-17 -1.11022e-16 
-1.38778e-17 -1.38778e-17 1.11022e-16 
-4.02456e-17 3.19189e-17 4.44089e-16 
0 -1.38778e-17 -2.22045e-16 
1.38778e-17 1.38778e-17 2.22045e-16 
0 -5.55112e-17 -4.44089e-16 
-1.04083e-17 -1.56125e-17 0 
6.93889e-18 4.16334e-17 0 
1.71711e-17 9.96585e-17 -4.44089e-16 
-2.77556e-17 -2.08167e-17 0 
-2.77556e-17 1.52656e-17 8.88178e-16 
5.55112e-17 0 -4.44089e-16 
-3.46945e-18 4.16334e-17 -2.22045e-16 
0 1.38778e-18 -4.44089e-16 
2.77556e-17 5.55112e-17 -6.66134e-16 
-2.42861e-17 1.38778e-17 1.11022e-16 
-2.63678e-17 -4.02456e-17 1.33227e-15 
0 0 4.44089e-16 
2.77556e-17 -2.77556e-17 2.22045e-16 
1.38778e-17 0 1.11022e-16 
-2.08167e-17 -1.73472e-17 2.22045e-16 
-3.15764e-17 8.84376e-18 0 
2.77556e-17 -5.55112e-17 0 
1.38778e-17 1.38778e-17 1.11022e-16 
-2.77556e-17 0 0 
-3.46945e-17 0 -1.11022e-16 
-2.10335e-17 6.93889e-18 -5.55112e-16 
2.98372e-17 2.84495e-17 0 
4.96131e-17 -1.83881e-17 2.22045e-16 
-1.38778e-17 -2.60209e-17 0 
8.32667e-17 -4.16334e-17 4.44089e-16 
2.08167e-17 0 0 
1.38778e-17 1.38778e-17 2.22045e-16 
1.38778e-17 0 -1.11022e-16 
-4.53413e-17 -6.66134e-17 -4.44089e-16 
0 5.55112e-17 4.44089e-16 
-1.38778e-17 -2.77556e-17 0 
1.38778e-17 0 -1.11022e-16 
0 -2.77556e-17 0 
0 2.08167e-17 -2.22045e-16 
-4.16334e-17 1.04083e-17 -2.22045e-16 
-2.77556e-17 0 0 
2.77556e-17 -5.55112e-17 0 
-5.55112e-17 3.46945e-18 6.66134e-16 
4.16334e-17 0 0 
-1.31839e-17 1.66533e-17 -7.63278e-17 
5.55112e-17 2.77556e-17 2.22045e-16 
-4.02456e-17 3.19189e-17 4.44089e-16 
0 0 2.22045e-16 
-1.73472e-17 0 2.22045e-16 
5.55112e-17 5.55112e-17 1.33227e-15 
2.77556e-17 1.38778e-17 4.44089e-16 
6.93889e-18 2.77556e-17 -1.11022e-16 
0 0 2.22045e-16 
2.77556e-17 -2.77556e-17 2.22045e-16 
-2.77556e-17 1.38778e-17 -1.11022e-16 
3.46945e-17 -1.38778e-17 1.11022e-16 
1.38778e-17 -4.77049e-18 1.11022e-16 
0 2.08167e-17 -2.22045e-16 
0 -2.77556e-17 0 
2.85145e-17 2.77556e-17 6.66134e-16 
-3.15764e-17 8.84376e-18 0 
1.38778e-17 1.38778e-17 1.11022e-16 
-6.93889e-18 -1.38778e-17 -1.66533e-16 
0 1.38778e-18 -4.44089e-16 
0 0 2.22045e-16 
1.38778e-17 0 1.11022e-16 
2.77556e-17 -2.77556e-17 2.22045e-16 
4.16334e-17 4.33681e-18 2.22045e-16 
-2.77556e-17 -8.32667e-17 -4.44089e-16 
-2.77556e-17 -5.55112e-17 -4.44089e-16 
-5.31693e-17 6.53991e-17 2.22045e-16 
5.55112e-17 -2.77556e-17 1.11022e-16 
1.52656e-17 3.98986e-18 4.44089e-16 
0 2.77556e-17 1.11022e-16 
8.67362e-18 2.77556e-17 0 
3.46945e-17 -1.38778e-17 1.11022e-16 
1.38778e-17 1.38778e-17 1.11022e-16 
-3.15764e-17 8.84376e-18 0 
-3.1225e-17 0 8.88178e-16 
0 1.38778e-18 -4.44089e-16 
-2.77556e-17 1.38778e-17 -3.33067e-16 
0 2.77556e-17 1.11022e-16 
5.20417e-17 1.11022e-16 8.88178e-16 
-3.46945e-18 4.16334e-17 -2.22045e-16 
-3.15764e-17 8.84376e-18 0 
5.55112e-17 -2.90566e-17 6.66134e-16 
-6.93889e-18 -1.38778e-17 -1.66533e-16 
0 -2.91434e-17 -2.22045e-16 
2.77556e-17 -1.38778e-17 0 
-2.77556e-17 0 0 
8.32667e-17 -2.91434e-17 -7.77156e-16 
6.58761e-17 4.47559e-17 0 
0 2.77556e-17 -4.44089e-16 
1.21431e-17 -3.46945e-17 8.88178e-16 
-2.08167e-17 -1.73472e-17 2.22045e-16 
1.69136e-17 1.73472e-17 2.49366e-16 
2.77556e-18 2.63678e-17 -5.55112e-17 
-2.77556e-17 -5.55112e-17 0 
6.85216e-18 -1.63498e-17 -3.33067e-16 
-2.77556e-17 -2.64545e-17 1.11022e-16 
-2.42861e-17 1.38778e-17 1.11022e-16 
2.77556e-17 5.55112e-17 -6.66134e-16 
0 1.38778e-18 -4.44089e-16 
1.38778e-17 0 -2.22045e-16 
0 0 4.44089e-16 
2.77556e-17 -2.77556e-17 2.22045e-16 
6.93889e-18 0 2.22045e-16 
-3.46945e-18 4.16334e-17 -2.22045e-16 
7.21645e-17 -5.55112e-18 0 
-2.77556e-17 0 -2.22045e-16 
2.77556e-17 -5.55112e-17 0 
-5.55112e-17 3.46945e-18 6.66134e-16 
2.77556e-17 -2.77556e-17 1.66533e-16 
-4.16334e-17 -3.60904e-17 -8.88178e-16 
0 0 -5.55112e-17 
-3.29597e-17 -1.73472e-17 -2.08167e-16 
8.32667e-17 -2.91434e-17 -7.77156e-16 
5.55112e-17 -5.55112e-17 4.44089e-16 
-4.53413e-17 -6.66134e-17 -4.44089e-16 
0 -1.38778e-17 0 
-2.77556e-17 -8.32667e-17 -4.44089e-16 
2.77556e-17 5.55112e-17 -6.66134e-16 
0 2.77556e-17 2.22045e-16 
6.93889e-18 -4.16334e-17 0 
-2.77556e-17 0 -1.11022e-16 
-3.46945e-17 -1.38778e-17 9.71445e-17 
-3.22659e-17 4.34548e-17 4.44089e-16 
2.77556e-17 4.51028e-17 -1.11022e-16 
6.93889e-18 -1.38778e-17 -2.22045e-16 
-1.38778e-17 -6.93889e-18 -8.32667e-17 
9.1073e-18 -2.68882e-17 -6.93889e-18 
-8.32667e-17 0 0 
3.1225e-17 1.38778e-17 0 
0 4.16334e-17 0 
0 -1.66533e-17 8.88178e-16 
1.38778e-17 5.55112e-17 -4.44089e-16 
-2.08167e-17 -1.38778e-17 1.11022e-16 
-1.04083e-17 -1.56125e-17 0 
6.93889e-18 4.16334e-17 0 
0 -5.55112e-17 -4.44089e-16 
-7.28584e-17 -5.55112e-17 2.22045e-16 
-4.16334e-17 -5.55112e-17 -4.44089e-16 
-2.77556e-17 5.55112e-17 0 
0 0 -1.11022e-16 
0 1.38778e-17 -1.11022e-16 
2.77556e-17 1.11022e-16 6.66134e-16 
1.38778e-17 0 5.55112e-17 
1.04083e-17 -4.16334e-17 0 
-5.55112e-18 1.8735e-17 -2.22045e-16 
2.77556e-17 0 -1.11022e-16 
4.16334e-17 4.33681e-18 2.22045e-16 
3.46945e-17 -1.38778e-17 1.11022e-16 
2.77556e-17 -1.38778e-17 0 
1.38778e-17 2.77556e-17 -8.88178e-16 
5.55112e-17 -5.55112e-17 4.44089e-16 
2.77556e-17 7.28584e-17 0 
8.32667e-17 -2.91434e-17 -7.77156e-16 
-4.53413e-17 -6.66134e-17 -4.44089e-16 
-1.52656e-17 1.11022e-17 2.22045e-16 
1.38778e-17 0 -1.11022e-16 
8.32667e-17 -2.91434e-17 -7.77156e-16 
-4.53413e-17 -6.66134e-17 -4.44089e-16 
1.38778e-17 0 -1.11022e-16 
0 -1.38778e-17 0 
0 -2.08167e-17 2.22045e-16 
0 1.73472e-17 4.44089e-16 
0 0 0 
0 1.38778e-17 -1.11022e-16 
6.93889e-18 -2.77556e-17 0 
2.77556e-17 5.55112e-17 -6.66134e-16 
-5.31693e-17 6.53991e-17 2.22045e-16 
1.38778e-17 0 -2.22045e-16 
0 1.73472e-17 4.44089e-16 
5.55112e-17 -1.11022e-16 -2.22045e-16 
-2.77556e-17 2.32068e-17 -2.22045e-16 
0 1.38778e-17 -1.11022e-16 
1.38778e-17 -2.08167e-17 0 
0 2.77556e-17 2.22045e-16 
0 -6.93889e-18 0 
6.93889e-18 -4.16334e-17 0 
0 0 0 
-2.77556e-17 5.55112e-17 -4.44089e-16 
0 -2.08167e-17 -1.11022e-16 
0 0 1.33227e-15 
2.77556e-17 2.77556e-17 0 
2.08167e-17 0 0 
-1.9082e-17 -5.18249e-17 4.44089e-16 
1.38778e-17 1.38778e-17 2.22045e-16 
5.55112e-17 -2.77556e-17 1.11022e-16 
-5.31693e-17 6.53991e-17 2.22045e-16 
-2.77556e-17 -8.32667e-17 -4.44089e-16 
1.38778e-17 0 -2.22045e-16 
2.77556e-17 0 8.88178e-16 
-1.38778e-17 -6.245e-17 -6.66134e-16 
1.73472e-17 2.77556e-17 -1.11022e-16 
1.38778e-17 -5.55112e-17 -8.88178e-16 
0 8.32667e-17 3.33067e-16 
2.77556e-17 2.77556e-17 0 
-1.38778e-17 -1.38778e-17 0 
1.38778e-17 2.77556e-17 0 
-1.38778e-17 2.77556e-17 0 
2.77556e-17 -2.77556e-17 0 
-2.77556e-17 0 0 
1.38778e-17 2.77556e-17 2.22045e-16 
2.77556e-17 0 -1.11022e-16 
-1.38778e-17 -2.77556e-17 0 
0 5.55112e-17 4.44089e-16 
-2.77556e-17 -2.64545e-17 1.11022e-16 
5.55112e-17 1.56125e-17 0 
2.32426e-17 1.587e-17 -8.88178e-16 
0 -2.77556e-17 -1.11022e-16 
1.11022e-17 -7.70372e-34 0 
-2.77556e-17 6.93889e-18 0 
-2.77556e-17 5.55112e-17 0 
-2.77556e-17 -5.55112e-17 -4.44089e-16 
0 0 -1.11022e-16 
2.08167e-17 0 0 
1.38778e-17 5.55112e-17 -4.44089e-16 
-1.9082e-17 -5.18249e-17 4.44089e-16 
1.38778e-17 1.38778e-17 2.22045e-16 
-1.38778e-17 -6.245e-17 -6.66134e-16 
1.73472e-17 2.77556e-17 -1.11022e-16 
-1.38778e-17 0 -1.11022e-16 
2.77556e-17 0 8.88178e-16 
0 -2.77556e-17 -5.55112e-17 
0 0 -1.11022e-16 
-2.77556e-17 5.55112e-17 1.33227e-15 
1.38778e-17 -1.9082e-17 0 
0 -2.08167e-17 2.22045e-16 
-4.16334e-17 -5.55112e-17 -4.44089e-16 
0 1.73472e-17 4.44089e-16 
-1.38778e-17 1.38778e-17 -1.11022e-16 
-2.08167e-17 -6.93889e-18 1.11022e-16 
-1.38778e-17 -1.38778e-17 1.11022e-16 
1.38778e-17 0 -1.11022e-16 
5.55112e-17 2.77556e-17 2.22045e-16 
2.77556e-17 -3.46945e-17 2.22045e-16 
1.38778e-17 2.77556e-17 0 
-5.55112e-17 5.55112e-17 -6.66134e-16 
-6.93889e-18 6.93889e-18 -1.11022e-16 
-1.38778e-17 0 -1.11022e-16 
0 -1.38778e-17 1.11022e-16 
2.77556e-17 2.77556e-17 -2.22045e-16 
-1.38778e-17 4.85723e-17 2.22045e-16 
-1.12757e-17 -2.77556e-17 0 
-2.08167e-17 -1.38778e-17 1.11022e-16 
1.38778e-17 1.38778e-17 2.22045e-16 
1.73472e-17 2.77556e-17 0 
-1.38778e-17 -1.38778e-17 1.11022e-16 
0 -1.38778e-17 1.11022e-16 
-1.38778e-17 4.85723e-17 2.22045e-16 
1.37043e-17 4.02673e-17 4.44089e-16 
7.21645e-17 -5.55112e-18 0 
2.08167e-17 2.77556e-17 -1.11022e-16 
5.55112e-17 1.56125e-17 0 
3.46945e-17 -5.55112e-17 -2.22045e-16 
6.93889e-18 0 2.22045e-16 
-2.08167e-17 -1.73472e-17 2.22045e-16 
-1.38778e-17 2.77556e-17 -4.44089e-16 
4.96131e-17 -1.83881e-17 2.22045e-16 
-4.16334e-17 0 0 
-2.77556e-17 2.77556e-17 4.44089e-16 
-8.32667e-17 -5.55112e-17 4.44089e-16 
2.77556e-17 -2.42861e-17 0 
0 0 4.44089e-16 
1.38778e-17 -6.93889e-18 2.22045e-16 
1.38778e-17 0 1.11022e-16 
2.77556e-17 -2.77556e-17 2.22045e-16 
-1.38778e-17 2.77556e-17 -4.44089e-16 
-1.38778e-17 -2.08167e-17 1.11022e-16 
-1.31839e-17 2.1684e-18 -1.66533e-16 
4.96131e-17 -1.83881e-17 2.22045e-16 
1.38778e-17 -4.77049e-18 1.11022e-16 
-8.32667e-17 -5.55112e-17 4.44089e-16 
2.85145e-17 2.77556e-17 6.66134e-16 
0 5.55112e-17 0 
-5.55112e-18 1.8735e-17 -2.22045e-16 
4.16334e-17 4.33681e-18 2.22045e-16 
-5.10009e-17 -1.04083e-18 5.55112e-17 
3.46945e-17 -1.38778e-17 1.11022e-16 
0 0 -5.55112e-17 
-4.85723e-17 0 0 
-4.16334e-17 -3.60904e-17 -8.88178e-16 
2.77556e-17 -2.77556e-17 1.66533e-16 
9.1073e-18 -2.68882e-17 -6.93889e-18 
-6.93889e-18 -1.38778e-17 -1.11022e-16 
4.16334e-17 0 -1.11022e-16 
0 0 -4.44089e-16 
0 1.73472e-17 4.44089e-16 
1.52656e-17 3.98986e-18 4.44089e-16 
1.38778e-17 2.77556e-17 4.44089e-16 
0 -2.08167e-17 2.22045e-16 
0 8.32667e-17 3.33067e-16 
-1.38778e-17 -1.38778e-17 0 
-1.38778e-17 -1.38778e-17 1.11022e-16 
1.37043e-17 4.02673e-17 4.44089e-16 
4.16334e-17 0 -1.11022e-16 
2.77556e-17 0 8.88178e-16 
0 0 -4.44089e-16 
3.46945e-17 -5.55112e-17 -2.22045e-16 
0 1.38778e-17 -1.11022e-16 
-3.29597e-17 -1.73472e-17 -2.08167e-16 
-2.77556e-17 2.77556e-17 -2.22045e-16 
-5.55112e-17 -7.97973e-17 4.44089e-16 
0 4.16334e-17 1.66533e-16 
0 0 -1.11022e-16 
3.95517e-17 -9.71445e-18 0 
0 -2.77556e-17 -5.55112e-17 
-1.38778e-17 -2.08167e-17 1.11022e-16 
-2.08167e-17 -1.73472e-17 2.22045e-16 
2.25514e-17 1.38778e-17 0 
4.96131e-17 -1.83881e-17 2.22045e-16 
0 0 2.22045e-16 
4.16334e-17 4.33681e-18 2.22045e-16 
2.77556e-17 -2.77556e-17 2.22045e-16 
3.46945e-17 -1.38778e-17 1.11022e-16 
-2.77556e-17 5.55112e-17 0 
-1.66533e-17 2.35922e-17 0 
-2.77556e-17 -5.55112e-17 -4.44089e-16 
0 0 -1.11022e-16 
-1.38778e-17 2.77556e-17 -4.44089e-16 
-2.08167e-17 -1.73472e-17 2.22045e-16 
-1.38778e-17 -2.08167e-17 1.11022e-16 
4.96131e-17 -1.83881e-17 2.22045e-16 
0 0 -1.11022e-16 
-6.93889e-18 -1.38778e-17 -1.11022e-16 
-2.77556e-17 5.55112e-17 1.33227e-15 
1.38778e-17 -1.9082e-17 0 
6.93889e-18 0 -2.77556e-17 
1.04083e-16 -5.55112e-17 1.77636e-15 
6.93889e-18 2.77556e-17 5.55112e-17 
2.16705e-17 1.49078e-17 8.88178e-16 
2.77556e-17 0 8.88178e-16 
2.08167e-17 2.77556e-17 -1.11022e-16 
7.21645e-17 -5.55112e-18 0 
3.46945e-17 -5.55112e-17 -2.22045e-16 
-3.46945e-17 -1.38778e-17 9.71445e-17 
-3.22659e-17 4.34548e-17 4.44089e-16 
-1.38778e-17 -1.73472e-17 1.11022e-15 
-2.77556e-17 0 -1.11022e-16 
6.93889e-18 0 -2.22045e-16 
-2.08167e-17 -2.08167e-17 -1.66533e-16 
1.63064e-17 -2.75819e-17 6.66134e-16 
-2.77556e-17 0 -1.11022e-16 
6.58761e-17 4.47559e-17 0 
-2.77556e-17 2.77556e-17 -2.22045e-16 
-1.38778e-17 4.16334e-17 -1.11022e-16 
-5.55112e-17 -7.97973e-17 4.44089e-16 
5.55112e-17 -5.55112e-17 -4.44089e-16 
2.77556e-17 1.38778e-17 0 
0 2.77556e-17 -4.44089e-16 
1.71711e-17 9.96585e-17 -4.44089e-16 
-1.38778e-17 -5.20417e-18 -5.55112e-17 
-2.77556e-17 -4.85723e-17 -1.11022e-16 
0 -1.38778e-17 -2.22045e-16 
0 0 1.33227e-15 
-5.10009e-17 -1.04083e-18 5.55112e-17 
4.16334e-17 4.33681e-18 2.22045e-16 
0 0 2.22045e-16 
3.46945e-17 -1.38778e-17 1.11022e-16 
6.93889e-18 2.77556e-17 5.55112e-17 
0 6.93889e-18 -5.55112e-17 
6.93889e-18 0 -2.77556e-17 
2.16705e-17 1.49078e-17 8.88178e-16 
-3.15764e-17 8.84376e-18 0 
-6.93889e-18 -1.38778e-17 -1.66533e-16 
2.77556e-17 -5.55112e-17 0 
4.16334e-17 0 0 
2.77556e-17 -3.1225e-17 6.66134e-16 
6.85216e-18 -1.63498e-17 -3.33067e-16 
0 0 0 
-2.77556e-17 -2.64545e-17 1.11022e-16 
2.77556e-17 1.38778e-17 0 
0 2.77556e-17 -4.44089e-16 
2.16705e-17 1.49078e-17 8.88178e-16 
5.55112e-17 -5.55112e-17 -4.44089e-16 
3.95517e-17 -9.71445e-18 0 
-6.93889e-18 6.93889e-18 -1.11022e-16 
0 0 -1.11022e-16 
0 4.16334e-17 1.66533e-16 
-1.38778e-17 -2.77556e-17 0 
0 -1.38778e-17 0 
-2.77556e-17 -5.55112e-17 0 
-4.16334e-17 0 0 
0 2.08167e-17 -1.11022e-16 
-2.77556e-17 -5.55112e-17 2.22045e-16 
-1.21431e-17 -1.0842e-18 1.11022e-16 
2.77556e-17 -1.38778e-17 1.11022e-16 
2.77556e-17 -2.42861e-17 0 
-2.77556e-17 2.77556e-17 4.44089e-16 
-8.32667e-17 -5.55112e-17 4.44089e-16 
-2.77556e-17 0 0 
2.77556e-17 -1.38778e-17 0 
-2.77556e-17 2.77556e-17 -2.22045e-16 
1.38778e-17 2.77556e-17 -8.88178e-16 
0 -6.93889e-18 0 
-6.93889e-18 -1.38778e-17 -1.66533e-16 
-2.42861e-17 1.38778e-17 1.11022e-16 
5.55112e-17 -2.90566e-17 6.66134e-16 
0 1.38778e-18 -4.44089e-16 
3.1225e-17 1.38778e-17 0 
0 1.38778e-17 0 
0 0 -2.22045e-16 
2.77556e-17 0 8.88178e-16 
-4.02456e-17 3.19189e-17 4.44089e-16 
0 0 2.22045e-16 
0 -1.38778e-17 -2.22045e-16 
1.38778e-17 1.38778e-17 2.22045e-16 
0 0 -2.22045e-16 
-1.38778e-17 -6.245e-17 -6.66134e-16 
-1.38778e-17 0 -1.11022e-16 
2.77556e-17 0 8.88178e-16 
-2.08167e-17 -1.38778e-17 1.11022e-16 
0 -3.46945e-18 6.66134e-16 
1.38778e-17 1.38778e-17 2.22045e-16 
1.73472e-17 2.77556e-17 0 
0 0 -4.44089e-16 
-4.16334e-17 1.38778e-17 -1.66533e-16 
4.16334e-17 0 -1.11022e-16 
3.46945e-17 -5.55112e-17 -2.22045e-16 
0 0 2.22045e-16 
1.38778e-17 0 1.11022e-16 
-1.38778e-17 -6.93889e-18 2.22045e-16 
2.77556e-17 -2.77556e-17 2.22045e-16 
2.77556e-17 -1.9082e-17 8.88178e-16 
9.1073e-18 -2.68882e-17 -6.93889e-18 
4.16334e-17 0 -1.11022e-16 
0 0 -4.44089e-16 
-2.77556e-17 -5.55112e-17 0 
-4.53413e-17 -6.66134e-17 -4.44089e-16 
0 -1.38778e-17 0 
-1.38778e-17 -2.77556e-17 0 
-2.77556e-17 -5.55112e-17 -4.44089e-16 
8.32667e-18 8.32667e-17 -7.77156e-16 
-2.77556e-17 5.55112e-17 0 
-2.77556e-17 6.93889e-18 0 
-1.38778e-17 0 -1.11022e-16 
0 -2.77556e-17 0 
-3.53884e-17 -4.85723e-17 2.22045e-16 
1.38778e-17 -4.77049e-18 1.11022e-16 
2.77556e-17 1.38778e-17 -1.66533e-16 
3.95517e-17 -9.71445e-18 0 
-6.93889e-18 6.93889e-18 -1.11022e-16 
0 5.55112e-17 0 
-6.93889e-18 -1.38778e-17 -1.66533e-16 
0 2.08167e-17 -2.22045e-16 
4.16334e-17 0 0 
0 -2.91434e-17 -2.22045e-16 
5.55112e-17 -2.90566e-17 6.66134e-16 
-3.46945e-18 3.46945e-17 0 
-6.93889e-18 -1.38778e-17 -1.66533e-16 
0 -2.91434e-17 -2.22045e-16 
4.16334e-17 5.55112e-17 0 
-2.77556e-17 0 0 
-2.77556e-17 2.77556e-17 -1.11022e-16 
2.77556e-17 -2.77556e-17 0 
0 2.77556e-17 0 
-1.38778e-17 0 1.11022e-16 
1.04083e-16 -5.55112e-17 1.77636e-15 
6.93889e-18 2.77556e-17 5.55112e-17 
5.55112e-17 5.55112e-17 1.33227e-15 
-5.55112e-17 0 -2.22045e-16 
-7.28584e-17 -5.55112e-17 2.22045e-16 
4.16334e-17 5.55112e-17 -2.22045e-16 
5.55112e-17 -2.90566e-17 6.66134e-16 
6.93889e-18 -1.38778e-17 -2.22045e-16 
-3.46945e-18 3.46945e-17 0 
-8.32667e-17 0 0 
1.80411e-17 -4.68375e-17 1.11022e-16 
2.77556e-18 2.63678e-17 -5.55112e-17 
2.77556e-17 -3.1225e-17 6.66134e-16 
-2.77556e-17 -2.64545e-17 1.11022e-16 
7.28584e-18 -6.07153e-18 1.11022e-16 
1.38778e-17 -6.93889e-18 2.22045e-16 
1.38778e-17 0 1.11022e-16 
-2.08167e-17 -1.73472e-17 2.22045e-16 
2.77556e-17 2.77556e-17 0 
-1.9082e-17 -5.18249e-17 4.44089e-16 
2.77556e-17 -5.55112e-17 -4.44089e-16 
1.38778e-17 1.38778e-17 2.22045e-16 
1.80411e-17 -4.68375e-17 1.11022e-16 
-2.77556e-17 -2.64545e-17 1.11022e-16 
2.77556e-17 -3.1225e-17 6.66134e-16 
1.38778e-17 -4.16334e-17 2.22045e-16 
-2.77556e-17 -5.55112e-17 0 
-1.38778e-17 -2.77556e-17 0 
-4.16334e-17 0 0 
-2.77556e-17 -2.64545e-17 1.11022e-16 
0 6.93889e-18 -5.55112e-17 
2.77556e-17 1.38778e-17 0 
0 2.77556e-17 -4.44089e-16 
2.16705e-17 1.49078e-17 8.88178e-16 
2.77556e-17 1.38778e-17 -1.66533e-16 
3.95517e-17 -9.71445e-18 0 
-5.55112e-17 5.55112e-17 -6.66134e-16 
-6.93889e-18 6.93889e-18 -1.11022e-16 
-2.77556e-17 -3.46945e-18 -1.66533e-16 
0 2.77556e-17 -4.44089e-16 
2.77556e-17 1.38778e-17 0 
1.71711e-17 9.96585e-17 -4.44089e-16 
8.32667e-18 8.32667e-17 -7.77156e-16 
-2.77556e-17 -8.32667e-17 -4.44089e-16 
2.77556e-17 -1.38778e-17 1.11022e-16 
5.55112e-17 -2.77556e-17 1.11022e-16 
1.38778e-17 2.77556e-17 4.44089e-16 
-4.16334e-17 -5.55112e-17 -4.44089e-16 
0 1.73472e-17 4.44089e-16 
0 -2.08167e-17 2.22045e-16 
2.77556e-17 1.38778e-17 4.44089e-16 
0 -3.46945e-17 -2.77556e-16 
-1.73472e-17 0 2.22045e-16 
6.93889e-18 2.77556e-17 -1.11022e-16 
-2.77556e-17 2.77556e-17 -2.22045e-16 
0 1.38778e-17 -1.11022e-16 
-5.55112e-17 -7.97973e-17 4.44089e-16 
-1.38778e-17 -2.77556e-17 -5.55112e-17 
0 -2.91434e-17 -2.22045e-16 
-3.46945e-18 3.46945e-17 0 
0 2.08167e-17 -2.22045e-16 
2.77556e-17 0 8.88178e-16 
-3.46945e-17 0 -1.11022e-16 
1.38778e-17 1.38778e-17 1.11022e-16 
2.77556e-17 -5.55112e-17 0 
-2.77556e-17 0 0 
-1.21431e-17 -1.0842e-18 1.11022e-16 
1.11022e-16 1.38778e-17 8.88178e-16 
-2.08167e-17 1.91904e-17 -1.11022e-16 
1.38778e-17 -2.08167e-17 0 
0 0 -1.11022e-16 
-2.77556e-17 5.55112e-17 1.33227e-15 
3.95517e-17 -9.71445e-18 0 
0 -2.77556e-17 -5.55112e-17 
-2.77556e-17 -5.55112e-17 -4.44089e-16 
5.55112e-17 -2.77556e-17 1.11022e-16 
-2.77556e-17 6.93889e-18 0 
0 0 -1.11022e-16 
0 -2.91434e-17 -2.22045e-16 
0 2.08167e-17 -2.22045e-16 
4.16334e-17 0 0 
2.77556e-17 0 8.88178e-16 
5.27356e-17 -1.21431e-17 -2.77556e-16 
2.77556e-17 0 0 
6.93889e-17 0 0 
4.16334e-17 4.33681e-18 2.22045e-16 
-2.77556e-17 2.77556e-17 -1.11022e-16 
2.77556e-17 0 6.66134e-16 
4.16334e-17 5.55112e-17 0 
2.77556e-17 -2.77556e-17 0 
0 -2.08167e-17 2.22045e-16 
1.38778e-17 2.77556e-17 4.44089e-16 
-4.16334e-17 -5.55112e-17 -4.44089e-16 
0 0 -1.11022e-16 
1.38778e-17 2.77556e-17 0 
0 2.77556e-17 0 
4.16334e-17 1.38778e-17 0 
1.38778e-17 -5.55112e-17 0 
2.77556e-17 0 8.88178e-16 
2.77556e-17 -1.9082e-17 8.88178e-16 
4.16334e-17 0 -1.11022e-16 
0 0 -4.44089e-16 
2.77556e-17 0 0 
4.16334e-17 4.33681e-18 2.22045e-16 
5.27356e-17 -1.21431e-17 -2.77556e-16 
1.38778e-17 -4.16334e-17 2.22045e-16 
-2.77556e-17 1.38778e-17 -3.33067e-16 
0 -2.08167e-17 2.22045e-16 
5.20417e-17 1.11022e-16 8.88178e-16 
0 2.77556e-17 1.11022e-16 
5.55112e-17 8.32667e-17 -1.11022e-16 
-2.77556e-17 5.55112e-17 1.33227e-15 
-6.93889e-18 -1.38778e-17 -1.11022e-16 
1.38778e-17 -1.9082e-17 0 
1.04083e-17 -2.77556e-17 0 
-4.02456e-17 3.19189e-17 4.44089e-16 
-1.66533e-17 -6.93889e-18 9.4369e-16 
0 0 2.22045e-16 
0 2.08167e-17 -2.22045e-16 
7.21645e-17 -5.55112e-18 0 
4.16334e-17 0 0 
2.77556e-17 0 8.88178e-16 
-2.42861e-17 1.38778e-17 1.11022e-16 
5.55112e-17 -2.90566e-17 6.66134e-16 
-2.63678e-17 -4.02456e-17 1.33227e-15 
-8.32667e-17 0 0 
1.73472e-17 2.77556e-17 -1.11022e-16 
-1.38778e-17 -6.245e-17 -6.66134e-16 
-1.12757e-17 -2.77556e-17 0 
1.38778e-17 -5.55112e-17 -8.88178e-16 
7.21645e-17 -5.55112e-18 0 
2.08167e-17 2.77556e-17 -1.11022e-16 
-2.77556e-17 0 -2.22045e-16 
5.55112e-17 1.56125e-17 0 
0 -2.91434e-17 -2.22045e-16 
2.77556e-17 -1.9082e-17 8.88178e-16 
-3.46945e-18 3.46945e-17 0 
2.77556e-17 0 8.88178e-16 
-1.38778e-17 2.77556e-17 -4.44089e-16 
6.93889e-18 0 2.22045e-16 
4.96131e-17 -1.83881e-17 2.22045e-16 
-3.46945e-18 4.16334e-17 -2.22045e-16 
0 0 -1.11022e-16 
-2.77556e-17 5.55112e-17 1.33227e-15 
-6.93889e-18 -1.38778e-17 -1.11022e-16 
-2.77556e-17 0 0 
2.08167e-17 0 0 
2.77556e-17 2.77556e-17 0 
-1.9082e-17 -5.18249e-17 4.44089e-16 
1.73472e-17 2.77556e-17 -1.11022e-16 
6.93889e-18 4.16334e-17 0 
0 -3.46945e-18 6.66134e-16 
-1.04083e-17 -1.56125e-17 0 
-2.08167e-17 -1.38778e-17 1.11022e-16 
-2.77556e-17 6.93889e-18 0 
6.93889e-18 0 -2.22045e-16 
1.63064e-17 -2.75819e-17 6.66134e-16 
-2.77556e-17 0 -1.11022e-16 
1.38778e-17 -4.77049e-18 1.11022e-16 
-8.32667e-17 -5.55112e-17 4.44089e-16 
-4.16334e-17 0 0 
2.85145e-17 2.77556e-17 6.66134e-16 
6.93889e-18 4.16334e-17 0 
-2.77556e-17 -3.46945e-18 -1.66533e-16 
2.77556e-17 1.38778e-17 0 
1.71711e-17 9.96585e-17 -4.44089e-16 
-1.04083e-17 -1.56125e-17 0 
0 -3.46945e-18 6.66134e-16 
6.93889e-18 4.16334e-17 0 
1.71711e-17 9.96585e-17 -4.44089e-16 
7.21645e-17 -5.55112e-18 0 
0 2.08167e-17 -2.22045e-16 
2.08167e-17 2.77556e-17 -1.11022e-16 
2.77556e-17 0 8.88178e-16 
6.93889e-18 -4.16334e-17 0 
2.77556e-17 -1.38778e-17 1.11022e-16 
-2.77556e-17 -8.32667e-17 -4.44089e-16 
5.55112e-17 -2.77556e-17 1.11022e-16 
4.16334e-17 5.55112e-17 -2.22045e-16 
-5.55112e-17 0 -2.22045e-16 
1.0339e-16 -1.94289e-17 0 
-2.77556e-17 6.93889e-18 0 
-3.53016e-17 -1.45229e-17 0 
8.67362e-18 2.77556e-17 0 
0 1.38778e-17 -1.11022e-16 
1.38778e-17 2.77556e-17 2.22045e-16 
1.73472e-17 2.77556e-17 -1.11022e-16 
-1.12757e-17 -2.77556e-17 0 
-2.08167e-17 -1.38778e-17 1.11022e-16 
1.38778e-17 -5.55112e-17 -8.88178e-16 
-1.38778e-17 0 1.11022e-16 
6.93889e-18 0 -2.77556e-17 
1.04083e-16 -5.55112e-17 1.77636e-15 
6.93889e-18 2.77556e-17 5.55112e-17 
-1.04083e-17 2.77556e-17 0 
-2.77556e-17 5.55112e-17 1.33227e-15 
0 0 -1.11022e-16 
-2.77556e-17 0 0 
-1.38778e-17 -2.60209e-17 0 
0 4.16334e-17 0 
8.32667e-17 -4.16334e-17 4.44089e-16 
4.96131e-17 -1.83881e-17 2.22045e-16 
6.85216e-18 -1.63498e-17 -3.33067e-16 
-4.16334e-17 0 0 
0 0 0 
-2.77556e-17 -2.64545e-17 1.11022e-16 
5.55112e-17 -1.11022e-16 -2.22045e-16 
1.0339e-16 -1.94289e-17 0 
2.77556e-17 1.11022e-16 6.66134e-16 
-1.38778e-17 5.55112e-17 0 
2.77556e-17 -1.38778e-17 1.11022e-16 
6.93889e-18 2.77556e-17 -1.11022e-16 
2.77556e-17 1.38778e-17 4.44089e-16 
-2.77556e-17 6.93889e-18 0 
1.0339e-16 -1.94289e-17 0 
-7.28584e-17 -5.55112e-17 2.22045e-16 
4.16334e-17 5.55112e-17 -2.22045e-16 
-1.38778e-17 1.38778e-17 -1.11022e-16 
-6.93889e-18 6.93889e-18 -1.11022e-16 
3.95517e-17 -9.71445e-18 0 
2.77556e-17 -3.46945e-17 2.22045e-16 
0 4.16334e-17 1.66533e-16 
2.77556e-17 -2.42861e-17 0 
0 -1.38778e-17 0 
-2.77556e-17 2.77556e-17 4.44089e-16 
2.77556e-17 7.28584e-17 0 
3.1225e-17 3.46945e-17 0 
1.21431e-17 -3.46945e-17 8.88178e-16 
1.69136e-17 1.73472e-17 2.49366e-16 
-3.46945e-18 4.16334e-17 -2.22045e-16 
-2.77556e-17 -5.55112e-17 2.22045e-16 
1.11022e-16 1.38778e-17 8.88178e-16 
-1.21431e-17 -1.0842e-18 1.11022e-16 
2.77556e-17 -1.38778e-17 1.11022e-16 
1.38778e-17 -4.77049e-18 1.11022e-16 
-3.53884e-17 -4.85723e-17 2.22045e-16 
2.77556e-17 1.38778e-17 -1.66533e-16 
0 5.55112e-17 0 
0 -5.55112e-17 -4.44089e-16 
5.55112e-17 -5.55112e-17 -4.44089e-16 
0 -2.77556e-17 0 
0 0 4.44089e-16 
1.38778e-17 0 -1.11022e-16 
0 5.55112e-17 4.44089e-16 
2.77556e-17 0 -1.11022e-16 
-1.38778e-17 -2.77556e-17 0 
-3.46945e-18 3.46945e-17 0 
6.93889e-18 -1.38778e-17 -2.22045e-16 
9.1073e-18 -2.68882e-17 -6.93889e-18 
-8.32667e-17 0 0 
-1.38778e-17 0 -1.11022e-16 
0 -2.08167e-17 -1.11022e-16 
-1.38778e-17 -6.245e-17 -6.66134e-16 
0 0 1.33227e-15 
1.32273e-17 -1.60462e-17 1.38778e-16 
0 0 0 
-2.77556e-17 5.55112e-17 -4.44089e-16 
0 -2.08167e-17 -1.11022e-16 
1.38778e-17 -4.77049e-18 1.11022e-16 
0 -2.77556e-17 0 
-3.53884e-17 -4.85723e-17 2.22045e-16 
2.85145e-17 2.77556e-17 6.66134e-16 
-1.38778e-17 2.77556e-17 0 
-2.77556e-17 0 0 
-2.77556e-17 2.77556e-17 -1.11022e-16 
6.58761e-17 4.47559e-17 0 
-5.55112e-17 -7.97973e-17 4.44089e-16 
-8.32667e-17 -3.46945e-17 0 
-2.77556e-17 2.77556e-17 -2.22045e-16 
-1.38778e-17 -2.77556e-17 -5.55112e-17 
1.38778e-17 2.77556e-17 -8.88178e-16 
8.32667e-17 -2.91434e-17 -7.77156e-16 
2.77556e-17 -1.38778e-17 0 
5.55112e-17 -5.55112e-17 4.44089e-16 
0 2.77556e-17 -4.44089e-16 
7.28584e-18 -6.07153e-18 1.11022e-16 
1.38778e-17 0 1.11022e-16 
-2.08167e-17 -1.73472e-17 2.22045e-16 
-1.38778e-17 -1.38778e-17 0 
-4.16334e-17 1.38778e-17 0 
2.15106e-17 -3.33067e-17 8.88178e-16 
0 0 4.44089e-16 
-3.46945e-17 -1.38778e-17 9.71445e-17 
0 2.77556e-17 0 
-3.22659e-17 4.34548e-17 4.44089e-16 
2.77556e-17 4.51028e-17 -1.11022e-16 
-1.38778e-17 -1.38778e-17 0 
2.15106e-17 -3.33067e-17 8.88178e-16 
0 -1.38778e-17 1.11022e-16 
1.37043e-17 4.02673e-17 4.44089e-16 
-3.53884e-17 -4.85723e-17 2.22045e-16 
1.38778e-17 -4.77049e-18 1.11022e-16 
2.85145e-17 2.77556e-17 6.66134e-16 
0 5.55112e-17 0 
-9.71445e-17 -5.55112e-17 6.66134e-16 
2.08167e-17 2.77556e-17 -1.11022e-16 
-4.16334e-17 1.38778e-17 -1.66533e-16 
3.46945e-17 -5.55112e-17 -2.22045e-16 
5.55112e-17 0 -4.44089e-16 
-3.19189e-17 2.63678e-17 2.77556e-17 
5.20417e-18 0 -4.44089e-16 
-3.46945e-18 4.16334e-17 -2.22045e-16 
0 2.08167e-17 -2.22045e-16 
1.38778e-17 0 -1.11022e-16 
0 0 0 
1.38778e-17 -4.77049e-18 1.11022e-16 
-2.77556e-17 0 -2.22045e-16 
7.21645e-17 -5.55112e-18 0 
8.32667e-17 0 7.77156e-16 
-5.55112e-17 3.46945e-18 6.66134e-16 
0 -2.08167e-17 -1.11022e-16 
-2.77556e-17 5.55112e-17 -4.44089e-16 
-1.38778e-17 -6.245e-17 -6.66134e-16 
0 0 1.33227e-15 
5.55112e-17 -5.55112e-17 -4.44089e-16 
-4.16334e-17 1.38778e-17 0 
2.77556e-17 1.38778e-17 0 
0 0 4.44089e-16 
-5.55112e-17 0 0 
-3.53884e-17 -4.85723e-17 2.22045e-16 
-5.55112e-17 5.55112e-17 -6.66134e-16 
2.77556e-17 1.38778e-17 -1.66533e-16 
0 2.77556e-17 0 
-1.38778e-17 0 1.11022e-16 
4.16334e-17 1.38778e-17 0 
1.38778e-17 -5.55112e-17 0 
-1.38778e-17 0 -1.11022e-16 
-3.53884e-17 -4.85723e-17 2.22045e-16 
-5.55112e-17 0 0 
2.77556e-17 1.38778e-17 -1.66533e-16 
-1.21431e-17 -1.0842e-18 1.11022e-16 
1.11022e-16 1.38778e-17 8.88178e-16 
1.38778e-17 -2.08167e-17 0 
2.77556e-17 -1.38778e-17 1.11022e-16 
1.38778e-17 -2.08167e-17 0 
1.11022e-16 1.38778e-17 8.88178e-16 
0 2.77556e-17 2.22045e-16 
6.93889e-18 -4.16334e-17 0 
1.04083e-17 -4.16334e-17 0 
-1.38778e-17 5.55112e-17 0 
2.77556e-17 1.11022e-16 6.66134e-16 
2.77556e-17 4.51028e-17 -1.11022e-16 
2.98372e-17 2.84495e-17 0 
0 4.16334e-17 0 
-3.46945e-17 0 -1.11022e-16 
4.96131e-17 -1.83881e-17 2.22045e-16 
1.38778e-17 0 -2.22045e-16 
5.55112e-17 -2.77556e-17 1.11022e-16 
-5.31693e-17 6.53991e-17 2.22045e-16 
-2.77556e-17 1.38778e-17 -3.33067e-16 
0 -3.46945e-17 -2.77556e-16 
2.77556e-17 1.38778e-17 4.44089e-16 
-2.77556e-17 -5.55112e-17 2.22045e-16 
6.93889e-18 2.77556e-17 -1.11022e-16 
-5.55112e-17 5.55112e-17 -6.66134e-16 
3.95517e-17 -9.71445e-18 0 
2.77556e-17 1.38778e-17 -1.66533e-16 
0 5.55112e-17 0 
1.04083e-17 -4.16334e-17 0 
1.38778e-17 0 5.55112e-17 
0 1.38778e-17 -1.11022e-16 
1.38778e-17 2.77556e-17 2.22045e-16 
6.85216e-18 -1.63498e-17 -3.33067e-16 
-2.77556e-17 2.77556e-17 4.44089e-16 
-8.32667e-17 -5.55112e-17 4.44089e-16 
-4.16334e-17 0 0 
-9.71445e-17 -5.55112e-17 6.66134e-16 
-2.77556e-17 -2.77556e-17 1.11022e-16 
-2.77556e-17 0 -1.11022e-16 
2.32426e-17 1.587e-17 -8.88178e-16 
2.77556e-17 -1.38778e-17 1.11022e-16 
-2.77556e-17 -8.32667e-17 -4.44089e-16 
1.11022e-16 1.38778e-17 8.88178e-16 
6.93889e-18 -4.16334e-17 0 
2.08167e-17 2.77556e-17 -1.11022e-16 
-4.16334e-17 1.38778e-17 -1.66533e-16 
6.93889e-18 2.08167e-17 -1.80411e-16 
-9.71445e-17 -5.55112e-17 6.66134e-16 
7.28584e-18 -6.07153e-18 1.11022e-16 
1.38778e-17 -6.93889e-18 2.22045e-16 
0 2.77556e-17 -4.44089e-16 
1.38778e-17 0 1.11022e-16 
0 0 1.33227e-15 
-2.77556e-17 -4.85723e-17 -1.11022e-16 
2.32426e-17 1.587e-17 -8.88178e-16 
0 0 -2.22045e-16 
-1.38778e-17 0 -1.11022e-16 
-2.77556e-17 -4.85723e-17 -1.11022e-16 
0 0 1.33227e-15 
0 0 -2.22045e-16 
1.38778e-17 0 -2.22045e-16 
-2.77556e-17 1.52656e-17 8.88178e-16 
-2.77556e-17 -2.08167e-17 0 
-2.77556e-17 1.38778e-17 -3.33067e-16 
-8.32667e-17 -5.55112e-17 4.44089e-16 
1.38778e-17 -4.77049e-18 1.11022e-16 
-1.04083e-17 2.77556e-17 0 
0 5.55112e-17 0 
1.11022e-16 1.38778e-17 8.88178e-16 
8.32667e-18 8.32667e-17 -7.77156e-16 
-2.77556e-17 -8.32667e-17 -4.44089e-16 
2.77556e-17 -1.38778e-17 1.11022e-16 
2.25514e-17 1.38778e-17 0 
-2.08167e-17 -1.73472e-17 2.22045e-16 
3.46945e-18 -2.77556e-17 0 
4.96131e-17 -1.83881e-17 2.22045e-16 
-2.77556e-17 2.77556e-17 4.44089e-16 
2.77556e-17 -2.42861e-17 0 
2.77556e-17 7.28584e-17 0 
-5.55112e-17 5.55112e-17 0 
2.77556e-17 2.08167e-17 0 
-7.28584e-17 -5.55112e-17 2.22045e-16 
-2.77556e-17 5.55112e-17 0 
0 0 -1.11022e-16 
6.93889e-18 2.77556e-17 -1.11022e-16 
2.77556e-17 1.38778e-17 4.44089e-16 
-2.77556e-17 -5.55112e-17 2.22045e-16 
2.77556e-17 -1.38778e-17 1.11022e-16 
-1.38778e-17 0 -1.11022e-16 
-2.77556e-17 -4.85723e-17 -1.11022e-16 
-1.38778e-17 -5.20417e-18 -5.55112e-17 
0 0 1.33227e-15 
-2.42861e-17 1.38778e-17 1.11022e-16 
0 -6.93889e-18 0 
6.93889e-18 -1.38778e-17 -2.22045e-16 
-2.63678e-17 -4.02456e-17 1.33227e-15 
0 4.16334e-17 0 
-3.46945e-17 0 -1.11022e-16 
2.77556e-17 -5.55112e-17 0 
2.98372e-17 2.84495e-17 0 
-5.55112e-17 5.55112e-17 0 
1.38778e-17 2.77556e-17 0 
5.55112e-17 8.32667e-17 -1.11022e-16 
-1.38778e-17 1.38778e-17 -5.55112e-17 
8.32667e-17 -2.91434e-17 -7.77156e-16 
2.77556e-17 -1.38778e-17 0 
6.58761e-17 4.47559e-17 0 
1.38778e-17 2.77556e-17 -8.88178e-16 
2.32426e-17 1.587e-17 -8.88178e-16 
-2.77556e-17 -4.85723e-17 -1.11022e-16 
0 -2.77556e-17 -1.11022e-16 
0 0 -2.22045e-16 
0 -2.77556e-17 0 
2.77556e-17 1.38778e-17 0 
-4.16334e-17 1.38778e-17 0 
0 0 4.44089e-16 
-1.38778e-17 -2.60209e-17 0 
0 4.16334e-17 0 
2.08167e-17 0 0 
8.32667e-17 -4.16334e-17 4.44089e-16 
2.77556e-17 0 0 
1.69136e-17 1.73472e-17 2.49366e-16 
-6.93889e-18 -1.38778e-17 0 
4.16334e-17 4.33681e-18 2.22045e-16 
0 2.77556e-17 1.11022e-16 
2.77556e-17 -2.77556e-17 2.22045e-16 
-2.08167e-17 1.38778e-17 -8.88178e-16 
-3.46945e-18 4.16334e-17 -2.22045e-16 
5.55112e-17 -2.90566e-17 6.66134e-16 
-2.42861e-17 1.38778e-17 1.11022e-16 
6.93889e-18 -1.38778e-17 -2.22045e-16 
-8.32667e-17 0 0 
3.46945e-18 -2.77556e-17 0 
-2.08167e-17 -1.73472e-17 2.22045e-16 
2.25514e-17 1.38778e-17 0 
-3.46945e-18 4.16334e-17 -2.22045e-16 
0 -1.38778e-17 0 
5.55112e-17 -5.55112e-17 4.44089e-16 
-2.77556e-17 2.77556e-17 4.44089e-16 
2.77556e-17 7.28584e-17 0 
0 1.38778e-17 0 
0 -2.77556e-17 -1.11022e-16 
3.1225e-17 1.38778e-17 0 
0 0 -2.22045e-16 
0 -3.46945e-17 -2.77556e-16 
-2.77556e-17 -5.55112e-17 2.22045e-16 
0 2.08167e-17 -1.11022e-16 
6.93889e-18 2.77556e-17 -1.11022e-16 
-1.38778e-17 0 -1.11022e-16 
0 -2.77556e-17 -1.11022e-16 
-2.77556e-17 -4.85723e-17 -1.11022e-16 
0 0 -2.22045e-16 
1.38778e-17 2.77556e-17 0 
-5.55112e-17 0 0 
0 2.77556e-17 0 
1.38778e-17 -5.55112e-17 0 
0 0 4.44089e-16 
0 6.93889e-18 -1.11022e-16 
-1.38778e-17 -6.93889e-18 2.22045e-16 
2.77556e-17 -2.77556e-17 2.22045e-16 
2.77556e-17 -2.42861e-17 0 
-8.32667e-17 -5.55112e-17 4.44089e-16 
-1.04083e-17 2.77556e-17 0 
-2.77556e-17 0 0 
6.93889e-18 4.16334e-17 0 
0 -2.77556e-17 0 
-2.08167e-17 -1.38778e-17 1.11022e-16 
0 -5.55112e-17 -4.44089e-16 
3.1225e-17 1.38778e-17 0 
1.73472e-17 2.77556e-17 -1.11022e-16 
2.08167e-17 0 0 
2.77556e-17 0 8.88178e-16 
-6.93889e-18 -3.46945e-18 -1.11022e-16 
5.55112e-17 8.32667e-17 -1.11022e-16 
1.38778e-17 2.77556e-17 0 
-1.38778e-17 1.38778e-17 -5.55112e-17 
-9.06393e-18 5.89806e-18 -3.33067e-16 
0 6.93889e-18 -1.11022e-16 
1.9082e-17 4.16334e-17 3.33067e-16 
2.77556e-17 -2.77556e-17 2.22045e-16 
2.77556e-17 0 8.88178e-16 
4.16334e-17 0 -1.11022e-16 
2.08167e-17 2.77556e-17 -1.11022e-16 
3.46945e-17 -5.55112e-17 -2.22045e-16 
1.38778e-17 1.38778e-17 1.11022e-16 
-1.38778e-17 -6.93889e-18 -8.32667e-17 
6.93889e-18 -1.38778e-17 -2.22045e-16 
-8.32667e-17 0 0 
1.04083e-16 -5.55112e-17 1.77636e-15 
-1.38778e-17 0 1.11022e-16 
0 2.77556e-17 0 
1.38778e-17 -5.55112e-17 0 
4.16334e-17 0 -1.11022e-16 
-6.93889e-18 -1.38778e-17 -1.11022e-16 
-4.16334e-17 1.38778e-17 -1.66533e-16 
0 0 -4.44089e-16 
-2.77556e-17 5.55112e-17 1.33227e-15 
-1.04083e-17 2.77556e-17 0 
0 0 -1.11022e-16 
0 5.55112e-17 0 
-1.73472e-17 0 2.22045e-16 
-1.38778e-17 1.73472e-18 1.11022e-16 
5.55112e-17 5.55112e-17 1.33227e-15 
4.16334e-17 5.55112e-17 -2.22045e-16 
-2.77556e-17 -8.32667e-17 -4.44089e-16 
2.77556e-17 5.55112e-17 -6.66134e-16 
6.93889e-18 -4.16334e-17 0 
1.38778e-17 0 -2.22045e-16 
2.77556e-17 2.08167e-17 0 
2.77556e-17 1.38778e-17 4.44089e-16 
5.55112e-17 5.55112e-17 1.33227e-15 
6.93889e-18 2.77556e-17 -1.11022e-16 
-2.63678e-17 -4.02456e-17 1.33227e-15 
6.93889e-18 -1.38778e-17 -2.22045e-16 
-2.42861e-17 1.38778e-17 1.11022e-16 
-8.32667e-17 0 0 
2.77556e-17 2.08167e-17 0 
-2.77556e-17 5.55112e-17 0 
2.77556e-17 1.38778e-17 4.44089e-16 
-2.77556e-17 6.93889e-18 0 
2.32426e-17 1.587e-17 -8.88178e-16 
0 -1.38778e-17 -2.22045e-16 
-2.77556e-17 -4.85723e-17 -1.11022e-16 
0 0 1.33227e-15 
1.9082e-17 4.16334e-17 3.33067e-16 
-2.08167e-17 1.38778e-17 -8.88178e-16 
2.77556e-17 -2.77556e-17 2.22045e-16 
-3.46945e-18 4.16334e-17 -2.22045e-16 
-1.38778e-17 -2.08167e-17 1.11022e-16 
3.46945e-18 -8.32667e-18 2.77556e-17 
2.25514e-17 1.38778e-17 0 
-2.08167e-17 -1.73472e-17 2.22045e-16 
-2.42861e-17 1.38778e-17 1.11022e-16 
0 -6.93889e-18 0 
0 2.77556e-17 2.22045e-16 
6.93889e-18 -4.16334e-17 0 
-4.69131e-18 -1.36761e-17 -1.11022e-16 
3.05311e-17 2.25514e-17 -3.33067e-16 
3.1225e-17 3.46945e-17 0 
-3.46945e-18 4.16334e-17 -2.22045e-16 
0 0 -5.55112e-17 
0 2.77556e-17 0 
-4.85723e-17 0 0 
2.77556e-17 -2.77556e-17 1.66533e-16 
-3.46945e-17 -1.38778e-17 9.71445e-17 
-1.38778e-17 -1.73472e-17 1.11022e-15 
-2.08167e-17 -2.08167e-17 -1.66533e-16 
-2.77556e-17 0 -1.11022e-16 
5.55112e-17 -5.55112e-17 4.44089e-16 
8.32667e-17 -2.91434e-17 -7.77156e-16 
2.77556e-17 -1.38778e-17 0 
0 -1.38778e-17 0 
-6.93889e-18 -3.46945e-18 -1.11022e-16 
1.38778e-17 -1.9082e-17 0 
5.55112e-17 8.32667e-17 -1.11022e-16 
-1.38778e-17 1.38778e-17 -5.55112e-17 
-1.38778e-17 -6.93889e-18 2.22045e-16 
1.38778e-17 0 1.11022e-16 
1.38778e-17 -6.93889e-18 2.22045e-16 
2.77556e-17 -2.77556e-17 2.22045e-16 
8.32667e-18 8.32667e-17 -7.77156e-16 
-2.77556e-17 -5.55112e-17 -4.44089e-16 
5.55112e-17 -2.77556e-17 1.11022e-16 
-2.77556e-17 6.93889e-18 0 
0 0 -1.11022e-16 
0 -2.08167e-17 2.22045e-16 
1.38778e-17 2.77556e-17 4.44089e-16 
-2.77556e-17 1.38778e-17 -3.33067e-16 
-1.38778e-17 -2.77556e-17 -5.55112e-17 
-8.32667e-17 -3.46945e-17 0 
-2.77556e-17 2.77556e-17 -2.22045e-16 
0 -6.93889e-18 0 
0 -2.08167e-17 -1.11022e-16 
-1.38778e-17 -6.245e-17 -6.66134e-16 
-1.12757e-17 -2.77556e-17 0 
-1.38778e-17 0 -1.11022e-16 
1.38778e-17 2.77556e-17 0 
2.77556e-17 2.77556e-17 0 
-1.38778e-17 -1.38778e-17 0 
-2.08167e-17 -1.38778e-17 1.11022e-16 
3.46945e-18 -2.77556e-17 0 
-1.38778e-17 -2.60209e-17 0 
4.96131e-17 -1.83881e-17 2.22045e-16 
-3.46945e-18 4.16334e-17 -2.22045e-16 
-2.77556e-17 0 0 
4.16334e-17 5.55112e-17 0 
1.04083e-17 -4.16334e-17 0 
2.77556e-17 -2.77556e-17 0 
-1.04083e-17 2.77556e-17 0 
-4.16334e-17 0 0 
-8.32667e-17 -5.55112e-17 4.44089e-16 
2.77556e-17 -2.42861e-17 0 
2.77556e-17 7.28584e-17 0 
5.55112e-17 -5.55112e-17 4.44089e-16 
-2.77556e-17 2.77556e-17 4.44089e-16 
-5.55112e-17 5.55112e-17 0 
2.77556e-17 1.11022e-16 6.66134e-16 
2.77556e-17 0 6.66134e-16 
1.04083e-17 -4.16334e-17 0 
2.77556e-17 4.51028e-17 -1.11022e-16 
0 -3.46945e-18 6.66134e-16 
-2.77556e-17 -3.46945e-18 -1.66533e-16 
6.93889e-18 4.16334e-17 0 
1.71711e-17 9.96585e-17 -4.44089e-16 
0 1.38778e-17 -1.11022e-16 
5.55112e-17 -1.11022e-16 -2.22045e-16 
2.77556e-17 1.11022e-16 6.66134e-16 
-1.38778e-17 5.55112e-17 0 
1.38778e-17 2.77556e-17 0 
-1.38778e-17 -1.38778e-17 0 
1.37043e-17 4.02673e-17 4.44089e-16 
0 0 4.44089e-16 
6.93889e-18 2.08167e-17 -1.80411e-16 
-2.77556e-17 -2.77556e-17 1.11022e-16 
-2.77556e-17 0 -1.11022e-16 
-9.71445e-17 -5.55112e-17 6.66134e-16 
-2.77556e-17 0 0 
-2.77556e-17 2.77556e-17 -1.11022e-16 
2.77556e-17 -2.77556e-17 0 
-1.38778e-17 2.77556e-17 0 
0 -2.77556e-17 0 
-3.53884e-17 -4.85723e-17 2.22045e-16 
-5.55112e-17 0 0 
-1.38778e-17 0 -1.11022e-16 
-1.38778e-17 0 -1.11022e-16 
1.38778e-17 -4.16334e-17 2.22045e-16 
1.38778e-17 3.46945e-17 -4.44089e-16 
0 0 2.22045e-16 
-1.38778e-17 0 -1.11022e-16 
1.17961e-17 -4.16334e-18 0 
1.38778e-17 3.46945e-17 -4.44089e-16 
1.38778e-17 -4.16334e-17 2.22045e-16 
0 0 -1.11022e-16 
-7.28584e-17 -5.55112e-17 2.22045e-16 
-4.16334e-17 -5.55112e-17 -4.44089e-16 
-1.38778e-17 1.38778e-17 -1.11022e-16 
-1.38778e-17 -1.73472e-17 1.11022e-15 
1.63064e-17 -2.75819e-17 6.66134e-16 
-2.08167e-17 -2.08167e-17 -1.66533e-16 
-2.77556e-17 0 -1.11022e-16 
-1.38778e-17 0 -1.11022e-16 
3.1225e-17 1.38778e-17 0 
0 0 -2.22045e-16 
2.77556e-17 0 8.88178e-16 
2.77556e-17 0 6.66134e-16 
1.04083e-17 -4.16334e-17 0 
4.16334e-17 5.55112e-17 0 
2.77556e-17 -2.77556e-17 0 
1.38778e-17 2.77556e-17 2.22045e-16 
-2.77556e-17 0 0 
-1.38778e-17 2.77556e-17 0 
1.38778e-17 0 -1.11022e-16 
2.77556e-17 2.77556e-17 -2.22045e-16 
1.04083e-16 -5.55112e-17 1.77636e-15 
-2.77556e-17 0 -1.66533e-16 
1.38778e-17 -5.55112e-17 0 
6.58761e-17 4.47559e-17 0 
-1.38778e-17 4.16334e-17 -1.11022e-16 
-4.16334e-17 -3.60904e-17 -8.88178e-16 
-5.55112e-17 -7.97973e-17 4.44089e-16 
0 -2.77556e-17 0 
-5.55112e-17 0 0 
2.77556e-17 2.77556e-17 -2.22045e-16 
-1.38778e-17 0 -1.11022e-16 
0 1.38778e-18 -4.44089e-16 
-2.42861e-17 1.38778e-17 1.11022e-16 
5.55112e-17 -2.90566e-17 6.66134e-16 
-2.63678e-17 -4.02456e-17 1.33227e-15 
0 -2.77556e-17 -1.11022e-16 
-2.77556e-17 0 -2.22045e-16 
5.55112e-17 1.56125e-17 0 
8.32667e-17 0 7.77156e-16 
-1.38778e-17 0 -1.11022e-16 
-1.38778e-17 -5.20417e-18 -5.55112e-17 
0 -2.08167e-17 -1.11022e-16 
0 0 1.33227e-15 
0 0 -1.11022e-16 
-1.04083e-17 2.77556e-17 0 
-6.93889e-18 6.93889e-18 -1.11022e-16 
0 5.55112e-17 0 
-5.55112e-17 0 0 
1.38778e-17 2.77556e-17 0 
-1.38778e-17 0 -1.11022e-16 
2.77556e-17 1.38778e-17 -1.66533e-16 
1.38778e-17 2.77556e-17 0 
0 2.77556e-17 0 
-5.55112e-17 0 0 
-1.38778e-17 0 -1.11022e-16 
0 0 -1.11022e-16 
-6.93889e-18 -1.38778e-17 -1.11022e-16 
-1.04083e-17 2.77556e-17 0 
-2.77556e-17 0 0 
5.55112e-17 5.55112e-17 1.33227e-15 
-1.73472e-17 0 2.22045e-16 
2.77556e-17 2.08167e-17 0 
6.93889e-18 2.77556e-17 -1.11022e-16 
-1.38778e-17 -6.245e-17 -6.66134e-16 
1.38778e-17 1.38778e-17 2.22045e-16 
-2.77556e-17 5.55112e-17 -4.44089e-16 
-1.12757e-17 -2.77556e-17 0 
8.32667e-17 -2.91434e-17 -7.77156e-16 
-2.77556e-17 0 0 
2.77556e-17 -1.38778e-17 0 
1.38778e-17 0 -1.11022e-16 
0 -1.38778e-17 -2.22045e-16 
0 0 0 
-1.38778e-17 -5.20417e-18 -5.55112e-17 
0 0 1.33227e-15 
0 -1.38778e-17 1.11022e-16 
1.38778e-17 0 -1.11022e-16 
-1.38778e-17 -1.38778e-17 1.11022e-16 
-1.38778e-17 4.85723e-17 2.22045e-16 
-2.77556e-17 0 -1.11022e-16 
2.08167e-17 2.77556e-17 -1.11022e-16 
6.93889e-18 2.08167e-17 -1.80411e-16 
-9.71445e-17 -5.55112e-17 6.66134e-16 
-5.55112e-17 0 -2.22045e-16 
6.93889e-18 0 -2.22045e-16 
1.63064e-17 -2.75819e-17 6.66134e-16 
-2.77556e-17 6.93889e-18 0 
2.77556e-17 4.51028e-17 -1.11022e-16 
-3.22659e-17 4.34548e-17 4.44089e-16 
-4.85723e-17 0 0 
0 0 -5.55112e-17 
-5.55112e-17 0 -2.22045e-16 
5.55112e-17 5.55112e-17 1.33227e-15 
-1.38778e-17 1.73472e-18 1.11022e-16 
4.16334e-17 5.55112e-17 -2.22045e-16 
1.38778e-17 1.38778e-17 1.11022e-16 
0 -6.93889e-18 0 
-2.08167e-17 1.91904e-17 -1.11022e-16 
-5.55112e-17 0 -5.55112e-17 
-1.38778e-17 -1.38778e-17 0 
1.38778e-17 2.77556e-17 0 
0 -2.77556e-17 0 
0 0 4.44089e-16 
2.77556e-17 -1.9082e-17 8.88178e-16 
4.16334e-17 0 -1.11022e-16 
-3.46945e-18 3.46945e-17 0 
2.77556e-17 0 8.88178e-16 
2.08167e-17 2.77556e-17 -1.11022e-16 
4.16334e-17 0 -1.11022e-16 
-4.16334e-17 1.38778e-17 -1.66533e-16 
3.46945e-17 -5.55112e-17 -2.22045e-16 
-2.77556e-17 0 -2.22045e-16 
3.1225e-17 1.38778e-17 0 
0 4.16334e-17 0 
8.32667e-17 0 7.77156e-16 
1.38778e-17 2.77556e-17 0 
4.16334e-17 1.38778e-17 0 
2.77556e-17 -3.46945e-17 2.22045e-16 
-5.55112e-17 5.55112e-17 -6.66134e-16 
0 -1.38778e-17 1.11022e-16 
2.15106e-17 -3.33067e-17 8.88178e-16 
2.77556e-17 2.77556e-17 -2.22045e-16 
-1.38778e-17 4.85723e-17 2.22045e-16 
-4.16334e-17 0 0 
-8.32667e-17 -5.55112e-17 4.44089e-16 
1.38778e-17 -4.77049e-18 1.11022e-16 
-1.04083e-17 2.77556e-17 0 
-1.38778e-17 4.85723e-17 2.22045e-16 
0 -1.38778e-17 1.11022e-16 
2.15106e-17 -3.33067e-17 8.88178e-16 
1.37043e-17 4.02673e-17 4.44089e-16 
1.32273e-17 -1.60462e-17 1.38778e-16 
-2.77556e-17 5.55112e-17 -4.44089e-16 
1.73472e-17 2.77556e-17 0 
0 -2.08167e-17 -1.11022e-16 
-1.38778e-17 4.16334e-17 -1.11022e-16 
2.77556e-17 -1.38778e-17 0 
-2.77556e-17 2.77556e-17 -2.22045e-16 
6.58761e-17 4.47559e-17 0 
-1.31839e-17 1.66533e-17 -7.63278e-17 
-1.38778e-17 0 -1.11022e-16 
1.38778e-17 3.46945e-17 -4.44089e-16 
0 0 2.22045e-16 
-2.77556e-17 0 -2.22045e-16 
2.77556e-17 -5.55112e-17 0 
0 2.08167e-17 -2.22045e-16 
7.21645e-17 -5.55112e-18 0 
0 2.77556e-17 1.11022e-16 
0 -2.08167e-17 2.22045e-16 
1.52656e-17 3.98986e-18 4.44089e-16 
8.67362e-18 2.77556e-17 0 
2.77556e-17 1.38778e-17 -1.66533e-16 
-1.38778e-17 0 -1.11022e-16 
-3.53884e-17 -4.85723e-17 2.22045e-16 
1.38778e-17 -4.77049e-18 1.11022e-16 
-2.77556e-17 -5.55112e-17 2.22045e-16 
0 2.08167e-17 -1.11022e-16 
6.93889e-18 2.77556e-17 -1.11022e-16 
2.77556e-17 -1.38778e-17 1.11022e-16 
-2.77556e-17 0 0 
-1.38778e-17 4.16334e-17 -1.11022e-16 
-2.77556e-17 2.77556e-17 -1.11022e-16 
6.58761e-17 4.47559e-17 0 
1.04083e-16 -5.55112e-17 1.77636e-15 
6.93889e-18 0 -2.77556e-17 
-2.22044e-17 1.34441e-17 7.6836e-08 
2.16705e-17 1.49078e-17 8.88178e-16 
-5.55112e-17 5.55112e-17 0 
5.55112e-17 8.32667e-17 -1.11022e-16 
-6.93889e-18 -1.38778e-17 -1.11022e-16 
-1.38778e-17 1.38778e-17 -5.55112e-17 
6.93889e-18 -2.77556e-17 0 
-2.77556e-17 -2.08167e-17 0 
1.38778e-17 1.38778e-17 1.11022e-16 
1.38778e-17 0 -2.22045e-16 
-1.12757e-17 -2.77556e-17 0 
-2.77556e-17 5.55112e-17 -4.44089e-16 
-1.38778e-17 -6.245e-17 -6.66134e-16 
0 -2.08167e-17 -1.11022e-16 
-2.77556e-17 5.55112e-17 0 
-4.16334e-17 -5.55112e-17 -4.44089e-16 
-1.66533e-17 2.35922e-17 0 
0 0 -1.11022e-16 
2.77556e-17 -1.9082e-17 8.88178e-16 
-3.46945e-18 3.46945e-17 0 
9.1073e-18 -2.68882e-17 -6.93889e-18 
-8.32667e-17 0 0 
2.77556e-17 2.77556e-17 0 
-1.38778e-17 -1.38778e-17 0 
-1.38778e-17 -1.38778e-17 1.11022e-16 
0 8.32667e-17 3.33067e-16 
3.1225e-17 1.38778e-17 0 
-1.38778e-17 0 -1.11022e-16 
1.73472e-17 2.77556e-17 -1.11022e-16 
2.77556e-17 0 8.88178e-16 
0 2.08167e-17 -2.22045e-16 
-3.46945e-18 3.46945e-17 0 
4.16334e-17 0 -1.11022e-16 
2.77556e-17 0 8.88178e-16 
-2.77556e-17 -2.77556e-17 1.11022e-16 
0 -1.38778e-17 -2.22045e-16 
-2.77556e-17 -4.85723e-17 -1.11022e-16 
2.32426e-17 1.587e-17 -8.88178e-16 
-6.93889e-18 -1.38778e-17 -1.66533e-16 
2.77556e-17 -5.55112e-17 0 
1.38778e-17 1.38778e-17 1.11022e-16 
-3.15764e-17 8.84376e-18 0 
-2.77556e-17 -5.55112e-17 0 
0 5.55112e-17 4.44089e-16 
-1.38778e-17 -2.77556e-17 0 
-2.77556e-17 -2.64545e-17 1.11022e-16 
-7.28584e-17 -5.55112e-17 2.22045e-16 
5.55112e-17 5.55112e-17 1.33227e-15 
4.16334e-17 5.55112e-17 -2.22045e-16 
2.77556e-17 2.08167e-17 0 
-5.55112e-17 0 -2.22045e-16 
1.63064e-17 -2.75819e-17 6.66134e-16 
1.0339e-16 -1.94289e-17 0 
-2.77556e-17 6.93889e-18 0 
6.93889e-18 0 -2.77556e-17 
0 6.93889e-18 -5.55112e-17 
-2.22044e-17 1.34441e-17 7.6836e-08 
2.16705e-17 1.49078e-17 8.88178e-16 
-5.55112e-17 5.55112e-17 -6.66134e-16 
1.38778e-17 2.77556e-17 0 
-5.55112e-17 0 0 
2.77556e-17 1.38778e-17 -1.66533e-16 
2.77556e-17 1.38778e-17 4.44089e-16 
8.32667e-18 8.32667e-17 -7.77156e-16 
2.77556e-17 -1.38778e-17 1.11022e-16 
-2.77556e-17 6.93889e-18 0 
-4.85723e-17 0 0 
2.77556e-17 4.51028e-17 -1.11022e-16 
0 0 -5.55112e-17 
4.16334e-17 5.55112e-17 0 
6.93889e-18 4.16334e-17 0 
-2.77556e-17 -3.46945e-18 -1.66533e-16 
0 -3.46945e-18 6.66134e-16 
1.73472e-17 2.77556e-17 0 
-4.16334e-17 1.38778e-17 0 
2.15106e-17 -3.33067e-17 8.88178e-16 
1.04083e-16 -5.55112e-17 1.77636e-15 
-2.77556e-17 0 -1.66533e-16 
-2.08167e-17 -1.38778e-17 1.11022e-16 
6.93889e-18 4.16334e-17 0 
0 -3.46945e-18 6.66134e-16 
1.73472e-17 2.77556e-17 0 
-2.08167e-17 -6.93889e-18 1.11022e-16 
5.55112e-17 2.77556e-17 2.22045e-16 
1.38778e-17 -4.16334e-17 2.22045e-16 
0 0 2.22045e-16 
-2.77556e-17 6.93889e-18 0 
1.0339e-16 -1.94289e-17 0 
4.16334e-17 5.55112e-17 -2.22045e-16 
-1.38778e-17 1.38778e-17 -1.11022e-16 
0 4.16334e-17 0 
3.1225e-17 1.38778e-17 0 
2.08167e-17 0 0 
1.38778e-17 5.55112e-17 -4.44089e-16 
-2.77556e-17 2.77556e-17 -1.11022e-16 
-1.38778e-17 4.16334e-17 -1.11022e-16 
-4.16334e-17 -3.60904e-17 -8.88178e-16 
6.58761e-17 4.47559e-17 0 
8.67362e-18 2.77556e-17 0 
0 -2.08167e-17 2.22045e-16 
0 0 0 
0 1.38778e-17 -1.11022e-16 
3.1225e-17 3.46945e-17 0 
1.69136e-17 1.73472e-17 2.49366e-16 
1.21431e-17 -3.46945e-17 8.88178e-16 
0 0 2.22045e-16 
1.38778e-17 -6.93889e-18 2.22045e-16 
1.80411e-17 2.63678e-17 1.66533e-16 
0 2.77556e-17 -4.44089e-16 
1.38778e-17 0 1.11022e-16 
-2.77556e-17 0 -2.22045e-16 
0 4.16334e-17 0 
2.77556e-17 -5.55112e-17 0 
-5.55112e-17 3.46945e-18 6.66134e-16 
-3.46945e-18 3.46945e-17 0 
-2.42861e-17 1.38778e-17 1.11022e-16 
6.93889e-18 -1.38778e-17 -2.22045e-16 
5.55112e-17 -2.90566e-17 6.66134e-16 
-6.93889e-18 -1.38778e-17 -1.11022e-16 
5.55112e-17 8.32667e-17 -1.11022e-16 
1.38778e-17 -1.9082e-17 0 
-1.38778e-17 1.38778e-17 -5.55112e-17 
-1.38778e-17 5.55112e-17 0 
-1.38778e-17 -1.73472e-17 1.11022e-15 
2.77556e-17 1.11022e-16 6.66134e-16 
2.77556e-17 4.51028e-17 -1.11022e-16 
-1.38778e-17 5.55112e-17 0 
5.55112e-17 -1.11022e-16 -2.22045e-16 
1.0339e-16 -1.94289e-17 0 
-1.38778e-17 1.38778e-17 -1.11022e-16 
6.93889e-18 2.77556e-17 -1.11022e-16 
2.77556e-17 2.08167e-17 0 
2.77556e-17 1.38778e-17 4.44089e-16 
-2.77556e-17 6.93889e-18 0 
5.55112e-17 8.32667e-17 -1.11022e-16 
-6.93889e-18 -1.38778e-17 -1.11022e-16 
-2.77556e-17 5.55112e-17 1.33227e-15 
-2.77556e-17 0 0 
2.77556e-17 1.38778e-17 -1.66533e-16 
-3.53884e-17 -4.85723e-17 2.22045e-16 
-5.55112e-17 5.55112e-17 -6.66134e-16 
0 5.55112e-17 0 
0 -2.77556e-17 0 
-1.38778e-17 0 -1.11022e-16 
1.38778e-17 0 -1.11022e-16 
1.38778e-17 -4.77049e-18 1.11022e-16 
3.46945e-18 -2.77556e-17 0 
4.96131e-17 -1.83881e-17 2.22045e-16 
-2.08167e-17 -1.73472e-17 2.22045e-16 
-3.46945e-18 4.16334e-17 -2.22045e-16 
1.38778e-17 -5.55112e-17 0 
4.16334e-17 1.38778e-17 0 
1.38778e-17 2.77556e-17 0 
-5.55112e-17 5.55112e-17 -6.66134e-16 
1.38778e-17 2.77556e-17 0 
-1.38778e-17 -2.77556e-17 -5.55112e-17 
-1.38778e-17 1.38778e-17 -5.55112e-17 
0 -6.93889e-18 0 
2.77556e-17 -1.9082e-17 8.88178e-16 
5.55112e-17 -2.90566e-17 6.66134e-16 
-3.46945e-18 3.46945e-17 0 
-8.32667e-17 0 0 
-2.77556e-17 5.55112e-17 -4.44089e-16 
-1.38778e-17 -1.38778e-17 1.66533e-16 
1.32273e-17 -1.60462e-17 1.38778e-16 
1.73472e-17 2.77556e-17 0 
0 0 2.22045e-16 
-5.10009e-17 -1.04083e-18 5.55112e-17 
1.2739e-17 -6.85216e-18 -1.11022e-16 
4.16334e-17 4.33681e-18 2.22045e-16 
-3.22659e-17 4.34548e-17 4.44089e-16 
-1.38778e-17 -1.73472e-17 1.11022e-15 
-2.77556e-17 0 -1.11022e-16 
2.77556e-17 4.51028e-17 -1.11022e-16 
2.77556e-17 2.77556e-17 -2.22045e-16 
1.04083e-16 -5.55112e-17 1.77636e-15 
2.15106e-17 -3.33067e-17 8.88178e-16 
-2.77556e-17 0 -1.66533e-16 
1.38778e-17 0 -1.11022e-16 
2.77556e-17 -1.38778e-17 0 
8.32667e-17 -2.91434e-17 -7.77156e-16 
0 -1.38778e-17 0 
5.55112e-17 8.32667e-17 -1.11022e-16 
-9.71716e-18 -1.66493e-17 -4.16197e-10 
-2.77556e-17 5.55112e-17 1.33227e-15 
1.38778e-17 -1.9082e-17 0 
0 -1.38778e-17 0 
-4.53413e-17 -6.66134e-17 -4.44089e-16 
1.38778e-17 0 -1.11022e-16 
-1.38778e-17 -2.77556e-17 0 
0 0 2.22045e-16 
1.80411e-17 2.63678e-17 1.66533e-16 
1.38778e-17 0 1.11022e-16 
4.16334e-17 4.33681e-18 2.22045e-16 
-2.42861e-17 1.38778e-17 1.11022e-16 
-6.93889e-18 -1.38778e-17 -1.66533e-16 
1.38778e-17 1.38778e-17 1.11022e-16 
0 1.38778e-18 -4.44089e-16 
-2.77556e-17 0 -2.22045e-16 
0 -2.77556e-17 -1.11022e-16 
3.1225e-17 1.38778e-17 0 
8.32667e-17 0 7.77156e-16 
-3.46945e-18 3.46945e-17 0 
5.55112e-17 -2.90566e-17 6.66134e-16 
2.77556e-17 -1.9082e-17 8.88178e-16 
0 -2.91434e-17 -2.22045e-16 
-1.66533e-17 -6.93889e-18 9.4369e-16 
0 0 2.22045e-16 
-4.02456e-17 3.19189e-17 4.44089e-16 
1.38778e-17 1.38778e-17 2.22045e-16 
1.38778e-17 2.77556e-17 0 
-1.38778e-17 -1.38778e-17 0 
0 -2.77556e-17 0 
-2.08167e-17 -1.38778e-17 1.11022e-16 
0 1.38778e-18 -4.44089e-16 
1.38778e-17 1.38778e-17 1.11022e-16 
-2.42861e-17 1.38778e-17 1.11022e-16 
1.38778e-17 0 -2.22045e-16 
0 2.77556e-17 -4.44089e-16 
1.38778e-17 0 1.11022e-16 
-6.93889e-18 -1.38778e-17 0 
1.69136e-17 1.73472e-17 2.49366e-16 
-6.93889e-18 -1.38778e-17 -1.11022e-16 
4.16334e-17 0 -1.11022e-16 
0 -6.50521e-19 -0.00318586 
9.1073e-18 -2.68882e-17 -6.93889e-18 
0 -2.77556e-17 -1.11022e-16 
-2.77556e-17 0 -1.11022e-16 
2.32426e-17 1.587e-17 -8.88178e-16 
5.55112e-17 1.56125e-17 0 
-4.16334e-17 1.38778e-17 0 
0 6.93889e-18 -5.55112e-17 
6.93889e-18 2.77556e-17 5.55112e-17 
2.16705e-17 1.49078e-17 8.88178e-16 
-1.38778e-17 4.16334e-17 -1.11022e-16 
0 0 -5.55112e-17 
-4.16334e-17 -3.60904e-17 -8.88178e-16 
-3.29597e-17 -1.73472e-17 -2.08167e-16 
1.63064e-17 -2.75819e-17 6.66134e-16 
-1.38778e-17 -1.73472e-17 1.11022e-15 
-2.77556e-17 6.93889e-18 0 
-2.77556e-17 0 -1.11022e-16 
-2.77556e-17 -3.46945e-18 -1.66533e-16 
-1.38778e-17 -1.38778e-17 1.66533e-16 
0 -3.46945e-18 6.66134e-16 
1.73472e-17 2.77556e-17 0 
-3.29597e-17 -1.73472e-17 -2.08167e-16 
0 1.38778e-17 -1.11022e-16 
-2.1684e-18 -2.77556e-17 -6.66134e-16 
-5.55112e-17 -7.97973e-17 4.44089e-16 
-2.77556e-17 0 -1.11022e-16 
-2.77556e-17 0 -2.22045e-16 
2.08167e-17 2.77556e-17 -1.11022e-16 
5.55112e-17 1.56125e-17 0 
-1.38778e-17 -2.77556e-17 -5.55112e-17 
-6.93889e-18 -3.46945e-18 -1.11022e-16 
1.38778e-17 2.77556e-17 0 
-1.38778e-17 1.38778e-17 -5.55112e-17 
-4.16334e-17 0 0 
0 -1.38778e-17 0 
-2.77556e-17 2.77556e-17 4.44089e-16 
2.77556e-17 -2.42861e-17 0 
0 2.77556e-17 -4.44089e-16 
2.49793e-17 -1.38575e-18 1.4802e-06 
2.16705e-17 1.49078e-17 8.88178e-16 
5.55112e-17 -5.55112e-17 -4.44089e-16 
-1.38778e-17 -1.38778e-17 5.52136e-12 
-5.55112e-17 -7.97973e-17 4.44089e-16 
0 1.38778e-17 -1.11022e-16 
-1.38778e-17 -2.77556e-17 -5.55112e-17 
2.77556e-17 1.38778e-17 4.44089e-16 
8.32667e-18 8.32667e-17 -7.77156e-16 
-2.77556e-17 -5.55112e-17 2.22045e-16 
2.77556e-17 -1.38778e-17 1.11022e-16 
6.93889e-17 0 0 
-2.70617e-17 -1.56125e-17 2.22045e-16 
5.27356e-17 -1.21431e-17 -2.77556e-16 
-2.77556e-17 -2.64545e-17 1.11022e-16 
-2.77556e-17 -4.85723e-17 -1.11022e-16 
-2.77556e-17 0 -1.11022e-16 
-2.77556e-17 -2.77556e-17 1.11022e-16 
2.32426e-17 1.587e-17 -8.88178e-16 
9.1073e-18 -2.68882e-17 -6.93889e-18 
4.16334e-17 0 -1.11022e-16 
-3.46945e-18 3.46945e-17 0 
2.77556e-17 -1.9082e-17 8.88178e-16 
-2.77556e-17 0 -1.66533e-16 
1.04083e-16 -5.55112e-17 1.77636e-15 
0 2.77556e-17 0 
1.38778e-17 -5.55112e-17 0 
-4.16334e-17 1.38778e-17 0 
2.77556e-17 1.38778e-17 0 
0 6.93889e-18 -5.55112e-17 
2.16705e-17 1.49078e-17 8.88178e-16 
5.55112e-17 -5.55112e-17 -4.44089e-16 
2.16705e-17 1.49078e-17 8.88178e-16 
-4.16334e-17 1.38778e-17 0 
0 0 4.44089e-16 
0 2.08167e-17 -2.22045e-16 
-6.93889e-18 -1.38778e-17 -1.66533e-16 
-3.46945e-18 3.46945e-17 0 
0 -2.91434e-17 -2.22045e-16 
6.93889e-18 0 2.22045e-16 
-2.77556e-17 -2.08167e-17 0 
4.96131e-17 -1.83881e-17 2.22045e-16 
-3.46945e-18 4.16334e-17 -2.22045e-16 
-2.1684e-18 -2.77556e-17 -6.66134e-16 
-4.16334e-17 -3.60904e-17 -8.88178e-16 
-3.29597e-17 -1.73472e-17 -2.08167e-16 
-5.55112e-17 -7.97973e-17 4.44089e-16 
-4.53413e-17 -6.66134e-17 -4.44089e-16 
5.55112e-17 -5.55112e-17 4.44089e-16 
-2.77556e-17 2.77556e-17 4.44089e-16 
0 -1.38778e-17 0 
1.04083e-16 -5.55112e-17 1.77636e-15 
6.93889e-18 2.77556e-17 5.55112e-17 
-4.16334e-17 1.38778e-17 0 
-2.77556e-17 0 -1.66533e-16 
6.93889e-17 0 0 
5.27356e-17 -1.21431e-17 -2.77556e-16 
4.16334e-17 4.33681e-18 2.22045e-16 
-2.77556e-17 -2.64545e-17 1.11022e-16 
0 -2.77556e-17 -5.55112e-17 
-2.77556e-17 5.55112e-17 1.33227e-15 
-9.71716e-18 -1.66493e-17 -4.16197e-10 
1.38778e-17 -1.9082e-17 0 
5.55112e-17 5.55112e-17 1.33227e-15 
-7.28584e-17 -5.55112e-17 2.22045e-16 
-2.77556e-17 5.55112e-17 0 
2.77556e-17 2.08167e-17 0 
-2.77556e-17 5.55112e-17 0 
2.77556e-17 1.38778e-17 4.44089e-16 
5.55112e-17 5.55112e-17 1.33227e-15 
2.77556e-17 2.08167e-17 0 
9.1073e-18 -2.68882e-17 -6.93889e-18 
-1.38778e-17 -6.93889e-18 -8.32667e-17 
-4.1674e-18 4.16063e-18 5.07108e-07 
-8.32667e-17 0 0 
2.49793e-17 -1.38575e-18 1.4802e-06 
0 6.93889e-18 -5.55112e-17 
0 2.77556e-17 -4.44089e-16 
2.16705e-17 1.49078e-17 8.88178e-16 
1.73472e-17 2.77556e-17 -1.11022e-16 
-1.12757e-17 -2.77556e-17 0 
-1.38778e-17 -6.245e-17 -6.66134e-16 
-1.38778e-17 0 -1.11022e-16 
6.93889e-18 0 -2.22045e-16 
-5.55112e-17 0 -2.22045e-16 
4.16334e-17 5.55112e-17 -2.22045e-16 
-2.77556e-17 6.93889e-18 0 
1.04083e-17 -4.16334e-17 0 
-2.77556e-17 0 0 
2.77556e-17 -2.77556e-17 0 
1.38778e-17 2.77556e-17 2.22045e-16 
-2.77556e-17 5.55112e-17 0 
8.32667e-18 8.32667e-17 -7.77156e-16 
2.77556e-17 1.38778e-17 4.44089e-16 
-2.77556e-17 6.93889e-18 0 
1.11022e-16 1.38778e-17 8.88178e-16 
-2.77556e-17 -8.32667e-17 -4.44089e-16 
0 2.77556e-17 2.22045e-16 
6.93889e-18 -4.16334e-17 0 
5.55112e-17 -5.55112e-17 -4.44089e-16 
0 2.77556e-17 -4.44089e-16 
1.87349e-17 -1.38778e-17 -1.29814e-06 
1.71711e-17 9.96585e-17 -4.44089e-16 
6.93889e-18 -4.16334e-17 0 
2.77556e-17 5.55112e-17 -6.66134e-16 
-2.42861e-17 1.38778e-17 1.11022e-16 
1.38778e-17 0 -2.22045e-16 
-4.16334e-17 1.38778e-17 0 
1.04083e-16 -5.55112e-17 1.77636e-15 
2.15106e-17 -3.33067e-17 8.88178e-16 
2.16705e-17 1.49078e-17 8.88178e-16 
8.67362e-18 2.77556e-17 0 
2.77556e-17 0 -1.11022e-16 
1.38778e-17 2.77556e-17 2.22045e-16 
3.46945e-17 -1.38778e-17 1.11022e-16 
4.16334e-17 0 -1.11022e-16 
2.08167e-17 2.77556e-17 -1.11022e-16 
0 2.08167e-17 -2.22045e-16 
2.77556e-17 0 8.88178e-16 
-1.38778e-17 -6.93889e-18 -8.32667e-17 
-3.46945e-18 -6.93889e-18 -0.00318586 
6.93889e-18 -1.38778e-17 -2.22045e-16 
9.1073e-18 -2.68882e-17 -6.93889e-18 
6.93889e-18 0 -2.22045e-16 
-5.55112e-17 0 -2.22045e-16 
-1.38778e-17 1.73472e-18 1.11022e-16 
4.16334e-17 5.55112e-17 -2.22045e-16 
1.38778e-17 3.46945e-17 -4.44089e-16 
1.80411e-17 -4.68375e-17 1.11022e-16 
-2.77556e-17 0 -8.88178e-16 
1.38778e-17 -4.16334e-17 2.22045e-16 
6.93889e-18 2.77556e-17 5.55112e-17 
1.04083e-16 -5.55112e-17 1.77636e-15 
0 2.77556e-17 0 
-2.77556e-17 0 -1.66533e-16 
2.77556e-17 1.11022e-16 6.66134e-16 
2.77556e-17 0 6.66134e-16 
1.38778e-17 0 5.55112e-17 
1.04083e-17 -4.16334e-17 0 
-2.77556e-17 1.38778e-17 -1.11022e-16 
7.63278e-18 5.55112e-18 1.38778e-17 
-5.10009e-17 -1.04083e-18 5.55112e-17 
3.46945e-17 -1.38778e-17 1.11022e-16 
-1.38778e-17 -1.73472e-17 1.11022e-15 
2.77556e-17 0 6.66134e-16 
2.77556e-17 1.11022e-16 6.66134e-16 
2.77556e-17 4.51028e-17 -1.11022e-16 
-1.04083e-17 2.77556e-17 0 
1.38778e-17 -4.77049e-18 1.11022e-16 
2.77556e-17 1.38778e-17 -1.66533e-16 
0 5.55112e-17 0 
-2.77556e-17 0 -2.22045e-16 
7.21645e-17 -5.55112e-18 0 
5.55112e-17 1.56125e-17 0 
8.32667e-17 0 7.77156e-16 
1.04083e-17 -4.16334e-17 0 
2.77556e-17 0 6.66134e-16 
1.38778e-17 0 5.55112e-17 
2.77556e-17 -2.77556e-17 0 
-2.77556e-17 -3.46945e-18 -1.66533e-16 
1.87349e-17 -1.38778e-17 -1.29814e-06 
0 2.77556e-17 -4.44089e-16 
1.71711e-17 9.96585e-17 -4.44089e-16 
1.63064e-17 -2.75819e-17 6.66134e-16 
-1.38778e-17 -1.73472e-17 1.11022e-15 
1.0339e-16 -1.94289e-17 0 
-2.77556e-17 6.93889e-18 0 
-2.77556e-17 1.38778e-17 -1.11022e-16 
-1.38778e-17 -6.93889e-18 2.22045e-16 
-9.06393e-18 5.89806e-18 -3.33067e-16 
2.77556e-17 -2.77556e-17 2.22045e-16 
6.93889e-18 0 -2.22045e-16 
3.46945e-18 0 -0.00318533 
-2.08167e-17 -2.08167e-17 -1.66533e-16 
-2.77556e-17 0 -1.11022e-16 
1.73472e-17 2.77556e-17 0 
-2.77556e-17 5.55112e-17 -4.44089e-16 
-1.12757e-17 -2.77556e-17 0 
0 -2.08167e-17 -1.11022e-16 
0 -2.77556e-17 -5.55112e-17 
0 3.46945e-18 -0.00318586 
0 0 -1.11022e-16 
1.38778e-17 -1.9082e-17 0 
1.38778e-17 -5.55112e-17 0 
1.38778e-17 2.77556e-17 0 
-5.55112e-17 0 0 
-5.55112e-17 5.55112e-17 -6.66134e-16 
1.04083e-16 -5.55112e-17 1.77636e-15 
6.93889e-18 0 -2.77556e-17 
-1.38778e-17 0 1.11022e-16 
5.55112e-18 -1.43115e-17 -1.38778e-16 
0 2.77556e-17 0 
0 -8.67362e-19 -0.00318404 
-1.38778e-17 0 1.11022e-16 
6.93889e-18 2.77556e-17 5.55112e-17 
2.77556e-17 1.11022e-16 6.66134e-16 
0 1.38778e-17 -1.11022e-16 
-1.38778e-17 5.55112e-17 0 
1.04083e-17 -4.16334e-17 0 
-6.93889e-18 -1.38778e-17 -1.66533e-16 
0 2.08167e-17 -2.22045e-16 
2.77556e-17 -5.55112e-17 0 
4.16334e-17 0 0 
2.77556e-17 -2.42861e-17 0 
-2.77556e-17 2.77556e-17 4.44089e-16 
-2.77556e-17 0 0 
-5.55112e-17 5.55112e-17 0 
-2.08167e-17 -1.73472e-17 2.22045e-16 
1.69136e-17 1.73472e-17 2.49366e-16 
1.21431e-17 -3.46945e-17 8.88178e-16 
-3.46945e-18 4.16334e-17 -2.22045e-16 
-2.77556e-17 0 -2.22045e-16 
0 2.08167e-17 -2.22045e-16 
2.08167e-17 2.77556e-17 -1.11022e-16 
7.21645e-17 -5.55112e-18 0 
2.77556e-17 -2.77556e-17 1.66533e-16 
0 0 -5.55112e-17 
0 0 -0.00399973 
-3.29597e-17 -1.73472e-17 -2.08167e-16 
-3.46945e-18 0 -1.29851e-06 
2.77556e-17 1.38778e-17 4.44089e-16 
0 -3.46945e-17 -2.77556e-16 
-1.73472e-17 0 2.22045e-16 
1.11022e-16 1.38778e-17 8.88178e-16 
1.38778e-17 -2.08167e-17 0 
2.77556e-17 -1.38778e-17 1.11022e-16 
6.93889e-18 -4.16334e-17 0 
-1.38778e-17 1.38778e-17 -5.55112e-17 
2.77556e-17 7.28584e-17 0 
1.38778e-17 2.77556e-17 0 
0 -6.93889e-18 0 
2.77556e-17 1.38778e-17 4.44089e-16 
-3.46945e-18 0 -1.29851e-06 
5.55112e-17 5.55112e-17 1.33227e-15 
-1.73472e-17 0 2.22045e-16 
-1.38778e-17 -1.73472e-17 1.11022e-15 
-1.38778e-17 5.55112e-17 0 
-2.77556e-17 0 -1.11022e-16 
2.77556e-17 4.51028e-17 -1.11022e-16 
0 0 -1.11022e-16 
2.77556e-17 2.08167e-17 0 
-7.28584e-17 -5.55112e-17 2.22045e-16 
-1.38778e-17 1.38778e-17 -1.11022e-16 
-5.55112e-17 5.55112e-17 -6.66134e-16 
1.38778e-17 2.77556e-17 0 
2.77556e-17 1.38778e-17 -1.66533e-16 
-6.93889e-18 6.93889e-18 -1.11022e-16 
-8.32667e-17 -3.46945e-17 0 
-5.55112e-17 -7.97973e-17 4.44089e-16 
-1.38778e-17 -1.38778e-17 5.52136e-12 
-1.38778e-17 -2.77556e-17 -5.55112e-17 
0 2.77556e-17 -4.44089e-16 
2.77556e-17 1.38778e-17 0 
4.77049e-18 6.93889e-18 -0.00318456 
-2.77556e-17 -3.46945e-18 -1.66533e-16 
1.17961e-17 -4.16334e-18 0 
-1.38778e-17 0 -1.11022e-16 
-6.93889e-18 -1.38778e-17 0 
1.69136e-17 1.73472e-17 2.49366e-16 
0 2.77556e-17 0 
4.16334e-17 1.38778e-17 0 
0 5.20417e-18 -0.00400098 
1.38778e-17 2.77556e-17 0 
4.16334e-17 1.38778e-17 0 
0 5.20417e-18 -0.00400098 
-1.38778e-17 0 1.11022e-16 
0 2.77556e-17 0 
-6.93889e-18 -1.38778e-17 -1.11022e-16 
2.77556e-17 -2.42861e-17 0 
-2.77556e-17 0 0 
-5.55112e-17 5.55112e-17 0 
0 2.77556e-17 -4.44089e-16 
-6.93889e-18 -1.38778e-17 0 
1.21431e-17 -3.46945e-17 8.88178e-16 
1.69136e-17 1.73472e-17 2.49366e-16 
5.55112e-17 5.55112e-17 1.33227e-15 
-1.73472e-17 0 2.22045e-16 
4.16334e-17 5.55112e-17 -2.22045e-16 
2.77556e-17 2.08167e-17 0 
-2.77556e-17 0 -1.11022e-16 
-9.71445e-17 -5.55112e-17 6.66134e-16 
2.32426e-17 1.587e-17 -8.88178e-16 
5.55112e-17 1.56125e-17 0 
-1.21431e-17 -1.0842e-18 1.11022e-16 
4.16334e-17 -1.38778e-17 -1.11022e-16 
-2.77556e-17 -5.55112e-17 2.22045e-16 
0 2.08167e-17 -1.11022e-16 
6.93889e-18 0 -2.77556e-17 
-1.38778e-17 0 1.11022e-16 
0 -8.67362e-19 -0.00318404 
6.93889e-18 2.77556e-17 5.55112e-17 
-1.38778e-17 0 1.11022e-16 
1.04083e-16 -5.55112e-17 1.77636e-15 
5.55112e-18 -1.43115e-17 -1.38778e-16 
1.38778e-17 -5.55112e-17 0 
-2.42861e-17 1.38778e-17 1.11022e-16 
-3.46945e-18 3.46945e-17 0 
-6.93889e-18 -1.38778e-17 -1.66533e-16 
5.55112e-17 -2.90566e-17 6.66134e-16 
0 -1.38778e-17 1.11022e-16 
2.77556e-17 2.77556e-17 -2.22045e-16 
2.15106e-17 -3.33067e-17 8.88178e-16 
-2.77556e-17 0 -1.66533e-16 
-4.16334e-17 1.38778e-17 0 
6.93889e-18 2.77556e-17 5.55112e-17 
1.04083e-16 -5.55112e-17 1.77636e-15 
2.16705e-17 1.49078e-17 8.88178e-16 
-2.77556e-17 -5.55112e-17 2.22045e-16 
8.32667e-18 8.32667e-17 -7.77156e-16 
1.11022e-16 1.38778e-17 8.88178e-16 
2.77556e-17 -1.38778e-17 1.11022e-16 
0 -1.38778e-17 1.11022e-16 
-4.16334e-17 1.38778e-17 0 
2.15106e-17 -3.33067e-17 8.88178e-16 
-1.38778e-17 -1.38778e-17 0 
-2.77556e-17 -8.32667e-17 -4.44089e-16 
6.93889e-18 -4.16334e-17 0 
5.55112e-17 -2.77556e-17 1.11022e-16 
1.38778e-17 0 -2.22045e-16 
0 2.77556e-17 -4.44089e-16 
-2.08167e-17 -1.73472e-17 2.22045e-16 
1.38778e-17 0 1.11022e-16 
1.69136e-17 1.73472e-17 2.49366e-16 
2.16705e-17 1.49078e-17 8.88178e-16 
-4.16334e-17 1.38778e-17 0 
2.77556e-17 1.38778e-17 0 
5.55112e-17 -5.55112e-17 -4.44089e-16 
2.77556e-17 -1.9082e-17 8.88178e-16 
9.1073e-18 -2.68882e-17 -6.93889e-18 
-4.1674e-18 4.16063e-18 5.07108e-07 
-8.32667e-17 0 0 
-5.10009e-17 -1.04083e-18 5.55112e-17 
-5.55112e-18 1.8735e-17 -2.22045e-16 
6.93889e-17 0 0 
4.16334e-17 4.33681e-18 2.22045e-16 
0 -2.77556e-17 -1.11022e-16 
-2.77556e-17 0 -1.11022e-16 
-2.77556e-17 -4.85723e-17 -1.11022e-16 
2.32426e-17 1.587e-17 -8.88178e-16 
-4.16334e-17 1.38778e-17 -1.66533e-16 
-8.67362e-19 -6.93889e-18 -0.00318586 
2.08167e-17 2.77556e-17 -1.11022e-16 
6.93889e-18 2.08167e-17 -1.80411e-16 
-1.38778e-17 5.55112e-17 0 
1.0339e-16 -1.94289e-17 0 
-1.38778e-17 -1.73472e-17 1.11022e-15 
-2.77556e-17 6.93889e-18 0 
0 -1.38778e-17 -2.22045e-16 
2.77556e-17 2.77556e-17 0 
-1.38778e-17 -1.38778e-17 1.11022e-16 
1.38778e-17 1.38778e-17 2.22045e-16 
-3.46945e-17 2.77556e-17 -1.24791e-06 
0 -1.38778e-17 -2.22045e-16 
-2.77556e-17 -2.77556e-17 1.11022e-16 
2.32426e-17 1.587e-17 -8.88178e-16 
-2.77556e-17 6.93889e-18 0 
-1.38778e-17 -1.73472e-17 1.11022e-15 
-1.38778e-17 5.55112e-17 0 
-2.77556e-17 0 -1.11022e-16 
-2.77556e-17 -3.46945e-18 -1.66533e-16 
2.77556e-17 1.38778e-17 0 
4.77049e-18 6.93889e-18 -0.00318456 
6.93889e-18 4.16334e-17 0 
2.77556e-17 -3.1225e-17 6.66134e-16 
-2.77556e-17 -2.64545e-17 1.11022e-16 
0 0 0 
1.38778e-17 -4.16334e-17 2.22045e-16 
-2.77556e-17 -8.32667e-17 -4.44089e-16 
8.32667e-18 8.32667e-17 -7.77156e-16 
-2.77556e-17 -5.55112e-17 -4.44089e-16 
5.55112e-17 -2.77556e-17 1.11022e-16 
2.77556e-17 4.51028e-17 -1.11022e-16 
-4.85723e-17 0 0 
2.77556e-17 0 6.66134e-16 
4.16334e-17 5.55112e-17 0 
-6.93889e-18 -1.38778e-17 -1.11022e-16 
2.77556e-17 -2.42861e-17 0 
-1.04083e-17 2.77556e-17 0 
-2.77556e-17 0 0 
-2.77556e-17 -2.77556e-17 1.11022e-16 
-2.77556e-17 0 -1.11022e-16 
-3.03577e-18 0 -0.00318586 
6.93889e-18 2.08167e-17 -1.80411e-16 
-1.38778e-17 -1.73472e-17 1.11022e-15 
-3.22659e-17 4.34548e-17 4.44089e-16 
2.77556e-17 0 6.66134e-16 
2.77556e-17 4.51028e-17 -1.11022e-16 
-3.29597e-17 -1.73472e-17 -2.08167e-16 
-2.77556e-17 2.77556e-17 -2.22045e-16 
3.46945e-18 3.46945e-18 -0.00318586 
0 1.38778e-17 -1.11022e-16 
0 -1.38778e-17 1.11022e-16 
-1.38778e-17 -1.38778e-17 1.11022e-16 
-1.38778e-17 -1.38778e-17 0 
1.37043e-17 4.02673e-17 4.44089e-16 
-2.77556e-17 5.55112e-17 -4.44089e-16 
0 -3.46945e-18 6.66134e-16 
-1.38778e-17 -1.38778e-17 1.66533e-16 
1.73472e-17 2.77556e-17 0 
0 1.38778e-17 -1.11022e-16 
-2.77556e-17 2.77556e-17 -2.22045e-16 
1.38778e-17 -1.21431e-17 -0.00318586 
-1.38778e-17 -2.77556e-17 -5.55112e-17 
2.77556e-17 -2.77556e-17 1.66533e-16 
2.29004e-17 5.55654e-18 -2.22045e-16 
-4.16334e-17 -3.60904e-17 -8.88178e-16 
-3.29597e-17 -1.73472e-17 -2.08167e-16 
6.93889e-18 0 -0.00318581 
-1.38778e-17 1.73472e-18 1.11022e-16 
-1.73472e-17 0 2.22045e-16 
4.16334e-17 5.55112e-17 -2.22045e-16 
-2.77556e-17 0 -1.66533e-16 
0 -1.38778e-17 1.11022e-16 
2.77556e-17 2.77556e-17 -2.22045e-16 
-1.38778e-17 0 -1.11022e-16 
-3.22659e-17 4.34548e-17 4.44089e-16 
-1.38778e-17 -1.73472e-17 1.11022e-15 
1.2837e-17 3.40006e-17 0 
-3.46945e-17 -1.38778e-17 9.71445e-17 
-8.32667e-17 -3.46945e-17 0 
1.38778e-17 2.77556e-17 0 
2.77556e-17 7.28584e-17 0 
0 -6.93889e-18 0 
1.11022e-16 1.38778e-17 8.88178e-16 
4.16334e-17 -1.38778e-17 -1.11022e-16 
-2.77556e-17 -5.55112e-17 2.22045e-16 
-1.21431e-17 -1.0842e-18 1.11022e-16 
-2.77556e-17 1.38778e-17 -1.11022e-16 
2.77556e-17 -2.77556e-17 2.22045e-16 
0 5.20417e-18 0 
3.46945e-17 -1.38778e-17 1.11022e-16 
2.77556e-17 0 6.66134e-16 
-3.22659e-17 4.34548e-17 4.44089e-16 
-4.85723e-17 0 0 
2.77556e-17 4.51028e-17 -1.11022e-16 
3.46945e-18 0 -0.00318533 
6.93889e-18 0 -2.22045e-16 
-2.77556e-17 6.93889e-18 0 
-2.77556e-17 0 -1.11022e-16 
2.16705e-17 1.49078e-17 8.88178e-16 
2.15106e-17 -3.33067e-17 8.88178e-16 
-4.16334e-17 1.38778e-17 0 
0 0 4.44089e-16 
0 0 1.33227e-15 
-1.38778e-17 -6.245e-17 -6.66134e-16 
-1.38778e-17 0 -1.11022e-16 
0 0 -2.22045e-16 
-1.38778e-17 4.16334e-17 -1.11022e-16 
-2.77556e-17 0 0 
2.77556e-17 -1.38778e-17 0 
6.58761e-17 4.47559e-17 0 
-7.28584e-17 -5.55112e-17 2.22045e-16 
1.0339e-16 -1.94289e-17 0 
5.55112e-17 -1.11022e-16 -2.22045e-16 
-1.38778e-17 1.38778e-17 -1.11022e-16 
-5.55112e-17 0 -5.55112e-17 
0 -4.16334e-17 2.22045e-16 
1.38778e-17 1.38778e-17 1.11022e-16 
-8.32667e-17 0 0 
2.29004e-17 5.55654e-18 -2.22045e-16 
-4.16334e-17 -3.60904e-17 -8.88178e-16 
-4.85723e-17 0 0 
2.77556e-17 -2.77556e-17 1.66533e-16 
1.0339e-16 -1.94289e-17 0 
-1.38778e-17 -1.73472e-17 1.11022e-15 
2.77556e-17 1.11022e-16 6.66134e-16 
-1.38778e-17 5.55112e-17 0 
0 5.55112e-17 0 
-1.04083e-17 2.77556e-17 0 
-8.32667e-17 -5.55112e-17 4.44089e-16 
-2.77556e-17 0 0 
-4.16334e-17 -5.55112e-17 -4.44089e-16 
0 -2.08167e-17 2.22045e-16 
0 0 -1.11022e-16 
-1.38778e-17 1.38778e-17 -1.11022e-16 
-2.77556e-17 5.55112e-17 1.33227e-15 
-1.04083e-17 2.77556e-17 0 
0 5.55112e-17 0 
-2.77556e-17 0 0 
0 3.46945e-18 -0.00318586 
-6.93889e-18 -1.38778e-17 -1.11022e-16 
0 0 -1.11022e-16 
1.38778e-17 -1.9082e-17 0 
4.16334e-17 0 -1.11022e-16 
-3.46945e-18 3.46945e-17 0 
0 -6.50521e-19 -0.00318586 
9.1073e-18 -2.68882e-17 -6.93889e-18 
-9.71445e-17 -5.55112e-17 6.66134e-16 
-4.16334e-17 1.38778e-17 -1.66533e-16 
0 1.38778e-17 2.49847e-07 
3.46945e-17 -5.55112e-17 -2.22045e-16 
-1.38778e-17 5.55112e-17 0 
0 1.38778e-17 -1.11022e-16 
5.55112e-17 -1.11022e-16 -2.22045e-16 
-1.38778e-17 1.38778e-17 -1.11022e-16 
2.77556e-17 2.08167e-17 0 
4.16334e-17 5.55112e-17 -2.22045e-16 
-7.28584e-17 -5.55112e-17 2.22045e-16 
-1.38778e-17 1.38778e-17 -1.11022e-16 
4.16334e-17 5.55112e-17 0 
-4.85723e-17 0 0 
2.77556e-17 0 6.66134e-16 
-2.77556e-17 2.77556e-17 -1.11022e-16 
-5.55112e-17 5.55112e-17 0 
-6.93889e-18 -1.38778e-17 -1.11022e-16 
2.77556e-17 7.28584e-17 0 
-1.38778e-17 1.38778e-17 -5.55112e-17 
6.93889e-18 2.08167e-17 -1.80411e-16 
-4.16334e-17 1.38778e-17 -1.66533e-16 
0 1.38778e-17 2.49847e-07 
-9.71445e-17 -5.55112e-17 6.66134e-16 
-7.28584e-17 -5.55112e-17 2.22045e-16 
5.55112e-17 -1.11022e-16 -2.22045e-16 
-4.16334e-17 -5.55112e-17 -4.44089e-16 
-1.38778e-17 1.38778e-17 -1.11022e-16 
2.32426e-17 1.587e-17 -8.88178e-16 
-3.46945e-17 2.77556e-17 -1.24791e-06 
0 -1.38778e-17 -2.22045e-16 
0 0 1.33227e-15 
-1.38778e-17 -1.38778e-17 1.66533e-16 
0 -3.46945e-18 6.66134e-16 
0 0 -2.59793e-07 
-2.77556e-17 -3.46945e-18 -1.66533e-16 
-2.77556e-17 -3.46945e-18 -1.66533e-16 
0 -3.46945e-18 -0.0031856 
-1.38778e-17 -1.38778e-17 1.66533e-16 
1.73472e-17 2.77556e-17 0 
-6.93889e-18 4.22839e-18 -0.00318586 
1.38778e-17 -1.9082e-17 0 
-6.93889e-18 -3.46945e-18 -1.11022e-16 
-1.38778e-17 1.38778e-17 -5.55112e-17 
-1.38778e-17 0 -1.11022e-16 
1.69136e-17 1.73472e-17 2.49366e-16 
1.17961e-17 -4.16334e-18 0 
1.38778e-17 -4.16334e-17 2.22045e-16 
5.55112e-17 -2.77556e-17 1.11022e-16 
2.77556e-17 -1.38778e-17 1.11022e-16 
8.32667e-18 8.32667e-17 -7.77156e-16 
-2.77556e-17 6.93889e-18 0 
5.27356e-17 -1.21431e-17 -2.77556e-16 
4.16334e-17 4.33681e-18 2.22045e-16 
-2.77556e-17 -2.64545e-17 1.11022e-16 
1.38778e-17 -4.16334e-17 2.22045e-16 
-8.32667e-17 -3.46945e-17 0 
5.55112e-17 -5.55112e-17 4.44089e-16 
2.77556e-17 7.28584e-17 0 
-5.55112e-17 5.55112e-17 0 
1.17961e-17 -4.16334e-18 0 
5.27356e-17 -1.21431e-17 -2.77556e-16 
1.80411e-17 -4.68375e-17 1.11022e-16 
1.38778e-17 -4.16334e-17 2.22045e-16 
1.38778e-17 0 -1.11022e-16 
0 0 0 
-2.08167e-17 -6.93889e-18 1.11022e-16 
1.38778e-17 -4.16334e-17 2.22045e-16 
2.77556e-17 7.28584e-17 0 
1.38778e-17 2.77556e-17 0 
-8.32667e-17 -3.46945e-17 0 
-5.55112e-17 5.55112e-17 0 
-1.38778e-17 1.73472e-18 1.11022e-16 
5.55112e-17 5.55112e-17 1.33227e-15 
2.42861e-17 -2.77556e-17 -4.87734e-08 
-1.73472e-17 0 2.22045e-16 
-4.16334e-17 1.38778e-17 0 
-1.38778e-17 -1.38778e-17 0 
0 -2.77556e-17 0 
0 0 4.44089e-16 
-1.38778e-17 -2.77556e-17 -5.55112e-17 
-2.77556e-17 2.77556e-17 -2.22045e-16 
1.38778e-17 -1.21431e-17 -0.00318586 
0 -6.93889e-18 0 
-6.93889e-18 6.93889e-18 -1.11022e-16 
-1.04083e-17 2.77556e-17 0 
2.77556e-17 1.38778e-17 -1.66533e-16 
0 5.55112e-17 0 
-1.38778e-17 1.73472e-18 1.11022e-16 
5.20417e-18 -3.46945e-18 -0.00318618 
6.93889e-18 0 -2.22045e-16 
4.16334e-17 5.55112e-17 -2.22045e-16 
0 3.46945e-18 -0.00318586 
4.16334e-17 0 -1.11022e-16 
-6.93889e-18 -1.38778e-17 -1.11022e-16 
-4.16334e-17 1.38778e-17 -1.66533e-16 
0 -4.16334e-17 2.22045e-16 
-1.38778e-17 -6.93889e-18 -8.32667e-17 
1.38778e-17 1.38778e-17 1.11022e-16 
-8.32667e-17 0 0 
-2.77556e-17 6.93889e-18 0 
2.77556e-17 2.08167e-17 0 
-2.77556e-17 5.55112e-17 0 
0 0 -1.11022e-16 
-1.38778e-17 4.16334e-17 -1.11022e-16 
4.16334e-17 5.55112e-17 0 
-2.77556e-17 0 0 
-2.77556e-17 2.77556e-17 -1.11022e-16 
-1.38778e-17 0 -1.11022e-16 
1.69136e-17 1.73472e-17 2.49366e-16 
1.38778e-17 -4.16334e-17 2.22045e-16 
0 0 2.22045e-16 
-2.77556e-17 6.93889e-18 0 
-1.38778e-17 5.55112e-17 0 
1.0339e-16 -1.94289e-17 0 
-1.38778e-17 1.38778e-17 -1.11022e-16 
0 -3.46945e-17 -2.77556e-16 
0 2.08167e-17 -1.11022e-16 
1.38778e-17 -1.73472e-18 -0.00318742 
6.93889e-18 2.77556e-17 -1.11022e-16 
4.33681e-18 0 -0.00318586 
-6.93889e-18 -3.46945e-18 -1.11022e-16 
-1.38778e-17 -2.77556e-17 -5.55112e-17 
-1.38778e-17 1.38778e-17 -5.55112e-17 
-2.08167e-17 -2.08167e-17 -1.66533e-16 
1.63064e-17 -2.75819e-17 6.66134e-16 
-1.17961e-17 0 -5.25782e-07 
6.93889e-18 0 -2.22045e-16 
3.95517e-17 -9.71445e-18 0 
1.38778e-17 6.93889e-18 1.11022e-16 
0 4.16334e-17 1.66533e-16 
0 -2.77556e-17 -5.55112e-17 
-2.77556e-17 0 0 
5.55112e-17 8.32667e-17 -1.11022e-16 
-6.93889e-18 -1.38778e-17 -1.11022e-16 
-5.55112e-17 5.55112e-17 0 
-2.77556e-17 -3.46945e-18 -1.66533e-16 
0 -3.46945e-18 6.66134e-16 
0 0 -2.59793e-07 
1.71711e-17 9.96585e-17 -4.44089e-16 
-8.67362e-19 -6.93889e-18 -0.00318586 
-2.77556e-17 0 -1.11022e-16 
2.08167e-17 2.77556e-17 -1.11022e-16 
6.93889e-18 2.08167e-17 -1.80411e-16 
-5.55112e-17 0 -5.55112e-17 
-2.08167e-17 1.91904e-17 -1.11022e-16 
3.46945e-17 2.08167e-17 -4.44089e-16 
1.11022e-16 1.38778e-17 8.88178e-16 
0 -2.77556e-17 -1.11022e-16 
-1.38778e-17 0 -1.11022e-16 
3.1225e-17 1.38778e-17 0 
0 0 -2.22045e-16 
0 0 -4.44089e-16 
-4.16232e-18 4.98733e-17 -5.93666e-08 
-4.16334e-17 1.38778e-17 -1.66533e-16 
3.46945e-17 -5.55112e-17 -2.22045e-16 
9.1073e-18 -2.68882e-17 -6.93889e-18 
2.08167e-17 2.64537e-17 -4.38529e-07 
-6.93889e-18 -1.38778e-17 -1.11022e-16 
0 0 -4.44089e-16 
-4.16334e-17 1.38778e-17 -1.66533e-16 
-6.93889e-18 -1.38778e-17 -1.11022e-16 
-4.16232e-18 4.98733e-17 -5.93666e-08 
0 0 -4.44089e-16 
2.42861e-17 -6.93889e-18 1.65983e-06 
-2.77556e-17 -2.77556e-17 1.11022e-16 
6.93889e-18 2.08167e-17 -1.80411e-16 
-9.71445e-17 -5.55112e-17 6.66134e-16 
-1.38778e-17 -2.77556e-17 -5.55112e-17 
1.38778e-17 2.77556e-17 0 
-8.32667e-17 -3.46945e-17 0 
0 -6.93889e-18 0 
1.38778e-17 2.77556e-17 0 
2.77556e-17 -3.46945e-17 2.22045e-16 
-9.1073e-18 6.93889e-18 -0.00606834 
-6.93889e-18 6.93889e-18 -1.11022e-16 
0 -3.46945e-18 -0.0031856 
-2.77556e-17 -3.46945e-18 -1.66533e-16 
6.93889e-18 4.16334e-17 0 
1.73472e-17 2.77556e-17 0 
-3.46945e-18 -6.93889e-18 -0.00318586 
-3.46945e-18 3.46945e-17 0 
6.93889e-18 -1.38778e-17 -2.22045e-16 
9.1073e-18 -2.68882e-17 -6.93889e-18 
-1.31839e-17 2.1684e-18 -1.66533e-16 
2.28983e-17 -1.38778e-18 4.996e-16 
-2.10335e-17 6.93889e-18 -5.55112e-16 
4.96131e-17 -1.83881e-17 2.22045e-16 
-1.38778e-17 1.38778e-17 -5.55112e-17 
-1.38778e-17 -2.77556e-17 -5.55112e-17 
4.33681e-18 0 -0.00318586 
0 -6.93889e-18 0 
1.38778e-17 0 -8.88178e-16 
7.63278e-18 5.55112e-18 1.38778e-17 
1.249e-17 -2.11636e-17 1.94289e-16 
3.46945e-17 -1.38778e-17 1.11022e-16 
-1.73472e-17 0 2.22045e-16 
0 -3.46945e-17 -2.77556e-16 
-3.46945e-18 3.46945e-18 -0.00318456 
6.93889e-18 2.77556e-17 -1.11022e-16 
-6.93889e-18 -5.20417e-18 -0.00606827 
0 2.77556e-17 0 
2.77556e-17 4.51028e-17 -1.11022e-16 
0 0 -5.55112e-17 
0 -2.77556e-17 -1.11022e-16 
-2.77556e-17 0 -2.22045e-16 
-2.77556e-17 0 -1.11022e-16 
5.55112e-17 1.56125e-17 0 
-9.71445e-17 -5.55112e-17 6.66134e-16 
2.42861e-17 -6.93889e-18 1.65983e-06 
-2.77556e-17 -2.77556e-17 1.11022e-16 
2.32426e-17 1.587e-17 -8.88178e-16 
-5.55112e-17 5.55112e-17 0 
2.77556e-17 7.28584e-17 0 
1.38778e-17 2.77556e-17 0 
-1.38778e-17 1.38778e-17 -5.55112e-17 
-1.38778e-17 3.46945e-17 2.22045e-16 
3.46945e-18 -2.77556e-17 0 
-4.69131e-18 -1.36761e-17 -1.11022e-16 
-3.46945e-18 4.16334e-17 -2.22045e-16 
-2.08167e-17 -2.08167e-17 -1.66533e-16 
1.2837e-17 3.40006e-17 0 
-1.38778e-17 -1.73472e-17 1.11022e-15 
-3.46945e-17 -1.38778e-17 9.71445e-17 
-3.46945e-17 -1.38778e-17 9.71445e-17 
-2.08167e-17 -2.08167e-17 -1.66533e-16 
8.67362e-18 -6.93889e-18 -0.00399973 
-2.77556e-17 0 -1.11022e-16 
-9.06393e-18 5.89806e-18 -3.33067e-16 
-1.38778e-17 -6.93889e-18 2.22045e-16 
0 6.93889e-18 -1.11022e-16 
2.77556e-17 -2.77556e-17 2.22045e-16 
5.55112e-17 8.32667e-17 -1.11022e-16 
1.38778e-17 -1.9082e-17 0 
-6.93889e-18 -3.46945e-18 -1.11022e-16 
3.46945e-17 0 4.47447e-10 
-6.93889e-18 -1.38778e-17 -1.11022e-16 
2.77556e-17 7.28584e-17 0 
2.77556e-17 -2.42861e-17 0 
-5.55112e-17 5.55112e-17 0 
2.77556e-17 -1.38778e-17 0 
5.55112e-17 -5.55112e-17 4.44089e-16 
0 -1.38778e-17 0 
2.77556e-17 7.28584e-17 0 
-4.16334e-18 2.498e-17 0 
-2.77556e-17 5.55112e-17 -4.44089e-16 
-1.38778e-17 -1.38778e-17 1.66533e-16 
1.32273e-17 -1.60462e-17 1.38778e-16 
1.73472e-17 2.77556e-17 0 
6.93889e-18 1.38778e-17 -0.00399973 
1.32273e-17 -1.60462e-17 1.38778e-16 
0 -2.08167e-17 -1.11022e-16 
-2.77556e-17 0 -1.11022e-16 
-3.03577e-18 0 -0.00318586 
-2.77556e-17 -4.85723e-17 -1.11022e-16 
-2.77556e-17 -2.77556e-17 1.11022e-16 
5.20417e-17 1.11022e-16 8.88178e-16 
1.9082e-17 4.16334e-17 3.33067e-16 
-3.19189e-17 2.63678e-17 2.77556e-17 
-3.46945e-18 4.16334e-17 -2.22045e-16 
5.55112e-17 5.55112e-17 1.33227e-15 
2.42861e-17 -2.77556e-17 -4.87734e-08 
-5.55112e-17 0 -2.22045e-16 
-1.38778e-17 1.73472e-18 1.11022e-16 
0 -1.38778e-17 1.11022e-16 
2.15106e-17 -3.33067e-17 8.88178e-16 
-4.16334e-17 1.38778e-17 0 
-2.77556e-17 0 -1.66533e-16 
1.38778e-17 6.93889e-18 1.11022e-16 
3.95517e-17 -9.71445e-18 0 
-2.77556e-17 5.55112e-17 1.33227e-15 
0 -2.77556e-17 -5.55112e-17 
1.38778e-17 -1.9082e-17 0 
-6.93889e-18 4.22839e-18 -0.00318586 
-6.93889e-18 -1.38778e-17 -1.11022e-16 
-1.38778e-17 1.38778e-17 -5.55112e-17 
2.91434e-17 -2.79488e-17 4.16334e-17 
-1.66533e-17 -6.93889e-18 9.4369e-16 
-4.02456e-17 3.19189e-17 4.44089e-16 
1.38778e-17 1.38778e-17 2.22045e-16 
3.46945e-18 -1.73472e-18 -0.00318734 
2.77556e-17 1.38778e-17 0 
0 2.77556e-17 -4.44089e-16 
0 6.93889e-18 -5.55112e-17 
3.46945e-18 -2.77556e-17 0 
2.28983e-17 -1.38778e-18 4.996e-16 
-1.38778e-17 -2.08167e-17 1.11022e-16 
4.96131e-17 -1.83881e-17 2.22045e-16 
1.9082e-17 4.16334e-17 3.33067e-16 
0 6.93889e-18 -1.11022e-16 
-3.19189e-17 -3.51752e-17 -5.55112e-17 
-3.46945e-18 4.16334e-17 -2.22045e-16 
6.93889e-18 0 2.22045e-16 
-2.77556e-17 -2.08167e-17 0 
-3.46945e-17 0 -1.11022e-16 
4.96131e-17 -1.83881e-17 2.22045e-16 
2.08167e-17 2.64537e-17 -4.38529e-07 
9.1073e-18 -2.68882e-17 -6.93889e-18 
2.77556e-17 -1.9082e-17 8.88178e-16 
0 0 -4.44089e-16 
3.46945e-18 -6.93889e-18 -0.00318585 
0 6.93889e-18 -5.55112e-17 
6.93889e-18 0 -2.77556e-17 
6.93889e-18 2.77556e-17 5.55112e-17 
3.1225e-17 3.46945e-17 0 
-3.46945e-18 4.16334e-17 -2.22045e-16 
1.69136e-17 1.73472e-17 2.49366e-16 
0 0 2.22045e-16 
-6.93889e-18 -3.46945e-18 -1.11022e-16 
1.38778e-17 2.77556e-17 0 
5.55112e-17 8.32667e-17 -1.11022e-16 
3.46945e-17 0 4.47447e-10 
8.67362e-18 -6.93889e-18 -0.00399973 
-3.46945e-17 -1.38778e-17 9.71445e-17 
-2.77556e-17 0 -1.11022e-16 
2.77556e-17 4.51028e-17 -1.11022e-16 
0 2.08167e-17 -1.11022e-16 
1.94275e-17 5.55654e-18 1.55696e-06 
-2.77556e-17 -5.55112e-17 2.22045e-16 
0 -3.46945e-17 -2.77556e-16 
0 4.16334e-17 1.66533e-16 
3.46945e-18 3.46945e-18 -0.00399973 
0 0 -1.11022e-16 
0 -2.77556e-17 -5.55112e-17 
-2.77556e-17 1.38778e-17 -3.33067e-16 
-2.77556e-17 -2.08167e-17 0 
0 2.77556e-17 1.11022e-16 
-3.46945e-18 4.16334e-17 -2.22045e-16 
-5.55112e-17 5.55112e-17 -6.66134e-16 
1.38778e-17 0 -3.33067e-16 
2.77556e-17 -3.46945e-17 2.22045e-16 
3.95517e-17 -9.71445e-18 0 
5.20417e-18 -3.46945e-18 -0.00318618 
6.93889e-18 0 -2.22045e-16 
4.16334e-17 5.55112e-17 -2.22045e-16 
-2.77556e-17 6.93889e-18 0 
1.32273e-17 -1.60462e-17 1.38778e-16 
-1.38778e-17 -1.38778e-17 1.66533e-16 
6.93889e-18 1.38778e-17 -0.00399973 
1.73472e-17 2.77556e-17 0 
-6.93889e-18 -5.20417e-18 -0.00606827 
0 2.77556e-17 0 
-3.46945e-17 -1.38778e-17 9.71445e-17 
2.77556e-17 4.51028e-17 -1.11022e-16 
1.38778e-17 0 1.11022e-16 
1.69136e-17 1.73472e-17 2.49366e-16 
0 6.93889e-18 0 
4.16334e-17 4.33681e-18 2.22045e-16 
-2.77556e-17 -4.85723e-17 -1.11022e-16 
4.33681e-18 -6.93889e-18 -0.00399973 
-1.38778e-17 -5.20417e-18 -5.55112e-17 
0 -1.38778e-17 -2.22045e-16 
6.93889e-18 2.77556e-17 -1.11022e-16 
0 2.08167e-17 -1.11022e-16 
1.38778e-17 -1.73472e-18 -0.00318742 
2.77556e-17 -1.38778e-17 1.11022e-16 
-2.08167e-17 -6.93889e-18 1.11022e-16 
0 -1.38778e-17 -2.22045e-16 
-1.38778e-17 -1.38778e-17 1.11022e-16 
0 0 2.22045e-16 
-2.77556e-17 5.55112e-17 -4.44089e-16 
0 0 0 
1.24899e-17 -2.77556e-17 -7.39537e-08 
0 0 1.33227e-15 
0 0 -1.11022e-16 
-6.93889e-18 6.93889e-18 -1.11022e-16 
3.46945e-18 3.46945e-18 -0.00399973 
0 4.16334e-17 1.66533e-16 
7.11237e-18 3.45312e-17 -1.11022e-16 
1.04083e-17 -2.77556e-17 0 
3.1225e-17 3.46945e-17 0 
0 0 2.22045e-16 
-1.66533e-17 -6.93889e-18 9.4369e-16 
-3.46945e-18 4.16334e-17 -2.22045e-16 
1.04083e-17 -2.77556e-17 0 
0 0 2.22045e-16 
2.77556e-17 1.38778e-17 4.44089e-16 
-2.77556e-17 -5.55112e-17 2.22045e-16 
1.94275e-17 5.55654e-18 1.55696e-06 
0 -3.46945e-17 -2.77556e-16 
3.05311e-17 2.25514e-17 -3.33067e-16 
2.25514e-17 1.38778e-17 0 
3.46945e-18 -8.32667e-18 2.77556e-17 
-2.08167e-17 -1.73472e-17 2.22045e-16 
6.93889e-18 0 2.22045e-16 
1.38778e-17 0 1.11022e-16 
2.77556e-17 -2.77556e-17 2.22045e-16 
-2.08167e-17 -1.73472e-17 2.22045e-16 
1.11022e-16 1.38778e-17 8.88178e-16 
-2.08167e-17 1.91904e-17 -1.11022e-16 
3.46945e-17 2.08167e-17 -4.44089e-16 
-1.21431e-17 -1.0842e-18 1.11022e-16 
3.46945e-18 3.46945e-18 -0.00318586 
-1.38778e-17 4.16334e-17 -1.11022e-16 
-2.77556e-17 2.77556e-17 -2.22045e-16 
-3.29597e-17 -1.73472e-17 -2.08167e-16 
6.93889e-18 0 -2.22045e-16 
1.63064e-17 -2.75819e-17 6.66134e-16 
-1.38778e-17 -2.08167e-17 3.1509e-07 
-5.55112e-17 0 -2.22045e-16 
2.77556e-18 2.63678e-17 -5.55112e-17 
-2.70617e-17 -1.56125e-17 2.22045e-16 
-2.77556e-17 -5.55112e-17 0 
-2.77556e-17 -2.64545e-17 1.11022e-16 
2.77556e-18 2.63678e-17 -5.55112e-17 
1.80411e-17 -4.68375e-17 1.11022e-16 
5.27356e-17 -1.21431e-17 -2.77556e-16 
-2.77556e-17 -2.64545e-17 1.11022e-16 
1.9082e-17 4.16334e-17 3.33067e-16 
2.77556e-17 -2.77556e-17 2.22045e-16 
0 6.93889e-18 -1.11022e-16 
-3.46945e-18 4.16334e-17 -2.22045e-16 
4.16334e-17 1.38778e-17 0 
-1.38778e-17 0 1.11022e-16 
2.77556e-17 1.94289e-17 0 
1.38778e-17 -5.55112e-17 0 
3.46945e-18 -5.20417e-18 -0.00606827 
-2.08167e-17 1.91904e-17 -1.11022e-16 
0 -6.93889e-18 0 
1.38778e-17 -2.08167e-17 0 
0 -2.08167e-17 -1.11022e-16 
1.73472e-18 0 -0.00606827 
0 0 0 
-1.38778e-17 -5.20417e-18 -5.55112e-17 
4.16334e-17 5.55112e-17 -2.22045e-16 
-1.73472e-17 0 2.22045e-16 
6.93889e-18 0 -0.00318581 
2.77556e-17 2.08167e-17 0 
-1.38778e-17 4.16334e-17 -1.11022e-16 
0 0 -0.00399973 
0 0 -5.55112e-17 
-3.29597e-17 -1.73472e-17 -2.08167e-16 
3.1225e-17 3.46945e-17 0 
1.04083e-17 -2.77556e-17 0 
-1.66533e-17 -6.93889e-18 9.4369e-16 
-3.46945e-18 4.16334e-17 -2.22045e-16 
-2.77556e-17 5.55112e-17 -4.44089e-16 
1.24899e-17 -2.77556e-17 -7.39537e-08 
0 0 0 
1.32273e-17 -1.60462e-17 1.38778e-16 
-1.38778e-17 -2.08167e-17 3.1509e-07 
6.93889e-18 0 -2.22045e-16 
-5.55112e-17 0 -2.22045e-16 
-1.38778e-17 1.73472e-18 1.11022e-16 
2.77556e-17 0 -1.11022e-16 
4.16334e-17 4.33681e-18 2.22045e-16 
0 6.93889e-18 0 
-2.77556e-17 -2.64545e-17 1.11022e-16 
4.16334e-17 0 -1.11022e-16 
0 3.46945e-18 -0.00318586 
2.08167e-17 2.77556e-17 -1.11022e-16 
-4.16334e-17 1.38778e-17 -1.66533e-16 
2.77556e-17 0 6.66134e-16 
1.04083e-17 -4.16334e-17 0 
2.77556e-17 4.51028e-17 -1.11022e-16 
4.16334e-17 5.55112e-17 0 
-1.38778e-17 -6.93889e-18 -8.32667e-17 
6.93889e-18 -1.38778e-17 -2.22045e-16 
0 -5.20417e-18 -0.00399973 
1.38778e-17 1.38778e-17 1.11022e-16 
-1.17961e-17 0 -5.25782e-07 
-1.38778e-17 -1.73472e-17 1.11022e-15 
1.63064e-17 -2.75819e-17 6.66134e-16 
-2.08167e-17 -2.08167e-17 -1.66533e-16 
0 -1.38778e-17 -2.22045e-16 
-2.77556e-17 -4.85723e-17 -1.11022e-16 
4.33681e-18 -6.93889e-18 -0.00399973 
-2.77556e-17 -2.77556e-17 1.11022e-16 
4.16334e-17 1.38778e-17 0 
2.77556e-17 -3.46945e-17 2.22045e-16 
-9.1073e-18 6.93889e-18 -0.00606834 
1.38778e-17 2.77556e-17 0 
6.93889e-18 -1.38778e-17 -2.22045e-16 
0 -6.93889e-18 0 
0 -5.20417e-18 -0.00399973 
1.38778e-17 1.38778e-17 1.11022e-16 
-1.66533e-17 -6.93889e-18 9.4369e-16 
-3.46945e-18 4.16334e-17 -2.22045e-16 
0 0 2.22045e-16 
1.38778e-17 1.38778e-17 2.22045e-16 
-4.85723e-17 0 0 
0 -2.25514e-17 -1.11022e-16 
0 2.77556e-17 0 
-3.22659e-17 4.34548e-17 4.44089e-16 
4.16334e-17 1.38778e-17 0 
1.38778e-17 0 -3.33067e-16 
2.77556e-17 -3.46945e-17 2.22045e-16 
-5.55112e-17 5.55112e-17 -6.66134e-16 
6.93889e-17 0 0 
2.77556e-17 0 0 
-5.10009e-17 -1.04083e-18 5.55112e-17 
4.16334e-17 4.33681e-18 2.22045e-16 
2.77556e-17 2.08167e-17 0 
-1.73472e-17 0 2.22045e-16 
-3.46945e-18 3.46945e-18 -0.00318456 
6.93889e-18 2.77556e-17 -1.11022e-16 
-4.16334e-18 2.498e-17 0 
-2.77556e-17 5.55112e-17 -4.44089e-16 
0 -3.46945e-18 6.66134e-16 
-1.38778e-17 -1.38778e-17 1.66533e-16 
-1.38778e-17 -2.77556e-17 0 
0 0 0 
-4.16334e-17 0 0 
-2.77556e-17 -2.64545e-17 1.11022e-16 
3.46945e-18 -1.73472e-18 -0.00318734 
2.77556e-17 1.38778e-17 0 
0 6.93889e-18 -5.55112e-17 
-4.16334e-17 1.38778e-17 0 
3.05311e-17 2.25514e-17 -3.33067e-16 
3.46945e-18 -8.32667e-18 2.77556e-17 
7.28584e-18 -6.07153e-18 1.11022e-16 
-2.08167e-17 -1.73472e-17 2.22045e-16 
1.38778e-17 -5.55112e-17 0 
2.77556e-17 1.94289e-17 0 
4.16334e-17 1.38778e-17 0 
-5.55112e-17 5.55112e-17 -6.66134e-16 
-1.62386e-17 9.78066e-19 -4.85723e-17 
2.91434e-17 -2.79488e-17 4.16334e-17 
-1.9082e-17 -5.18249e-17 4.44089e-16 
1.38778e-17 1.38778e-17 2.22045e-16 
0 -6.93889e-18 -1.11022e-16 
1.38778e-17 0 1.11022e-16 
0 6.93889e-18 0 
4.16334e-17 4.33681e-18 2.22045e-16 
3.46945e-18 -6.93889e-18 -0.00318585 
0 6.93889e-18 -5.55112e-17 
6.93889e-18 2.77556e-17 5.55112e-17 
-4.16334e-17 1.38778e-17 0 
5.27356e-17 -1.21431e-17 -2.77556e-16 
-2.77556e-17 -2.64545e-17 1.11022e-16 
1.80411e-17 -4.68375e-17 1.11022e-16 
1.38778e-17 -4.16334e-17 2.22045e-16 
1.38778e-17 2.77556e-17 0 
5.89789e-18 5.20417e-17 -3.67721e-11 
-6.93889e-18 -3.46945e-18 -1.11022e-16 
-1.38778e-17 -2.77556e-17 -5.55112e-17 
7.11237e-18 3.45312e-17 -1.11022e-16 
-1.38778e-17 0 -1.11022e-16 
-1.31839e-17 1.66533e-17 -7.63278e-17 
0 0 2.22045e-16 
1.249e-17 -2.11636e-17 1.94289e-16 
-2.77556e-17 1.38778e-17 -1.11022e-16 
0 5.20417e-18 0 
3.46945e-17 -1.38778e-17 1.11022e-16 
-4.85723e-17 0 0 
0 2.77556e-17 0 
0 -2.25514e-17 -1.11022e-16 
2.77556e-17 -2.77556e-17 1.66533e-16 
0 6.93889e-18 0 
1.69136e-17 1.73472e-17 2.49366e-16 
-2.08167e-17 -6.93889e-18 1.11022e-16 
1.38778e-17 -4.16334e-17 2.22045e-16 
-6.93889e-18 6.93889e-18 -1.11022e-16 
2.77556e-17 -3.46945e-17 2.22045e-16 
-9.1073e-18 6.93889e-18 -0.00606834 
0 4.16334e-17 1.66533e-16 
-1.38778e-17 -2.08167e-17 1.11022e-16 
2.28983e-17 -1.38778e-18 4.996e-16 
-1.31839e-17 2.1684e-18 -1.66533e-16 
4.96131e-17 -1.83881e-17 2.22045e-16 
0 -1.38778e-17 -2.22045e-16 
1.24899e-17 -2.77556e-17 -7.39537e-08 
0 0 0 
0 0 1.33227e-15 
1.80411e-17 -4.68375e-17 1.11022e-16 
1.38778e-17 3.46945e-17 -4.44089e-16 
1.17961e-17 -4.16334e-18 0 
1.38778e-17 -4.16334e-17 2.22045e-16 
-1.62386e-17 9.78066e-19 -4.85723e-17 
-1.38778e-17 3.46945e-17 2.22045e-16 
-1.66533e-17 -6.93889e-18 9.4369e-16 
1.38778e-17 1.38778e-17 2.22045e-16 
0 6.93889e-18 0 
1.38778e-17 0 1.11022e-16 
2.08167e-17 0 0 
1.69136e-17 1.73472e-17 2.49366e-16 
0 -6.93889e-18 0 
-2.08167e-17 1.91904e-17 -1.11022e-16 
3.46945e-18 -5.20417e-18 -0.00606827 
1.38778e-17 1.38778e-17 1.11022e-16 
0 -6.93889e-18 -1.11022e-16 
0 2.77556e-17 1.11022e-16 
2.77556e-17 -2.77556e-17 2.22045e-16 
3.46945e-17 -1.38778e-17 1.11022e-16 
1.73472e-18 0 -0.00606827 
0 0 0 
1.32273e-17 -1.60462e-17 1.38778e-16 
0 -2.08167e-17 -1.11022e-16 
1.2739e-17 -6.85216e-18 -1.11022e-16 
-5.10009e-17 -1.04083e-18 5.55112e-17 
2.77556e-17 0 0 
4.16334e-17 4.33681e-18 2.22045e-16 
0 -6.93889e-18 -1.11022e-16 
2.77556e-17 -2.77556e-17 2.22045e-16 
1.38778e-17 0 1.11022e-16 
4.16334e-17 4.33681e-18 2.22045e-16 
-6.93889e-18 -1.38778e-17 0 
-1.38778e-17 0 -1.11022e-16 
1.21431e-17 -3.46945e-17 8.88178e-16 
1.69136e-17 1.73472e-17 2.49366e-16 
1.04083e-17 -2.77556e-17 0 
-3.46945e-18 4.16334e-17 -2.22045e-16 
3.1225e-17 3.46945e-17 0 
0 0 2.22045e-16 
1.04083e-17 -2.77556e-17 0 
-1.31839e-17 1.66533e-17 -7.63278e-17 
-4.02456e-17 3.19189e-17 4.44089e-16 
0 0 2.22045e-16 
-1.38778e-17 -2.60209e-17 0 
2.08167e-17 0 0 
6.93889e-18 0 2.22045e-16 
-2.08167e-17 -1.73472e-17 2.22045e-16 
2.08167e-17 0 0 
0 -6.93889e-18 -1.11022e-16 
6.93889e-18 0 2.22045e-16 
1.38778e-17 0 1.11022e-16 
6.93889e-18 0 2.22045e-16 
0 -6.93889e-18 -1.11022e-16 
0 2.77556e-17 1.11022e-16 
2.77556e-17 -2.77556e-17 2.22045e-16 
2.77556e-17 -2.77556e-17 2.22045e-16 
4.16334e-17 4.33681e-18 2.22045e-16 
0 -6.93889e-18 -1.11022e-16 
3.46945e-17 -1.38778e-17 1.11022e-16 
2.77556e-17 0 -1.11022e-16 
0 6.93889e-18 0 
-1.38778e-17 -2.77556e-17 0 
-2.77556e-17 -2.64545e-17 1.11022e-16 
-2.08167e-17 -6.93889e-18 1.11022e-16 
2.08167e-17 0 0 
0 -1.38778e-17 -2.22045e-16 
0 0 2.22045e-16 
-2.08167e-17 -6.93889e-18 1.11022e-16 
0 6.93889e-18 0 
2.08167e-17 0 0 
1.69136e-17 1.73472e-17 2.49366e-16 
2.08167e-17 0 0 
0 6.93889e-18 0 
0 -6.93889e-18 -1.11022e-16 
1.38778e-17 0 1.11022e-16 
0 -1.38778e-17 -2.22045e-16 
-3.46945e-18 4.16334e-17 -2.22045e-16 
-1.38778e-17 -2.60209e-17 0 
1.38778e-17 1.38778e-17 2.22045e-16 
-3.46945e-17 0 -1.11022e-16 
-1.38778e-17 -2.60209e-17 0 
6.93889e-18 0 2.22045e-16 
4.96131e-17 -1.83881e-17 2.22045e-16 
3.95517e-17 -9.71445e-18 0 
1.38778e-17 0 -3.33067e-16 
2.77556e-17 -3.46945e-17 2.22045e-16 
0 4.16334e-17 1.66533e-16 
0 4.16334e-17 0 
-1.38778e-17 -2.60209e-17 0 
-3.46945e-17 0 -1.11022e-16 
4.96131e-17 -1.83881e-17 2.22045e-16 
1.38778e-17 1.38778e-17 1.11022e-16 
-2.08167e-17 1.91904e-17 -1.11022e-16 
3.46945e-17 2.08167e-17 -4.44089e-16 
-5.55112e-17 0 -5.55112e-17 
0 -1.38778e-17 -2.22045e-16 
-1.38778e-17 -2.60209e-17 0 
2.08167e-17 0 0 
1.38778e-17 1.38778e-17 2.22045e-16 
6.93889e-18 0 2.22045e-16 
0 2.77556e-17 1.11022e-16 
-2.77556e-17 -2.08167e-17 0 
-3.46945e-18 4.16334e-17 -2.22045e-16 
0 -1.38778e-17 -2.22045e-16 
2.08167e-17 0 0 
-1.38778e-17 -2.60209e-17 0 
-3.46945e-18 4.16334e-17 -2.22045e-16 
-3.19189e-17 2.63678e-17 2.77556e-17 
-3.19189e-17 -3.51752e-17 -5.55112e-17 
5.20417e-18 0 -4.44089e-16 
-3.46945e-18 4.16334e-17 -2.22045e-16 
0 6.93889e-18 0 
-2.08167e-17 -6.93889e-18 1.11022e-16 
0 0 0 
1.38778e-17 -4.16334e-17 2.22045e-16 
-2.08167e-17 -6.93889e-18 1.11022e-16 
1.69136e-17 1.73472e-17 2.49366e-16 
2.08167e-17 0 0 
0 0 2.22045e-16 
-2.08167e-17 -1.73472e-17 2.22045e-16 
4.96131e-17 -1.83881e-17 2.22045e-16 
-1.38778e-17 -2.60209e-17 0 
-3.46945e-18 4.16334e-17 -2.22045e-16 
0 -6.93889e-18 -1.11022e-16 
8.67362e-18 2.77556e-17 0 
0 2.77556e-17 1.11022e-16 
3.46945e-17 -1.38778e-17 1.11022e-16 
5.89789e-18 5.20417e-17 -3.67721e-11 
1.38778e-17 2.77556e-17 0 
-8.32667e-17 -3.46945e-17 0 
-1.38778e-17 -2.77556e-17 -5.55112e-17 
5.27356e-17 -1.21431e-17 -2.77556e-16 
-2.70617e-17 -1.56125e-17 2.22045e-16 
2.77556e-18 2.63678e-17 -5.55112e-17 
-2.77556e-17 -2.64545e-17 1.11022e-16 
0 6.93889e-18 0 
2.77556e-17 0 -1.11022e-16 
0 -6.93889e-18 -1.11022e-16 
4.16334e-17 4.33681e-18 2.22045e-16 
-1.38778e-17 3.46945e-17 2.22045e-16 
-3.46945e-18 4.16334e-17 -2.22045e-16 
-1.66533e-17 -6.93889e-18 9.4369e-16 
1.38778e-17 1.38778e-17 2.22045e-16 
0 -6.93889e-18 -1.11022e-16 
2.77556e-17 0 -1.11022e-16 
8.67362e-18 2.77556e-17 0 
3.46945e-17 -1.38778e-17 1.11022e-16 
-2.08167e-17 1.91904e-17 -1.11022e-16 
3.46945e-18 -5.20417e-18 -0.00606827 
-1.21431e-17 -1.0842e-18 1.11022e-16 
1.38778e-17 -2.08167e-17 0 
0 -1.38778e-17 -2.22045e-16 
2.08167e-17 0 0 
-3.46945e-18 4.16334e-17 -2.22045e-16 
0 0 2.22045e-16 
-1.38778e-17 -2.77556e-17 0 
0 6.93889e-18 0 
0 0 0 
-2.77556e-17 -2.64545e-17 1.11022e-16 
0 -6.93889e-18 -1.11022e-16 
4.16334e-17 4.33681e-18 2.22045e-16 
2.77556e-17 0 -1.11022e-16 
3.46945e-17 -1.38778e-17 1.11022e-16 
2.08167e-17 0 0 
1.38778e-17 0 1.11022e-16 
6.93889e-18 0 2.22045e-16 
-2.08167e-17 -1.73472e-17 2.22045e-16 
-6.93889e-18 -5.20417e-18 -0.00606827 
0 2.77556e-17 0 
0 0 -5.55112e-17 
2.77556e-17 -2.77556e-17 1.66533e-16 
-1.38778e-17 -2.60209e-17 0 
-2.08167e-17 -1.73472e-17 2.22045e-16 
6.93889e-18 0 2.22045e-16 
4.96131e-17 -1.83881e-17 2.22045e-16 
-3.22659e-17 4.34548e-17 4.44089e-16 
0 -2.25514e-17 -1.11022e-16 
0 2.77556e-17 0 
-3.46945e-17 -1.38778e-17 9.71445e-17 
2.08167e-17 0 0 
-2.08167e-17 -1.73472e-17 2.22045e-16 
-1.38778e-17 -2.60209e-17 0 
-3.46945e-18 4.16334e-17 -2.22045e-16 
6.93889e-18 0 2.22045e-16 
1.38778e-17 0 1.11022e-16 
0 -6.93889e-18 -1.11022e-16 
2.77556e-17 -2.77556e-17 2.22045e-16 
-3.46945e-17 -1.38778e-17 9.71445e-17 
8.67362e-18 -6.93889e-18 -0.00399973 
-6.93889e-18 -5.20417e-18 -0.00606827 
2.77556e-17 4.51028e-17 -1.11022e-16 
1.249e-17 -2.11636e-17 1.94289e-16 
7.63278e-18 5.55112e-18 1.38778e-17 
-2.77556e-17 1.38778e-17 -1.11022e-16 
3.46945e-17 -1.38778e-17 1.11022e-16 
-1.38778e-17 -5.20417e-18 -5.55112e-17 
1.73472e-18 0 -0.00606827 
0 0 0 
0 -1.38778e-17 -2.22045e-16 
4.16334e-17 1.38778e-17 0 
-9.1073e-18 6.93889e-18 -0.00606834 
0 5.20417e-18 -0.00400098 
1.38778e-17 2.77556e-17 0 
2.77556e-17 1.94289e-17 0 
1.38778e-17 0 -3.33067e-16 
4.16334e-17 1.38778e-17 0 
-5.55112e-17 5.55112e-17 -6.66134e-16 
1.69136e-17 1.73472e-17 2.49366e-16 
-3.46945e-18 4.16334e-17 -2.22045e-16 
2.08167e-17 0 0 
0 0 2.22045e-16 
2.08167e-17 0 0 
1.69136e-17 1.73472e-17 2.49366e-16 
-2.08167e-17 -1.73472e-17 2.22045e-16 
-3.46945e-18 4.16334e-17 -2.22045e-16 
2.08167e-17 0 0 
2.77556e-17 2.77556e-17 0 
0 -1.38778e-17 -2.22045e-16 
1.38778e-17 1.38778e-17 2.22045e-16 
3.46945e-17 2.08167e-17 -4.44089e-16 
4.16334e-17 -1.38778e-17 -1.11022e-16 
1.11022e-16 1.38778e-17 8.88178e-16 
-1.21431e-17 -1.0842e-18 1.11022e-16 
-1.38778e-17 3.46945e-17 2.22045e-16 
3.1225e-17 3.46945e-17 0 
-1.66533e-17 -6.93889e-18 9.4369e-16 
-3.46945e-18 4.16334e-17 -2.22045e-16 
6.93889e-18 0 2.22045e-16 
2.77556e-17 -2.77556e-17 2.22045e-16 
0 2.77556e-17 1.11022e-16 
-3.46945e-18 4.16334e-17 -2.22045e-16 
0 6.93889e-18 0 
4.16334e-17 4.33681e-18 2.22045e-16 
1.69136e-17 1.73472e-17 2.49366e-16 
1.38778e-17 -4.16334e-17 2.22045e-16 
2.29004e-17 5.55654e-18 -2.22045e-16 
-4.85723e-17 0 0 
0 -2.25514e-17 -1.11022e-16 
2.77556e-17 -2.77556e-17 1.66533e-16 
-3.46945e-17 2.77556e-17 -1.24791e-06 
1.24899e-17 -2.77556e-17 -7.39537e-08 
0 -1.38778e-17 -2.22045e-16 
0 0 1.33227e-15 
-2.77556e-17 -3.46945e-18 -1.66533e-16 
4.77049e-18 6.93889e-18 -0.00318456 
0 -3.46945e-18 -0.0031856 
6.93889e-18 4.16334e-17 0 
-2.08167e-17 -6.93889e-18 1.11022e-16 
1.38778e-17 -4.16334e-17 2.22045e-16 
1.69136e-17 1.73472e-17 2.49366e-16 
0 0 2.22045e-16 
-2.77556e-17 5.55112e-17 -4.44089e-16 
-4.16334e-18 2.498e-17 0 
1.24899e-17 -2.77556e-17 -7.39537e-08 
1.32273e-17 -1.60462e-17 1.38778e-16 
0 -6.93889e-18 0 
3.46945e-18 -5.20417e-18 -0.00606827 
0 -5.20417e-18 -0.00399973 
1.38778e-17 1.38778e-17 1.11022e-16 
2.42861e-17 -6.93889e-18 1.65983e-06 
-3.46945e-17 2.77556e-17 -1.24791e-06 
-2.77556e-17 -2.77556e-17 1.11022e-16 
2.32426e-17 1.587e-17 -8.88178e-16 
-3.29597e-17 -1.73472e-17 -2.08167e-16 
2.29004e-17 5.55654e-18 -2.22045e-16 
-4.16334e-17 -3.60904e-17 -8.88178e-16 
-2.1684e-18 -2.77556e-17 -6.66134e-16 
0 6.93889e-18 -5.55112e-17 
3.46945e-18 -6.93889e-18 -0.00318585 
3.46945e-18 -1.73472e-18 -0.00318734 
-4.16334e-17 1.38778e-17 0 
2.49793e-17 -1.38575e-18 1.4802e-06 
-2.22044e-17 1.34441e-17 7.6836e-08 
0 6.93889e-18 -5.55112e-17 
2.16705e-17 1.49078e-17 8.88178e-16 
0 -1.38778e-17 -2.22045e-16 
0 0 2.22045e-16 
-3.46945e-18 4.16334e-17 -2.22045e-16 
1.38778e-17 1.38778e-17 2.22045e-16 
1.32273e-17 -1.60462e-17 1.38778e-16 
6.93889e-18 1.38778e-17 -0.00399973 
1.73472e-18 0 -0.00606827 
0 -2.08167e-17 -1.11022e-16 
-1.38778e-17 -1.38778e-17 5.52136e-12 
5.89789e-18 5.20417e-17 -3.67721e-11 
-8.32667e-17 -3.46945e-17 0 
-1.38778e-17 -2.77556e-17 -5.55112e-17 
-8.67362e-19 -6.93889e-18 -0.00318586 
-3.03577e-18 0 -0.00318586 
-2.77556e-17 0 -1.11022e-16 
6.93889e-18 2.08167e-17 -1.80411e-16 
1.04083e-16 -5.55112e-17 1.77636e-15 
-2.22044e-17 1.34441e-17 7.6836e-08 
6.93889e-18 0 -2.77556e-17 
5.55112e-18 -1.43115e-17 -1.38778e-16 
-4.69131e-18 -1.36761e-17 -1.11022e-16 
3.1225e-17 3.46945e-17 0 
-1.38778e-17 3.46945e-17 2.22045e-16 
-3.46945e-18 4.16334e-17 -2.22045e-16 
1.9082e-17 4.16334e-17 3.33067e-16 
-3.19189e-17 -3.51752e-17 -5.55112e-17 
-3.19189e-17 2.63678e-17 2.77556e-17 
-3.46945e-18 4.16334e-17 -2.22045e-16 
-9.1073e-18 6.93889e-18 -0.00606834 
3.46945e-18 3.46945e-18 -0.00399973 
-6.93889e-18 6.93889e-18 -1.11022e-16 
0 4.16334e-17 1.66533e-16 
0 1.38778e-17 -1.11022e-16 
-2.1684e-18 -2.77556e-17 -6.66134e-16 
-5.55112e-17 -7.97973e-17 4.44089e-16 
-1.38778e-17 -1.38778e-17 5.52136e-12 
0 3.46945e-18 -0.00318586 
-6.93889e-18 4.22839e-18 -0.00318586 
-6.93889e-18 -1.38778e-17 -1.11022e-16 
1.38778e-17 -1.9082e-17 0 
6.93889e-18 0 -2.22045e-16 
5.20417e-18 -3.46945e-18 -0.00318618 
3.46945e-18 0 -0.00318533 
-2.77556e-17 6.93889e-18 0 
-6.93889e-18 -1.73472e-18 -0.00399973 
1.38778e-17 -1.73472e-18 -0.00318742 
0 2.08167e-17 -1.11022e-16 
2.77556e-17 -1.38778e-17 1.11022e-16 
-1.66533e-17 -6.93889e-18 9.4369e-16 
2.91434e-17 -2.79488e-17 4.16334e-17 
-1.62386e-17 9.78066e-19 -4.85723e-17 
1.38778e-17 1.38778e-17 2.22045e-16 
2.49793e-17 -1.38575e-18 1.4802e-06 
0 2.77556e-17 -4.44089e-16 
1.87349e-17 -1.38778e-17 -1.29814e-06 
5.55112e-17 -5.55112e-17 -4.44089e-16 
-4.1674e-18 4.16063e-18 5.07108e-07 
2.08167e-17 2.64537e-17 -4.38529e-07 
9.1073e-18 -2.68882e-17 -6.93889e-18 
2.77556e-17 -1.9082e-17 8.88178e-16 
0 6.93889e-18 0 
-2.77556e-17 -2.64545e-17 1.11022e-16 
4.16334e-17 4.33681e-18 2.22045e-16 
1.38778e-17 -4.16334e-17 2.22045e-16 
-4.16232e-18 4.98733e-17 -5.93666e-08 
0 1.38778e-17 2.49847e-07 
-4.16334e-17 1.38778e-17 -1.66533e-16 
3.46945e-17 -5.55112e-17 -2.22045e-16 
0 -3.46945e-18 6.66134e-16 
0 0 -2.59793e-07 
-4.16334e-18 2.498e-17 0 
-1.38778e-17 -1.38778e-17 1.66533e-16 
-2.77556e-17 -3.46945e-18 -1.66533e-16 
0 0 -2.59793e-07 
1.87349e-17 -1.38778e-17 -1.29814e-06 
1.71711e-17 9.96585e-17 -4.44089e-16 
0 5.20417e-18 -0.00400098 
0 -8.67362e-19 -0.00318404 
-1.38778e-17 0 1.11022e-16 
0 2.77556e-17 0 
-1.38778e-17 4.16334e-17 -1.11022e-16 
3.46945e-18 3.46945e-18 -0.00318586 
0 0 -0.00399973 
-3.29597e-17 -1.73472e-17 -2.08167e-16 
1.38778e-17 1.38778e-17 1.11022e-16 
3.46945e-17 2.08167e-17 -4.44089e-16 
0 -4.16334e-17 2.22045e-16 
-5.55112e-17 0 -5.55112e-17 
-3.46945e-18 3.46945e-18 -0.00318456 
6.93889e-18 0 -0.00318581 
-1.73472e-17 0 2.22045e-16 
2.77556e-17 2.08167e-17 0 
-3.46945e-18 3.46945e-17 0 
-3.46945e-18 -6.93889e-18 -0.00318586 
0 -6.50521e-19 -0.00318586 
9.1073e-18 -2.68882e-17 -6.93889e-18 
1.38778e-17 6.93889e-18 1.11022e-16 
-2.77556e-17 5.55112e-17 1.33227e-15 
-9.71716e-18 -1.66493e-17 -4.16197e-10 
0 -2.77556e-17 -5.55112e-17 
0 3.46945e-18 -0.00318586 
-8.67362e-19 -6.93889e-18 -0.00318586 
2.08167e-17 2.77556e-17 -1.11022e-16 
-4.16334e-17 1.38778e-17 -1.66533e-16 
-1.17961e-17 0 -5.25782e-07 
1.2837e-17 3.40006e-17 0 
-1.38778e-17 -1.73472e-17 1.11022e-15 
-2.08167e-17 -2.08167e-17 -1.66533e-16 
-2.77556e-17 -4.85723e-17 -1.11022e-16 
-3.03577e-18 0 -0.00318586 
4.33681e-18 -6.93889e-18 -0.00399973 
-2.77556e-17 -2.77556e-17 1.11022e-16 
0 6.93889e-18 0 
0 0 0 
-2.77556e-17 -2.64545e-17 1.11022e-16 
1.38778e-17 -4.16334e-17 2.22045e-16 
0 -4.16334e-17 2.22045e-16 
-4.1674e-18 4.16063e-18 5.07108e-07 
-1.38778e-17 -6.93889e-18 -8.32667e-17 
-8.32667e-17 0 0 
-1.21431e-17 -1.0842e-18 1.11022e-16 
3.46945e-18 -5.20417e-18 -0.00606827 
-6.93889e-18 -1.73472e-18 -0.00399973 
1.38778e-17 -2.08167e-17 0 
5.55112e-17 5.55112e-17 1.33227e-15 
-3.46945e-18 0 -1.29851e-06 
2.42861e-17 -2.77556e-17 -4.87734e-08 
-1.73472e-17 0 2.22045e-16 
-1.38778e-17 -5.20417e-18 -5.55112e-17 
4.33681e-18 -6.93889e-18 -0.00399973 
1.73472e-18 0 -0.00606827 
0 -1.38778e-17 -2.22045e-16 
1.38778e-17 0 -3.33067e-16 
3.95517e-17 -9.71445e-18 0 
1.38778e-17 6.93889e-18 1.11022e-16 
0 4.16334e-17 1.66533e-16 
-3.22659e-17 4.34548e-17 4.44089e-16 
1.2837e-17 3.40006e-17 0 
0 -2.25514e-17 -1.11022e-16 
-3.46945e-17 -1.38778e-17 9.71445e-17 
2.77556e-17 1.94289e-17 0 
-1.38778e-17 0 1.11022e-16 
5.55112e-18 -1.43115e-17 -1.38778e-16 
1.38778e-17 -5.55112e-17 0 
-1.31839e-17 1.66533e-17 -7.63278e-17 
1.04083e-17 -2.77556e-17 0 
7.11237e-18 3.45312e-17 -1.11022e-16 
0 0 2.22045e-16 
2.77556e-17 1.38778e-17 4.44089e-16 
1.94275e-17 5.55654e-18 1.55696e-06 
-3.46945e-18 0 -1.29851e-06 
0 -3.46945e-17 -2.77556e-16 
1.38778e-17 -1.9082e-17 0 
5.55112e-17 8.32667e-17 -1.11022e-16 
-9.71716e-18 -1.66493e-17 -4.16197e-10 
3.46945e-17 0 4.47447e-10 
-5.55112e-17 0 -2.22045e-16 
2.42861e-17 -2.77556e-17 -4.87734e-08 
-1.38778e-17 -2.08167e-17 3.1509e-07 
-1.38778e-17 1.73472e-18 1.11022e-16 
-1.38778e-17 -2.77556e-17 -5.55112e-17 
1.38778e-17 -1.21431e-17 -0.00318586 
4.33681e-18 0 -0.00318586 
0 -6.93889e-18 0 
3.46945e-18 0 -0.00318533 
8.67362e-18 -6.93889e-18 -0.00399973 
-2.08167e-17 -2.08167e-17 -1.66533e-16 
-2.77556e-17 0 -1.11022e-16 
0 0 -5.55112e-17 
0 0 -0.00399973 
-6.93889e-18 -5.20417e-18 -0.00606827 
2.77556e-17 -2.77556e-17 1.66533e-16 
4.16334e-17 0 -1.11022e-16 
0 -6.50521e-19 -0.00318586 
0 3.46945e-18 -0.00318586 
-6.93889e-18 -1.38778e-17 -1.11022e-16 
3.46945e-18 3.46945e-18 -0.00399973 
0 3.46945e-18 -0.00318586 
0 0 -1.11022e-16 
0 -2.77556e-17 -5.55112e-17 
0 -3.46945e-18 -0.0031856 
6.93889e-18 1.38778e-17 -0.00399973 
-1.38778e-17 -1.38778e-17 1.66533e-16 
1.73472e-17 2.77556e-17 0 
1.38778e-17 0 1.11022e-16 
-2.08167e-17 -1.73472e-17 2.22045e-16 
2.08167e-17 0 0 
1.69136e-17 1.73472e-17 2.49366e-16 
0 -5.20417e-18 -0.00399973 
-3.46945e-18 -6.93889e-18 -0.00318586 
6.93889e-18 -1.38778e-17 -2.22045e-16 
-1.38778e-17 -6.93889e-18 -8.32667e-17 
5.89789e-18 5.20417e-17 -3.67721e-11 
1.38778e-17 2.77556e-17 0 
-6.93889e-18 -3.46945e-18 -1.11022e-16 
3.46945e-17 0 4.47447e-10 
-2.77556e-17 -5.55112e-17 2.22045e-16 
4.16334e-17 -1.38778e-17 -1.11022e-16 
1.94275e-17 5.55654e-18 1.55696e-06 
0 2.08167e-17 -1.11022e-16 
-2.77556e-17 2.77556e-17 -2.22045e-16 
1.38778e-17 -1.21431e-17 -0.00318586 
3.46945e-18 3.46945e-18 -0.00318586 
0 1.38778e-17 -1.11022e-16 
-1.38778e-17 1.73472e-18 1.11022e-16 
6.93889e-18 0 -0.00318581 
5.20417e-18 -3.46945e-18 -0.00318618 
4.16334e-17 5.55112e-17 -2.22045e-16 
-1.38778e-17 -2.08167e-17 3.1509e-07 
-1.17961e-17 0 -5.25782e-07 
1.63064e-17 -2.75819e-17 6.66134e-16 
6.93889e-18 0 -2.22045e-16 
-6.93889e-18 -3.46945e-18 -1.11022e-16 
4.33681e-18 0 -0.00318586 
-6.93889e-18 4.22839e-18 -0.00318586 
-1.38778e-17 1.38778e-17 -5.55112e-17 
6.93889e-18 2.08167e-17 -1.80411e-16 
0 1.38778e-17 2.49847e-07 
2.42861e-17 -6.93889e-18 1.65983e-06 
-9.71445e-17 -5.55112e-17 6.66134e-16 
2.77556e-17 1.38778e-17 0 
4.77049e-18 6.93889e-18 -0.00318456 
3.46945e-18 -1.73472e-18 -0.00318734 
0 2.77556e-17 -4.44089e-16 
6.93889e-18 0 -2.77556e-17 
0 -8.67362e-19 -0.00318404 
3.46945e-18 -6.93889e-18 -0.00318585 
6.93889e-18 2.77556e-17 5.55112e-17 
-6.93889e-18 -1.38778e-17 -1.11022e-16 
2.08167e-17 2.64537e-17 -4.38529e-07 
-4.16232e-18 4.98733e-17 -5.93666e-08 
0 0 -4.44089e-16 
1.38778e-17 -1.73472e-18 -0.00318742 
-3.46945e-18 3.46945e-18 -0.00318456 
0 -3.46945e-17 -2.77556e-16 
6.93889e-18 2.77556e-17 -1.11022e-16 
1.38778e-17 2.77556e-17 2.22045e-16 
2.77556e-17 -2.77556e-17 7.77156e-16 
1.38778e-17 0 -1.11022e-16 
3.1225e-17 2.08167e-17 3.33067e-16 
1.38778e-17 2.77556e-17 2.22045e-16 
1.38778e-17 0 -1.11022e-16 
2.77556e-17 -2.77556e-17 7.77156e-16 
2.77556e-17 0 -1.11022e-16 
1.73472e-17 2.77556e-17 -1.11022e-16 
2.77556e-17 -5.55112e-17 -4.44089e-16 
-2.08167e-17 -1.38778e-17 1.11022e-16 
2.77556e-17 2.77556e-17 0 
-2.08167e-17 -1.38778e-17 1.11022e-16 
2.77556e-17 -5.55112e-17 -4.44089e-16 
1.73472e-17 2.77556e-17 -1.11022e-16 
1.38778e-17 -5.55112e-17 -8.88178e-16 
-1.38778e-17 4.85723e-17 2.22045e-16 
-1.38778e-17 0 -1.11022e-16 
1.38778e-17 0 -1.11022e-16 
0 -2.77556e-17 0 
-1.38778e-17 4.85723e-17 2.22045e-16 
1.38778e-17 0 -1.11022e-16 
-1.38778e-17 0 -1.11022e-16 
0 -1.38778e-17 1.11022e-16 
0 0 0 
2.85145e-17 2.77556e-17 6.66134e-16 
0 2.08167e-17 -2.22045e-16 
1.38778e-17 -4.77049e-18 1.11022e-16 
0 2.08167e-17 -2.22045e-16 
2.85145e-17 2.77556e-17 6.66134e-16 
0 0 0 
2.77556e-17 -3.1225e-17 6.66134e-16 
1.38778e-17 1.38778e-17 2.22045e-16 
-1.38778e-17 3.46945e-17 2.22045e-16 
8.32667e-17 -4.16334e-17 4.44089e-16 
-1.62386e-17 9.78066e-19 -4.85723e-17 
1.38778e-17 1.38778e-17 2.22045e-16 
8.32667e-17 -4.16334e-17 4.44089e-16 
-1.38778e-17 3.46945e-17 2.22045e-16 
-3.46945e-18 4.16334e-17 -2.22045e-16 
1.38778e-17 1.38778e-17 2.22045e-16 
1.38778e-17 5.55112e-17 -4.44089e-16 
8.32667e-17 -4.16334e-17 4.44089e-16 
2.08167e-17 0 0 
1.38778e-17 1.38778e-17 2.22045e-16 
8.32667e-17 -4.16334e-17 4.44089e-16 
1.38778e-17 5.55112e-17 -4.44089e-16 
-1.62386e-17 9.78066e-19 -4.85723e-17 
0 -6.93889e-18 0 
1.38778e-17 2.77556e-17 -8.88178e-16 
2.77556e-17 7.28584e-17 0 
-8.32667e-17 -3.46945e-17 0 
0 -6.93889e-18 0 
2.77556e-17 7.28584e-17 0 
1.38778e-17 2.77556e-17 -8.88178e-16 
2.77556e-17 -1.38778e-17 0 
-1.38778e-17 1.38778e-17 -1.11022e-16 
0 1.73472e-17 4.44089e-16 
0 1.38778e-17 -1.11022e-16 
5.55112e-17 -1.11022e-16 -2.22045e-16 
-1.38778e-17 1.38778e-17 -1.11022e-16 
0 1.38778e-17 -1.11022e-16 
0 1.73472e-17 4.44089e-16 
0 -2.08167e-17 2.22045e-16 
-4.16334e-17 0 0 
2.85145e-17 2.77556e-17 6.66134e-16 
0 0 0 
1.38778e-17 -4.77049e-18 1.11022e-16 
0 0 0 
2.85145e-17 2.77556e-17 6.66134e-16 
-4.16334e-17 0 0 
6.85216e-18 -1.63498e-17 -3.33067e-16 
-3.46945e-18 4.16334e-17 -2.22045e-16 
0 6.93889e-18 -1.11022e-16 
0 0 4.44089e-16 
2.77556e-17 -2.77556e-17 2.22045e-16 
-3.46945e-18 4.16334e-17 -2.22045e-16 
0 0 4.44089e-16 
0 6.93889e-18 -1.11022e-16 
-3.19189e-17 -3.51752e-17 -5.55112e-17 
1.21431e-17 -3.46945e-17 8.88178e-16 
0 0 2.22045e-16 
-1.38778e-17 0 -1.11022e-16 
7.11237e-18 3.45312e-17 -1.11022e-16 
-1.38778e-17 0 -1.11022e-16 
0 0 2.22045e-16 
1.21431e-17 -3.46945e-17 8.88178e-16 
1.69136e-17 1.73472e-17 2.49366e-16 
3.95517e-17 -9.71445e-18 0 
0 0 -1.11022e-16 
0 5.55112e-17 0 
-2.77556e-17 5.55112e-17 1.33227e-15 
0 5.55112e-17 0 
0 0 -1.11022e-16 
3.95517e-17 -9.71445e-18 0 
-6.93889e-18 6.93889e-18 -1.11022e-16 
-2.77556e-17 -5.55112e-17 -4.44089e-16 
0 0 -1.11022e-16 
-2.77556e-17 1.38778e-17 -3.33067e-16 
5.55112e-17 -2.77556e-17 1.11022e-16 
-2.77556e-17 1.38778e-17 -3.33067e-16 
0 0 -1.11022e-16 
-2.77556e-17 -5.55112e-17 -4.44089e-16 
-1.66533e-17 2.35922e-17 0 
1.38778e-17 0 1.11022e-16 
4.16334e-17 4.33681e-18 2.22045e-16 
-6.93889e-18 -1.38778e-17 0 
1.69136e-17 1.73472e-17 2.49366e-16 
2.25514e-17 1.38778e-17 0 
-3.46945e-18 4.16334e-17 -2.22045e-16 
3.05311e-17 2.25514e-17 -3.33067e-16 
-4.69131e-18 -1.36761e-17 -1.11022e-16 
3.05311e-17 2.25514e-17 -3.33067e-16 
-3.46945e-18 4.16334e-17 -2.22045e-16 
2.25514e-17 1.38778e-17 0 
-2.08167e-17 -1.73472e-17 2.22045e-16 
1.38778e-17 -4.16334e-17 2.22045e-16 
2.77556e-17 0 0 
1.69136e-17 1.73472e-17 2.49366e-16 
1.17961e-17 -4.16334e-18 0 
1.38778e-17 -4.16334e-17 2.22045e-16 
1.69136e-17 1.73472e-17 2.49366e-16 
2.77556e-17 0 0 
4.16334e-17 4.33681e-18 2.22045e-16 
-5.55112e-17 0 -5.55112e-17 
1.38778e-17 -2.08167e-17 0 
0 2.77556e-17 2.22045e-16 
0 -6.93889e-18 0 
0 2.77556e-17 2.22045e-16 
1.38778e-17 -2.08167e-17 0 
-5.55112e-17 0 -5.55112e-17 
1.11022e-16 1.38778e-17 8.88178e-16 
-8.32667e-17 0 0 
0 -6.93889e-18 0 
1.38778e-17 1.38778e-17 1.11022e-16 
-5.55112e-17 0 -5.55112e-17 
-8.32667e-17 0 0 
1.38778e-17 1.38778e-17 1.11022e-16 
0 -6.93889e-18 0 
6.93889e-18 -1.38778e-17 -2.22045e-16 
1.38778e-17 1.38778e-17 2.22045e-16 
1.73472e-17 2.77556e-17 0 
-2.77556e-17 5.55112e-17 -4.44089e-16 
-1.12757e-17 -2.77556e-17 0 
-2.77556e-17 5.55112e-17 -4.44089e-16 
1.73472e-17 2.77556e-17 0 
1.38778e-17 1.38778e-17 2.22045e-16 
0 -3.46945e-18 6.66134e-16 
2.77556e-17 -5.55112e-17 -4.44089e-16 
1.38778e-17 1.38778e-17 2.22045e-16 
0 8.32667e-17 3.33067e-16 
2.77556e-17 2.77556e-17 0 
0 8.32667e-17 3.33067e-16 
1.38778e-17 1.38778e-17 2.22045e-16 
2.77556e-17 -5.55112e-17 -4.44089e-16 
2.91434e-17 -2.79488e-17 4.16334e-17 
-2.77556e-17 2.77556e-17 -2.22045e-16 
1.38778e-17 2.77556e-17 -8.88178e-16 
6.58761e-17 4.47559e-17 0 
2.77556e-17 -1.38778e-17 0 
6.58761e-17 4.47559e-17 0 
1.38778e-17 2.77556e-17 -8.88178e-16 
-2.77556e-17 2.77556e-17 -2.22045e-16 
-5.55112e-17 -7.97973e-17 4.44089e-16 
2.77556e-17 -1.38778e-17 1.11022e-16 
-1.21431e-17 -1.0842e-18 1.11022e-16 
-6.93889e-18 -1.73472e-18 -0.00399973 
1.38778e-17 -2.08167e-17 0 
2.77556e-17 -1.38778e-17 1.11022e-16 
-6.93889e-18 -1.73472e-18 -0.00399973 
-1.21431e-17 -1.0842e-18 1.11022e-16 
0 2.08167e-17 -1.11022e-16 
1.38778e-17 -5.55112e-17 0 
-2.77556e-17 0 -1.66533e-16 
-5.55112e-17 0 0 
0 2.77556e-17 0 
1.38778e-17 -5.55112e-17 0 
-5.55112e-17 0 0 
-2.77556e-17 0 -1.66533e-16 
2.77556e-17 2.77556e-17 -2.22045e-16 
-1.38778e-17 0 -1.11022e-16 
-5.55112e-17 0 0 
-2.77556e-17 0 -1.66533e-16 
0 2.77556e-17 0 
-1.38778e-17 0 -1.11022e-16 
-2.77556e-17 0 -1.66533e-16 
-5.55112e-17 0 0 
2.77556e-17 2.77556e-17 -2.22045e-16 
0 -5.55112e-17 -4.44089e-16 
1.71711e-17 9.96585e-17 -4.44089e-16 
0 -2.77556e-17 0 
5.55112e-17 -5.55112e-17 -4.44089e-16 
0 -5.55112e-17 -4.44089e-16 
0 -2.77556e-17 0 
1.71711e-17 9.96585e-17 -4.44089e-16 
6.93889e-18 4.16334e-17 0 
2.77556e-17 1.38778e-17 0 
0 -2.77556e-17 0 
1.71711e-17 9.96585e-17 -4.44089e-16 
5.55112e-17 -5.55112e-17 -4.44089e-16 
2.77556e-17 1.38778e-17 0 
1.71711e-17 9.96585e-17 -4.44089e-16 
0 -2.77556e-17 0 
6.93889e-18 4.16334e-17 0 
-9.71445e-17 -5.55112e-17 6.66134e-16 
2.08167e-17 2.77556e-17 -1.11022e-16 
5.55112e-17 1.56125e-17 0 
-2.77556e-17 0 -1.11022e-16 
5.55112e-17 1.56125e-17 0 
2.08167e-17 2.77556e-17 -1.11022e-16 
-9.71445e-17 -5.55112e-17 6.66134e-16 
3.46945e-17 -5.55112e-17 -2.22045e-16 
-5.55112e-17 -7.97973e-17 4.44089e-16 
-1.38778e-17 4.16334e-17 -1.11022e-16 
-3.29597e-17 -1.73472e-17 -2.08167e-16 
-2.77556e-17 2.77556e-17 -2.22045e-16 
-5.55112e-17 -7.97973e-17 4.44089e-16 
-3.29597e-17 -1.73472e-17 -2.08167e-16 
-1.38778e-17 4.16334e-17 -1.11022e-16 
-4.16334e-17 -3.60904e-17 -8.88178e-16 
4.16334e-17 4.33681e-18 2.22045e-16 
1.80411e-17 2.63678e-17 1.66533e-16 
-6.93889e-18 -1.38778e-17 0 
1.2739e-17 -6.85216e-18 -1.11022e-16 
4.16334e-17 4.33681e-18 2.22045e-16 
-6.93889e-18 -1.38778e-17 0 
1.80411e-17 2.63678e-17 1.66533e-16 
1.38778e-17 0 1.11022e-16 
-4.16334e-17 -3.60904e-17 -8.88178e-16 
0 0 -5.55112e-17 
4.16334e-17 5.55112e-17 0 
-4.85723e-17 0 0 
4.16334e-17 5.55112e-17 0 
0 0 -5.55112e-17 
-4.16334e-17 -3.60904e-17 -8.88178e-16 
-1.38778e-17 4.16334e-17 -1.11022e-16 
4.16334e-17 5.55112e-17 0 
-2.77556e-17 2.77556e-17 -1.11022e-16 
-4.16334e-17 -3.60904e-17 -8.88178e-16 
-4.85723e-17 0 0 
-4.16334e-17 -3.60904e-17 -8.88178e-16 
-2.77556e-17 2.77556e-17 -1.11022e-16 
4.16334e-17 5.55112e-17 0 
-1.38778e-17 4.16334e-17 -1.11022e-16 
0 0 -2.22045e-16 
1.52656e-17 3.98986e-18 4.44089e-16 
0 5.20417e-18 0 
-2.08167e-17 1.38778e-17 -8.88178e-16 
1.11022e-16 1.11022e-16 4.44089e-16 
-3.53016e-17 -1.45229e-17 0 
1.38778e-17 0 -8.88178e-16 
0 0 0 
0 0 4.44089e-16 
-3.19189e-17 -3.51752e-17 -5.55112e-17 
-1.38778e-17 2.77556e-17 -4.44089e-16 
2.77556e-17 0 4.44089e-16 
-2.10335e-17 6.93889e-18 -5.55112e-16 
5.55112e-17 0 -4.44089e-16 
-3.1225e-17 0 8.88178e-16 
-1.38778e-17 0 -4.44089e-16 
5.20417e-18 0 -4.44089e-16 
5.55112e-17 0 -4.44089e-16 
-2.10335e-17 6.93889e-18 -5.55112e-16 
-1.38778e-17 0 -4.44089e-16 
0 5.20417e-18 0 
0 0 -2.22045e-16 
-2.08167e-17 1.38778e-17 -8.88178e-16 
-2.77556e-18 -2.498e-17 1.11022e-16 
0 0 0 
1.52656e-17 3.98986e-18 4.44089e-16 
1.249e-17 -2.11636e-17 1.94289e-16 
0 -2.77556e-17 1.33227e-15 
0 0 4.44089e-16 
-1.38778e-17 2.77556e-17 -4.44089e-16 
3.46945e-18 -8.32667e-18 2.77556e-17 
-1.38778e-17 -5.55112e-17 2.22045e-16 
-5.55112e-18 1.8735e-17 -2.22045e-16 
2.77556e-17 -2.77556e-17 7.77156e-16 
7.63278e-18 5.55112e-18 1.38778e-17 
0 -2.77556e-17 1.33227e-15 
-5.55112e-17 0 4.44089e-16 
0 2.08167e-17 -2.22045e-16 
-2.77556e-17 0 -8.88178e-16 
2.77556e-17 -3.1225e-17 6.66134e-16 
-2.08167e-17 1.38778e-17 -8.88178e-16 
0 0 -2.22045e-16 
1.52656e-17 3.98986e-18 4.44089e-16 
5.20417e-17 1.11022e-16 8.88178e-16 
-4.16334e-17 1.04083e-17 -2.22045e-16 
5.55112e-17 2.77556e-17 2.22045e-16 
-1.94289e-17 -3.46945e-19 4.44089e-16 
4.16334e-17 -6.93889e-17 3.33067e-16 
0 0 4.44089e-16 
-2.08167e-17 1.11022e-16 3.33067e-16 
-1.38778e-17 2.77556e-17 -4.44089e-16 
-1.38778e-17 -5.55112e-17 2.22045e-16 
-1.52656e-17 1.11022e-17 2.22045e-16 
2.77556e-17 -2.77556e-17 7.77156e-16 
-3.46945e-17 5.55112e-17 -5.55112e-16 
3.1225e-17 2.08167e-17 3.33067e-16 
-2.77556e-17 0 -8.88178e-16 
5.55112e-17 2.77556e-17 2.22045e-16 
-4.16334e-17 1.04083e-17 -2.22045e-16 
4.16334e-17 -6.93889e-17 3.33067e-16 
2.77556e-17 -2.77556e-17 7.77156e-16 
6.93889e-17 0 0 
1.11022e-16 0 -1.11022e-16 
-5.55112e-18 1.8735e-17 -2.22045e-16 
-4.02456e-17 3.19189e-17 4.44089e-16 
-1.94289e-17 -3.46945e-19 4.44089e-16 
5.55112e-17 2.77556e-17 2.22045e-16 
3.46945e-17 6.93889e-18 -1.11022e-16 
1.38778e-17 5.55112e-17 -4.44089e-16 
2.77556e-17 0 8.88178e-16 
-1.9082e-17 -5.18249e-17 4.44089e-16 
2.77556e-17 4.16334e-17 1.33227e-15 
-3.1225e-17 0 8.88178e-16 
5.55112e-17 0 -4.44089e-16 
6.93889e-18 -2.77556e-17 0 
3.46945e-17 -6.93889e-17 2.22045e-16 
2.98372e-17 2.84495e-17 0 
8.32667e-17 -4.16334e-17 4.44089e-16 
2.28983e-17 -1.38778e-18 4.996e-16 
-8.67362e-18 -4.16334e-17 -6.66134e-16 
3.46945e-17 6.93889e-18 -1.11022e-16 
5.55112e-17 2.77556e-17 2.22045e-16 
-4.02456e-17 3.19189e-17 4.44089e-16 
0 -1.38778e-17 4.44089e-16 
5.20417e-18 0 -4.44089e-16 
-1.38778e-17 0 -4.44089e-16 
-2.10335e-17 6.93889e-18 -5.55112e-16 
-8.67362e-18 -4.16334e-17 -6.66134e-16 
0 0 -2.22045e-16 
0 5.20417e-18 0 
1.52656e-17 3.98986e-18 4.44089e-16 
0 -2.77556e-17 1.33227e-15 
1.11022e-17 -7.70372e-34 0 
0 1.38778e-17 0 
8.32667e-17 0 7.77156e-16 
1.38778e-18 1.38778e-17 -5.55112e-16 
-5.55112e-17 3.46945e-18 6.66134e-16 
8.32667e-17 0 7.77156e-16 
0 -1.66533e-17 8.88178e-16 
-8.32667e-17 5.55112e-17 3.33067e-16 
-2.77556e-17 1.52656e-17 8.88178e-16 
-6.93889e-17 -4.16334e-17 5.55112e-16 
2.34749e-17 1.249e-17 4.44089e-16 
-5.31693e-17 6.53991e-17 2.22045e-16 
-2.77556e-17 0 0 
-2.10335e-17 6.93889e-18 -5.55112e-16 
-3.1225e-17 0 8.88178e-16 
-1.38778e-17 0 -4.44089e-16 
-3.19189e-17 2.63678e-17 2.77556e-17 
-2.77556e-17 1.52656e-17 8.88178e-16 
5.55112e-17 0 -4.44089e-16 
2.77556e-17 0 4.44089e-16 
-1.52656e-17 1.11022e-17 2.22045e-16 
-3.46945e-17 5.55112e-17 -5.55112e-16 
2.77556e-17 -2.77556e-17 7.77156e-16 
0 5.55112e-17 4.44089e-16 
-2.77556e-17 1.52656e-17 8.88178e-16 
5.20417e-17 1.11022e-16 8.88178e-16 
-6.93889e-17 -4.16334e-17 5.55112e-16 
2.77556e-17 0 4.44089e-16 
-1.38778e-17 2.77556e-17 0 
0 2.08167e-17 5.55112e-16 
8.32667e-17 -2.91434e-17 -7.77156e-16 
6.58761e-17 4.47559e-17 0 
-2.70617e-17 -1.56125e-17 2.22045e-16 
0 5.55112e-17 4.44089e-16 
6.93889e-17 0 0 
-1.38778e-16 -1.38778e-17 9.99201e-16 
-1.94289e-17 -3.46945e-19 4.44089e-16 
1.37043e-17 4.02673e-17 4.44089e-16 
-1.38778e-17 4.85723e-17 2.22045e-16 
3.46945e-17 6.93889e-18 -1.11022e-16 
-1.38778e-17 2.77556e-17 0 
4.85723e-17 0 -8.88178e-16 
2.77556e-17 -2.77556e-17 0 
3.1225e-17 2.08167e-17 3.33067e-16 
3.46945e-17 6.93889e-18 -1.11022e-16 
-4.02456e-17 3.19189e-17 4.44089e-16 
0 8.32667e-17 3.33067e-16 
-1.11022e-16 2.77556e-17 1.77636e-15 
0 -1.66533e-17 8.88178e-16 
8.32667e-17 0 7.77156e-16 
0 1.38778e-17 0 
-8.32667e-17 -4.16334e-17 1.55431e-15 
-3.53016e-17 -1.45229e-17 0 
1.38778e-17 0 5.55112e-17 
4.85723e-17 0 -8.88178e-16 
2.77556e-17 -2.77556e-17 0 
7.28584e-18 -6.07153e-18 1.11022e-16 
1.38778e-17 -6.93889e-18 2.22045e-16 
0 0 4.44089e-16 
-1.38778e-17 -5.55112e-17 2.22045e-16 
-2.08167e-17 1.11022e-16 3.33067e-16 
0 0 4.44089e-16 
-1.38778e-17 2.77556e-17 -4.44089e-16 
2.77556e-17 0 4.44089e-16 
-1.9082e-17 -5.18249e-17 4.44089e-16 
-1.62386e-17 9.78066e-19 -4.85723e-17 
1.38778e-17 5.55112e-17 -4.44089e-16 
-1.11022e-16 2.77556e-17 1.77636e-15 
-2.63678e-17 -4.02456e-17 1.33227e-15 
2.77556e-17 5.55112e-17 -6.66134e-16 
0 2.77556e-17 2.22045e-16 
-5.55112e-17 0 -6.66134e-16 
0 1.38778e-17 9.99201e-16 
1.52656e-17 3.98986e-18 4.44089e-16 
5.20417e-17 1.11022e-16 8.88178e-16 
1.38778e-17 2.77556e-17 4.44089e-16 
1.21431e-17 -3.46945e-17 8.88178e-16 
0 2.77556e-17 -4.44089e-16 
7.28584e-18 -6.07153e-18 1.11022e-16 
-1.38778e-17 -5.55112e-17 2.22045e-16 
6.93889e-17 0 0 
0 5.55112e-17 4.44089e-16 
1.11022e-16 0 -1.11022e-16 
-1.38778e-16 -1.38778e-17 9.99201e-16 
-4.02456e-17 3.19189e-17 4.44089e-16 
2.91434e-17 -2.79488e-17 4.16334e-17 
0 8.32667e-17 3.33067e-16 
-1.11022e-16 2.77556e-17 1.77636e-15 
4.16334e-17 0 0 
7.21645e-17 -5.55112e-18 0 
-5.55112e-17 3.46945e-18 6.66134e-16 
-1.38778e-17 2.77556e-17 1.11022e-16 
-1.31839e-17 2.1684e-18 -1.66533e-16 
5.20417e-18 0 -4.44089e-16 
-2.10335e-17 6.93889e-18 -5.55112e-16 
-8.67362e-18 -4.16334e-17 -6.66134e-16 
3.1225e-17 3.46945e-17 0 
1.21431e-17 -3.46945e-17 8.88178e-16 
3.05311e-17 2.25514e-17 -3.33067e-16 
4.16334e-17 2.77556e-17 -6.66134e-16 
-2.77556e-17 1.52656e-17 8.88178e-16 
2.34749e-17 1.249e-17 4.44089e-16 
-6.93889e-17 -4.16334e-17 5.55112e-16 
5.20417e-17 1.11022e-16 8.88178e-16 
5.55112e-17 0 -4.44089e-16 
6.93889e-18 -2.77556e-17 0 
-2.42861e-17 -5.55112e-17 -1.11022e-16 
-2.77556e-17 1.52656e-17 8.88178e-16 
-2.77556e-17 -5.55112e-17 -4.44089e-16 
2.34749e-17 1.249e-17 4.44089e-16 
-6.93889e-17 -4.16334e-17 5.55112e-16 
-5.31693e-17 6.53991e-17 2.22045e-16 
5.20417e-18 0 -4.44089e-16 
5.55112e-17 0 -4.44089e-16 
-1.38778e-17 0 -4.44089e-16 
-2.42861e-17 -5.55112e-17 -1.11022e-16 
5.20417e-17 1.11022e-16 8.88178e-16 
2.34749e-17 1.249e-17 4.44089e-16 
-6.93889e-17 -4.16334e-17 5.55112e-16 
1.38778e-17 2.77556e-17 4.44089e-16 
1.11022e-16 0 -1.11022e-16 
6.93889e-17 0 0 
2.77556e-17 -2.77556e-17 7.77156e-16 
0 5.55112e-17 4.44089e-16 
-5.55112e-18 1.8735e-17 -2.22045e-16 
6.93889e-17 0 0 
1.11022e-16 0 -1.11022e-16 
-4.16334e-17 0 -4.44089e-16 
1.52656e-17 3.98986e-18 4.44089e-16 
0 5.20417e-18 0 
1.249e-17 -2.11636e-17 1.94289e-16 
0 -2.77556e-17 1.33227e-15 
-4.16334e-17 1.04083e-17 -2.22045e-16 
-1.94289e-17 -3.46945e-19 4.44089e-16 
-1.38778e-17 4.85723e-17 2.22045e-16 
4.16334e-17 -6.93889e-17 3.33067e-16 
-2.77556e-17 0 0 
-5.55112e-17 3.46945e-18 6.66134e-16 
2.98372e-17 2.84495e-17 0 
-1.38778e-17 2.77556e-17 1.11022e-16 
3.46945e-17 -6.93889e-17 2.22045e-16 
-3.1225e-17 0 8.88178e-16 
5.55112e-17 0 -4.44089e-16 
-1.38778e-17 0 -4.44089e-16 
1.249e-17 -2.11636e-17 1.94289e-16 
1.38778e-17 0 -8.88178e-16 
0 0 0 
0 -2.77556e-17 1.33227e-15 
2.34749e-17 1.249e-17 4.44089e-16 
-1.66533e-17 2.35922e-17 0 
-6.93889e-17 -4.16334e-17 5.55112e-16 
1.38778e-17 2.77556e-17 4.44089e-16 
4.85723e-17 0 -8.88178e-16 
1.11022e-16 1.11022e-16 4.44089e-16 
-3.53016e-17 -1.45229e-17 0 
1.38778e-17 0 -8.88178e-16 
8.32667e-17 -4.16334e-17 4.44089e-16 
-1.38778e-17 3.46945e-17 2.22045e-16 
3.46945e-18 -2.77556e-17 0 
4.16334e-17 2.77556e-17 -6.66134e-16 
-2.42861e-17 -5.55112e-17 -1.11022e-16 
-8.67362e-18 -4.16334e-17 -6.66134e-16 
5.20417e-18 0 -4.44089e-16 
2.77556e-17 0 4.44089e-16 
3.46945e-18 -8.32667e-18 2.77556e-17 
-1.38778e-17 2.77556e-17 -4.44089e-16 
-1.38778e-17 -2.08167e-17 1.11022e-16 
-1.38778e-17 -5.55112e-17 2.22045e-16 
-4.16334e-17 1.04083e-17 -2.22045e-16 
0 2.08167e-17 -2.22045e-16 
-2.77556e-17 0 -8.88178e-16 
4.16334e-17 -6.93889e-17 3.33067e-16 
0 0 0 
0 1.38778e-17 9.99201e-16 
0 1.73472e-17 4.44089e-16 
1.52656e-17 3.98986e-18 4.44089e-16 
4.16334e-17 -6.93889e-17 3.33067e-16 
0 2.08167e-17 -2.22045e-16 
-2.77556e-17 0 -8.88178e-16 
-5.55112e-17 0 4.44089e-16 
-1.52656e-17 1.11022e-17 2.22045e-16 
-3.46945e-17 5.55112e-17 -5.55112e-16 
-1.38778e-17 2.77556e-17 0 
3.1225e-17 2.08167e-17 3.33067e-16 
2.98372e-17 2.84495e-17 0 
-2.10335e-17 6.93889e-18 -5.55112e-16 
-2.77556e-17 0 0 
-1.38778e-17 0 -4.44089e-16 
5.20417e-18 0 -4.44089e-16 
5.55112e-17 0 -4.44089e-16 
-2.42861e-17 -5.55112e-17 -1.11022e-16 
2.77556e-17 0 4.44089e-16 
2.77556e-17 -3.1225e-17 6.66134e-16 
6.85216e-18 -1.63498e-17 -3.33067e-16 
2.77556e-18 2.63678e-17 -5.55112e-17 
-1.38778e-16 -1.38778e-17 9.99201e-16 
1.38778e-17 0 -8.88178e-16 
7.63278e-18 5.55112e-18 1.38778e-17 
2.77556e-17 -2.77556e-17 7.77156e-16 
0 -2.77556e-17 1.33227e-15 
6.93889e-18 -2.77556e-17 0 
2.77556e-17 5.55112e-17 -6.66134e-16 
0 1.38778e-18 -4.44089e-16 
-2.77556e-17 0 2.22045e-16 
-6.93889e-17 -4.16334e-17 5.55112e-16 
-1.66533e-17 2.35922e-17 0 
2.34749e-17 1.249e-17 4.44089e-16 
-2.77556e-17 -5.55112e-17 -4.44089e-16 
-1.66533e-17 2.35922e-17 0 
-4.16334e-17 -5.55112e-17 -4.44089e-16 
-6.93889e-18 -1.73472e-17 3.33067e-16 
1.38778e-17 2.77556e-17 4.44089e-16 
2.77556e-17 0 0 
-6.93889e-18 -1.38778e-17 0 
1.17961e-17 -4.16334e-18 0 
-2.77556e-17 -2.77556e-17 2.22045e-16 
5.20417e-18 0 -4.44089e-16 
-1.31839e-17 2.1684e-18 -1.66533e-16 
-1.38778e-17 2.77556e-17 -4.44089e-16 
-8.67362e-18 -4.16334e-17 -6.66134e-16 
1.38778e-17 5.55112e-17 -4.44089e-16 
8.32667e-17 -4.16334e-17 4.44089e-16 
0 -1.66533e-17 8.88178e-16 
-8.32667e-17 5.55112e-17 3.33067e-16 
0 5.20417e-18 0 
-2.08167e-17 1.38778e-17 -8.88178e-16 
-9.06393e-18 5.89806e-18 -3.33067e-16 
-2.77556e-18 -2.498e-17 1.11022e-16 
0 -1.66533e-17 8.88178e-16 
0 1.38778e-17 0 
1.38778e-17 5.55112e-17 -4.44089e-16 
-8.32667e-17 -4.16334e-17 1.55431e-15 
3.1225e-17 3.46945e-17 0 
7.11237e-18 3.45312e-17 -1.11022e-16 
1.21431e-17 -3.46945e-17 8.88178e-16 
0 -1.38778e-17 4.44089e-16 
-2.77556e-17 0 -8.88178e-16 
5.55112e-17 2.77556e-17 2.22045e-16 
0 1.38778e-17 7.77156e-16 
0 -1.11022e-16 4.44089e-16 
-2.77556e-17 0 0 
-3.1225e-17 0 8.88178e-16 
-3.15764e-17 8.84376e-18 0 
3.46945e-17 -6.93889e-17 2.22045e-16 
4.16334e-17 -6.93889e-17 3.33067e-16 
5.55112e-17 2.77556e-17 2.22045e-16 
-1.94289e-17 -3.46945e-19 4.44089e-16 
3.46945e-17 6.93889e-18 -1.11022e-16 
-5.55112e-17 0 4.44089e-16 
2.77556e-17 -3.1225e-17 6.66134e-16 
6.85216e-18 -1.63498e-17 -3.33067e-16 
2.85145e-17 2.77556e-17 6.66134e-16 
0 1.38778e-17 0 
1.11022e-17 -7.70372e-34 0 
0 0 -2.22045e-16 
1.38778e-18 1.38778e-17 -5.55112e-16 
-1.38778e-17 -6.93889e-18 2.22045e-16 
0 0 4.44089e-16 
1.38778e-17 -6.93889e-18 2.22045e-16 
-2.77556e-18 -2.498e-17 1.11022e-16 
1.38778e-17 0 -8.88178e-16 
-3.53016e-17 -1.45229e-17 0 
4.85723e-17 0 -8.88178e-16 
3.1225e-17 2.08167e-17 3.33067e-16 
4.16334e-17 -6.93889e-17 3.33067e-16 
-2.77556e-17 0 -8.88178e-16 
5.55112e-17 2.77556e-17 2.22045e-16 
0 1.38778e-17 7.77156e-16 
1.11022e-16 0 -1.11022e-16 
-3.46945e-17 5.55112e-17 -5.55112e-16 
2.77556e-17 -2.77556e-17 7.77156e-16 
3.1225e-17 2.08167e-17 3.33067e-16 
5.55112e-17 -2.90566e-17 6.66134e-16 
-3.15764e-17 8.84376e-18 0 
0 1.38778e-18 -4.44089e-16 
-1.38778e-17 5.55112e-17 5.55112e-17 
3.46945e-18 -8.32667e-18 2.77556e-17 
7.28584e-18 -6.07153e-18 1.11022e-16 
0 0 4.44089e-16 
-1.38778e-17 -5.55112e-17 2.22045e-16 
2.77556e-17 2.77556e-17 -2.22045e-16 
0 -2.77556e-17 0 
-1.38778e-17 4.85723e-17 2.22045e-16 
2.42861e-17 -4.16334e-17 2.22045e-16 
0 0 -2.22045e-16 
-2.77556e-18 -2.498e-17 1.11022e-16 
0 5.20417e-18 0 
0 -2.77556e-17 1.33227e-15 
5.20417e-18 0 -4.44089e-16 
-8.67362e-18 -4.16334e-17 -6.66134e-16 
-1.38778e-17 2.77556e-17 -4.44089e-16 
2.77556e-17 0 4.44089e-16 
7.28584e-18 -6.07153e-18 1.11022e-16 
3.05311e-17 2.25514e-17 -3.33067e-16 
1.21431e-17 -3.46945e-17 8.88178e-16 
-1.38778e-17 -5.55112e-17 2.22045e-16 
-1.94289e-17 -3.46945e-19 4.44089e-16 
-4.02456e-17 3.19189e-17 4.44089e-16 
0 8.32667e-17 3.33067e-16 
3.46945e-17 6.93889e-18 -1.11022e-16 
-2.77556e-17 0 -8.88178e-16 
1.38778e-17 3.46945e-17 -4.44089e-16 
5.55112e-17 2.77556e-17 2.22045e-16 
0 -1.11022e-16 4.44089e-16 
-2.77556e-17 1.52656e-17 8.88178e-16 
6.93889e-18 -2.77556e-17 0 
-2.77556e-17 0 2.22045e-16 
-5.31693e-17 6.53991e-17 2.22045e-16 
-8.32667e-17 -1.38778e-17 1.11022e-16 
0 -2.08167e-17 0 
-4.85723e-17 0 0 
-3.22659e-17 4.34548e-17 4.44089e-16 
2.25514e-17 1.38778e-17 0 
-1.38778e-17 -2.08167e-17 1.11022e-16 
3.46945e-18 -2.77556e-17 0 
-8.67362e-18 -4.16334e-17 -6.66134e-16 
1.38778e-17 2.77556e-17 0 
5.55112e-17 2.77556e-17 5.55112e-16 
0 -5.55112e-17 -4.44089e-16 
0 0 4.44089e-16 
-1.66533e-17 2.35922e-17 0 
-6.93889e-18 -1.73472e-17 3.33067e-16 
-6.93889e-17 -4.16334e-17 5.55112e-16 
1.38778e-17 2.77556e-17 4.44089e-16 
-3.53016e-17 -1.45229e-17 0 
1.11022e-16 1.11022e-16 4.44089e-16 
-4.16334e-17 2.08167e-17 3.33067e-16 
0 0 0 
3.46945e-17 -6.93889e-17 2.22045e-16 
-2.77556e-17 0 0 
-3.1225e-17 0 8.88178e-16 
-1.38778e-17 0 -4.44089e-16 
5.55112e-17 0 -4.44089e-16 
6.93889e-18 -2.77556e-17 0 
3.46945e-17 -6.93889e-17 2.22045e-16 
-2.42861e-17 -5.55112e-17 -1.11022e-16 
4.16334e-17 1.38778e-17 -1.11022e-16 
-1.9082e-17 -5.18249e-17 4.44089e-16 
2.77556e-17 0 8.88178e-16 
2.77556e-17 4.16334e-17 1.33227e-15 
4.16334e-17 -6.93889e-17 3.33067e-16 
-1.94289e-17 -3.46945e-19 4.44089e-16 
-1.38778e-17 4.85723e-17 2.22045e-16 
3.46945e-17 6.93889e-18 -1.11022e-16 
-3.46945e-17 5.55112e-17 -5.55112e-16 
4.85723e-17 0 -8.88178e-16 
-1.38778e-17 2.77556e-17 0 
3.1225e-17 2.08167e-17 3.33067e-16 
1.11022e-17 -7.70372e-34 0 
8.32667e-17 0 7.77156e-16 
5.55112e-17 1.56125e-17 0 
1.38778e-18 1.38778e-17 -5.55112e-16 
0 8.32667e-17 3.33067e-16 
1.37043e-17 4.02673e-17 4.44089e-16 
-1.94289e-17 -3.46945e-19 4.44089e-16 
3.46945e-17 6.93889e-18 -1.11022e-16 
-2.42861e-17 -5.55112e-17 -1.11022e-16 
-1.38778e-17 0 -4.44089e-16 
5.20417e-18 0 -4.44089e-16 
-8.67362e-18 -4.16334e-17 -6.66134e-16 
-2.70617e-17 -1.56125e-17 2.22045e-16 
-2.77556e-17 -5.55112e-17 0 
0 5.55112e-17 4.44089e-16 
-1.38778e-16 -1.38778e-17 9.99201e-16 
-6.93889e-18 -1.38778e-17 0 
1.80411e-17 2.63678e-17 1.66533e-16 
0 2.77556e-17 -4.44089e-16 
-9.71445e-17 -1.11022e-16 -8.88178e-16 
1.38778e-17 3.46945e-17 -4.44089e-16 
5.55112e-17 2.77556e-17 2.22045e-16 
0 -1.11022e-16 4.44089e-16 
0 -1.38778e-17 4.44089e-16 
-1.38778e-17 2.77556e-17 1.11022e-16 
2.98372e-17 2.84495e-17 0 
-2.77556e-17 0 0 
-1.38778e-17 0 -4.44089e-16 
3.46945e-18 -2.77556e-17 0 
-4.69131e-18 -1.36761e-17 -1.11022e-16 
2.25514e-17 1.38778e-17 0 
4.16334e-17 2.77556e-17 -6.66134e-16 
1.38778e-17 0 -8.88178e-16 
2.77556e-17 -2.77556e-17 7.77156e-16 
1.11022e-16 0 -1.11022e-16 
0 -2.77556e-17 1.33227e-15 
2.98372e-17 2.84495e-17 0 
-8.32667e-17 5.55112e-17 3.33067e-16 
8.32667e-17 -4.16334e-17 4.44089e-16 
-8.67362e-18 -4.16334e-17 -6.66134e-16 
-2.77556e-17 1.38778e-17 -1.11022e-16 
0 0 2.22045e-16 
-5.10009e-17 -1.04083e-18 5.55112e-17 
0 -2.77556e-17 1.33227e-15 
-5.55112e-18 1.8735e-17 -2.22045e-16 
7.63278e-18 5.55112e-18 1.38778e-17 
-5.10009e-17 -1.04083e-18 5.55112e-17 
0 -2.77556e-17 1.33227e-15 
8.32667e-17 -4.16334e-17 4.44089e-16 
3.46945e-18 -2.77556e-17 0 
-5.55112e-17 2.77556e-17 0 
4.16334e-17 2.77556e-17 -6.66134e-16 
-1.38778e-17 -1.38778e-17 -7.77156e-16 
-1.04083e-17 -1.56125e-17 0 
1.38778e-17 2.77556e-17 0 
0 -5.55112e-17 -4.44089e-16 
8.32667e-17 -4.16334e-17 4.44089e-16 
3.46945e-18 -2.77556e-17 0 
2.28983e-17 -1.38778e-18 4.996e-16 
-8.67362e-18 -4.16334e-17 -6.66134e-16 
-3.46945e-17 5.55112e-17 -5.55112e-16 
1.11022e-16 0 -1.11022e-16 
2.77556e-17 -2.77556e-17 7.77156e-16 
0 5.55112e-17 4.44089e-16 
-5.55112e-18 1.8735e-17 -2.22045e-16 
1.11022e-16 0 -1.11022e-16 
2.77556e-17 -2.77556e-17 7.77156e-16 
0 -2.77556e-17 1.33227e-15 
1.38778e-17 2.77556e-17 0 
0 8.32667e-17 3.33067e-16 
2.77556e-17 -5.55112e-17 -4.44089e-16 
0 0 0 
0 2.08167e-17 5.55112e-16 
8.32667e-17 -2.91434e-17 -7.77156e-16 
-3.46945e-17 5.55112e-17 -5.55112e-16 
-1.38778e-17 2.77556e-17 0 
5.20417e-17 1.11022e-16 8.88178e-16 
-6.93889e-17 -4.16334e-17 5.55112e-16 
0 1.38778e-17 9.99201e-16 
1.38778e-17 2.77556e-17 4.44089e-16 
-5.55112e-17 2.77556e-17 0 
8.32667e-17 -4.16334e-17 4.44089e-16 
4.16334e-17 2.77556e-17 -6.66134e-16 
-1.11022e-16 2.77556e-17 1.77636e-15 
1.38778e-17 -6.93889e-18 2.22045e-16 
1.80411e-17 2.63678e-17 1.66533e-16 
-1.38778e-17 -6.93889e-18 2.22045e-16 
-9.71445e-17 -1.11022e-16 -8.88178e-16 
0 -2.08167e-17 0 
-8.32667e-17 -1.38778e-17 1.11022e-16 
-1.38778e-17 1.04083e-17 5.55112e-16 
-3.22659e-17 4.34548e-17 4.44089e-16 
5.55112e-17 2.77556e-17 5.55112e-16 
-1.38778e-17 -1.38778e-17 -7.77156e-16 
1.38778e-17 2.77556e-17 0 
0 -5.55112e-17 -4.44089e-16 
0 -2.77556e-17 -3.33067e-16 
-2.77556e-17 -5.55112e-17 0 
6.85216e-18 -1.63498e-17 -3.33067e-16 
-1.38778e-16 -1.38778e-17 9.99201e-16 
2.77556e-17 0 0 
1.17961e-17 -4.16334e-18 0 
5.27356e-17 -1.21431e-17 -2.77556e-16 
0 -1.11022e-16 4.44089e-16 
-1.52656e-17 1.11022e-17 2.22045e-16 
-4.53413e-17 -6.66134e-17 -4.44089e-16 
-3.46945e-17 5.55112e-17 -5.55112e-16 
0 5.55112e-17 4.44089e-16 
4.85723e-17 0 -8.88178e-16 
1.38778e-17 0 -8.88178e-16 
1.11022e-16 0 -1.11022e-16 
0 -2.77556e-17 1.33227e-15 
0 0 -2.22045e-16 
1.11022e-17 -7.70372e-34 0 
2.32426e-17 1.587e-17 -8.88178e-16 
1.38778e-18 1.38778e-17 -5.55112e-16 
-3.19189e-17 2.63678e-17 2.77556e-17 
5.20417e-17 1.11022e-16 8.88178e-16 
-2.77556e-17 1.52656e-17 8.88178e-16 
2.77556e-17 0 4.44089e-16 
1.38778e-17 0 5.55112e-17 
4.85723e-17 0 -8.88178e-16 
-4.16334e-17 2.08167e-17 3.33067e-16 
-3.53016e-17 -1.45229e-17 0 
8.32667e-17 -4.16334e-17 4.44089e-16 
-5.55112e-17 2.77556e-17 0 
3.46945e-18 -2.77556e-17 0 
-8.67362e-18 -4.16334e-17 -6.66134e-16 
4.16334e-17 1.38778e-17 -1.11022e-16 
2.77556e-17 0 8.88178e-16 
-1.9082e-17 -5.18249e-17 4.44089e-16 
1.38778e-17 -5.55112e-17 -8.88178e-16 
0 -1.73472e-17 2.77556e-16 
-1.38778e-17 8.32667e-17 1.66533e-16 
0 0 1.33227e-15 
0 4.16334e-17 2.22045e-16 
2.15106e-17 -3.33067e-17 8.88178e-16 
1.37043e-17 4.02673e-17 4.44089e-16 
0 0 4.44089e-16 
0 2.77556e-17 -2.22045e-16 
1.80411e-17 2.63678e-17 1.66533e-16 
1.2739e-17 -6.85216e-18 -1.11022e-16 
0 0 2.22045e-16 
-4.16334e-17 0 -4.44089e-16 
2.77556e-17 -3.1225e-17 6.66134e-16 
1.80411e-17 -4.68375e-17 1.11022e-16 
-2.77556e-17 0 -8.88178e-16 
0 -1.11022e-16 4.44089e-16 
0 0 0 
0 1.73472e-17 4.44089e-16 
-4.16334e-17 2.08167e-17 3.33067e-16 
-2.77556e-17 2.32068e-17 -2.22045e-16 
3.46945e-17 6.93889e-18 -1.11022e-16 
0 1.38778e-17 7.77156e-16 
5.55112e-17 2.77556e-17 2.22045e-16 
0 -1.38778e-17 4.44089e-16 
0 0 -2.22045e-16 
5.20417e-17 1.11022e-16 8.88178e-16 
-2.08167e-17 1.38778e-17 -8.88178e-16 
2.77556e-17 0 4.44089e-16 
6.85216e-18 -1.63498e-17 -3.33067e-16 
-8.32667e-17 -5.55112e-17 4.44089e-16 
0 -2.77556e-17 -3.33067e-16 
2.85145e-17 2.77556e-17 6.66134e-16 
-8.32667e-17 5.55112e-17 3.33067e-16 
1.38778e-17 5.55112e-17 -4.44089e-16 
8.32667e-17 -4.16334e-17 4.44089e-16 
2.77556e-17 4.16334e-17 1.33227e-15 
-4.16334e-17 2.08167e-17 3.33067e-16 
-3.53016e-17 -1.45229e-17 0 
0 0 0 
-2.77556e-17 2.32068e-17 -2.22045e-16 
-2.77556e-17 -8.32667e-17 -4.44089e-16 
-2.77556e-17 0 2.22045e-16 
2.77556e-17 5.55112e-17 -6.66134e-16 
-5.31693e-17 6.53991e-17 2.22045e-16 
0 0 0 
1.11022e-16 1.11022e-16 4.44089e-16 
1.52656e-17 3.98986e-18 4.44089e-16 
0 -2.77556e-17 1.33227e-15 
0 1.38778e-17 0 
2.77556e-17 0 8.88178e-16 
1.38778e-17 5.55112e-17 -4.44089e-16 
-8.32667e-17 -4.16334e-17 1.55431e-15 
4.16334e-17 -6.93889e-17 3.33067e-16 
-5.55112e-17 0 4.44089e-16 
-2.77556e-17 0 -8.88178e-16 
0 -1.11022e-16 4.44089e-16 
1.52656e-17 3.98986e-18 4.44089e-16 
0 0 -2.22045e-16 
0 1.38778e-17 9.99201e-16 
5.20417e-17 1.11022e-16 8.88178e-16 
-1.38778e-17 -1.38778e-17 -7.77156e-16 
1.38778e-17 1.38778e-17 2.22045e-16 
-2.77556e-17 -2.08167e-17 5.55112e-17 
1.38778e-17 -5.55112e-17 -8.88178e-16 
4.16334e-17 0 0 
-2.77556e-17 0 0 
-3.15764e-17 8.84376e-18 0 
-1.38778e-17 2.77556e-17 1.11022e-16 
1.38778e-17 0 5.55112e-17 
-6.02816e-17 -4.16334e-17 0 
4.85723e-17 0 -8.88178e-16 
2.77556e-17 -2.77556e-17 0 
8.32667e-17 0 7.77156e-16 
0 -1.66533e-17 8.88178e-16 
-8.32667e-17 5.55112e-17 3.33067e-16 
-8.32667e-17 -4.16334e-17 1.55431e-15 
-1.9082e-17 -5.18249e-17 4.44089e-16 
2.77556e-17 -5.55112e-17 -4.44089e-16 
2.91434e-17 -2.79488e-17 4.16334e-17 
-1.11022e-16 2.77556e-17 1.77636e-15 
-3.1225e-17 0 8.88178e-16 
6.93889e-18 -2.77556e-17 0 
0 1.38778e-18 -4.44089e-16 
3.46945e-17 -6.93889e-17 2.22045e-16 
1.11022e-16 1.11022e-16 4.44089e-16 
0 0 0 
1.38778e-17 0 -8.88178e-16 
0 -2.77556e-17 1.33227e-15 
4.85723e-17 0 -8.88178e-16 
-3.53016e-17 -1.45229e-17 0 
2.77556e-17 -2.77556e-17 0 
3.1225e-17 2.08167e-17 3.33067e-16 
1.38778e-17 2.77556e-17 -8.88178e-16 
-8.32667e-17 -3.46945e-17 0 
1.38778e-17 -2.77556e-17 -9.99201e-16 
5.55112e-17 -5.55112e-17 4.44089e-16 
0 0 4.44089e-16 
-2.77556e-18 -2.498e-17 1.11022e-16 
-2.08167e-17 1.11022e-16 3.33067e-16 
-1.38778e-17 -5.55112e-17 2.22045e-16 
-1.38778e-17 2.77556e-17 0 
8.32667e-17 -2.91434e-17 -7.77156e-16 
-3.46945e-17 5.55112e-17 -5.55112e-16 
-1.52656e-17 1.11022e-17 2.22045e-16 
0 0 2.22045e-16 
-2.77556e-17 1.38778e-17 -1.11022e-16 
-1.38778e-17 -6.93889e-18 2.22045e-16 
-2.77556e-18 -2.498e-17 1.11022e-16 
-2.77556e-17 0 2.22045e-16 
-6.93889e-17 -4.16334e-17 5.55112e-16 
-2.77556e-17 1.52656e-17 8.88178e-16 
-5.31693e-17 6.53991e-17 2.22045e-16 
7.21645e-17 -5.55112e-18 0 
4.16334e-17 0 0 
0 2.77556e-17 0 
-1.38778e-17 2.77556e-17 1.11022e-16 
2.77556e-17 -5.55112e-17 1.44329e-15 
-2.63678e-17 -4.02456e-17 1.33227e-15 
0 2.77556e-17 2.22045e-16 
-5.55112e-17 0 -6.66134e-16 
-1.38778e-17 2.77556e-17 -4.44089e-16 
-3.19189e-17 -3.51752e-17 -5.55112e-17 
5.20417e-18 0 -4.44089e-16 
2.77556e-17 0 4.44089e-16 
2.77556e-17 -5.55112e-17 -4.44089e-16 
1.38778e-17 -5.55112e-17 -8.88178e-16 
-1.38778e-17 -1.38778e-17 -7.77156e-16 
0 0 0 
0 1.38778e-17 7.77156e-16 
4.16334e-17 -6.93889e-17 3.33067e-16 
-2.77556e-17 0 -8.88178e-16 
0 -1.11022e-16 4.44089e-16 
0 0 0 
1.11022e-16 1.11022e-16 4.44089e-16 
0 1.38778e-17 9.99201e-16 
1.52656e-17 3.98986e-18 4.44089e-16 
2.98372e-17 2.84495e-17 0 
2.28983e-17 -1.38778e-18 4.996e-16 
-2.10335e-17 6.93889e-18 -5.55112e-16 
-8.67362e-18 -4.16334e-17 -6.66134e-16 
0 -1.66533e-17 8.88178e-16 
2.98372e-17 2.84495e-17 0 
-5.55112e-17 3.46945e-18 6.66134e-16 
-8.32667e-17 5.55112e-17 3.33067e-16 
1.38778e-17 2.77556e-17 0 
-1.04083e-17 -1.56125e-17 0 
-1.38778e-17 -1.38778e-17 -7.77156e-16 
2.77556e-17 -5.55112e-17 -4.44089e-16 
1.38778e-17 1.38778e-17 2.22045e-16 
-1.38778e-17 -6.245e-17 -6.66134e-16 
-2.77556e-17 -2.08167e-17 5.55112e-17 
1.38778e-17 -5.55112e-17 -8.88178e-16 
1.11022e-16 1.11022e-16 4.44089e-16 
1.38778e-17 0 -8.88178e-16 
4.85723e-17 0 -8.88178e-16 
0 -2.77556e-17 1.33227e-15 
-1.04083e-17 -1.56125e-17 0 
1.38778e-17 1.38778e-17 2.22045e-16 
-1.38778e-17 -1.38778e-17 -7.77156e-16 
1.38778e-17 -5.55112e-17 -8.88178e-16 
2.77556e-17 0 8.88178e-16 
1.38778e-17 5.55112e-17 -4.44089e-16 
-8.32667e-17 -4.16334e-17 1.55431e-15 
2.77556e-17 4.16334e-17 1.33227e-15 
-2.77556e-17 1.52656e-17 8.88178e-16 
-6.93889e-17 -4.16334e-17 5.55112e-16 
-2.42861e-17 -5.55112e-17 -1.11022e-16 
2.77556e-17 0 4.44089e-16 
-7.28584e-17 -5.55112e-17 2.22045e-16 
2.77556e-17 -8.32667e-17 4.44089e-16 
1.0339e-16 -1.94289e-17 0 
-5.55112e-17 0 -2.22045e-16 
2.77556e-17 -3.1225e-17 6.66134e-16 
-2.77556e-17 0 -8.88178e-16 
-5.55112e-17 0 4.44089e-16 
0 -1.11022e-16 4.44089e-16 
-5.55112e-17 -7.97973e-17 4.44089e-16 
-8.32667e-17 -3.46945e-17 0 
-5.55112e-17 -1.38778e-17 1.22125e-15 
1.38778e-17 2.77556e-17 -8.88178e-16 
1.11022e-16 0 -1.11022e-16 
-4.16334e-17 0 -4.44089e-16 
6.93889e-17 0 0 
-1.38778e-16 -1.38778e-17 9.99201e-16 
1.38778e-17 -5.55112e-17 -8.88178e-16 
-1.38778e-17 -1.38778e-17 -7.77156e-16 
-1.04083e-17 -1.56125e-17 0 
2.77556e-17 -5.55112e-17 -4.44089e-16 
-2.63678e-17 -4.02456e-17 1.33227e-15 
-8.32667e-17 0 0 
-6.93889e-17 -6.93889e-18 7.77156e-16 
2.77556e-17 -5.55112e-17 1.44329e-15 
-2.08167e-17 1.38778e-17 -8.88178e-16 
1.9082e-17 4.16334e-17 3.33067e-16 
-9.06393e-18 5.89806e-18 -3.33067e-16 
-2.77556e-18 -2.498e-17 1.11022e-16 
0 5.55112e-17 4.44089e-16 
-4.53413e-17 -6.66134e-17 -4.44089e-16 
5.55112e-17 -5.55112e-17 -2.22045e-16 
-2.77556e-17 -5.55112e-17 0 
-1.38778e-17 -6.93889e-18 2.22045e-16 
1.80411e-17 2.63678e-17 1.66533e-16 
0 0 2.22045e-16 
-9.71445e-17 -1.11022e-16 -8.88178e-16 
-5.55112e-17 5.55112e-17 -6.66134e-16 
1.38778e-17 6.93889e-18 0 
-5.89806e-17 1.11022e-16 2.22045e-16 
3.95517e-17 -9.71445e-18 0 
-5.55112e-17 0 -6.66134e-16 
2.77556e-17 5.55112e-17 -6.66134e-16 
0 2.77556e-17 2.22045e-16 
-3.98986e-17 0 7.77156e-16 
0 -2.91434e-17 -2.22045e-16 
4.16334e-17 0 0 
-3.15764e-17 8.84376e-18 0 
-1.38778e-17 5.55112e-17 5.55112e-17 
-2.63678e-17 -4.02456e-17 1.33227e-15 
0 2.77556e-17 2.22045e-16 
-5.55112e-17 0 -5.55112e-17 
2.77556e-17 -5.55112e-17 1.44329e-15 
-2.77556e-17 0 2.22045e-16 
-2.42861e-17 -5.55112e-17 -1.11022e-16 
6.93889e-18 -2.77556e-17 0 
-2.77556e-17 1.52656e-17 8.88178e-16 
-6.93889e-18 -1.38778e-17 0 
2.77556e-17 0 0 
1.2739e-17 -6.85216e-18 -1.11022e-16 
-4.16334e-17 0 -4.44089e-16 
2.77556e-17 -5.55112e-17 -4.44089e-16 
-1.38778e-17 -1.38778e-17 -7.77156e-16 
1.38778e-17 2.77556e-17 0 
0 0 0 
-8.32667e-17 -3.46945e-17 0 
1.11022e-16 2.77556e-17 3.33067e-16 
-5.55112e-17 -1.38778e-17 1.22125e-15 
1.38778e-17 2.77556e-17 -8.88178e-16 
5.55112e-17 2.77556e-17 2.22045e-16 
1.38778e-17 3.46945e-17 -4.44089e-16 
-1.31839e-17 1.66533e-17 -7.63278e-17 
0 -1.38778e-17 4.44089e-16 
-2.77556e-17 1.38778e-17 -1.11022e-16 
0 5.20417e-18 0 
-9.06393e-18 5.89806e-18 -3.33067e-16 
-2.77556e-18 -2.498e-17 1.11022e-16 
-2.77556e-17 2.77556e-17 4.44089e-16 
0 -2.77556e-17 -3.33067e-16 
0 -2.77556e-17 5.55112e-16 
-2.77556e-17 -5.55112e-17 0 
-1.38778e-17 0 -4.44089e-16 
5.55112e-17 0 -4.44089e-16 
3.46945e-17 -6.93889e-17 2.22045e-16 
-2.42861e-17 -5.55112e-17 -1.11022e-16 
-3.53016e-17 -1.45229e-17 0 
-4.16334e-17 2.08167e-17 3.33067e-16 
1.38778e-17 0 5.55112e-17 
-2.77556e-17 2.32068e-17 -2.22045e-16 
0 0 0 
3.46945e-17 6.93889e-18 -1.11022e-16 
0 8.32667e-17 3.33067e-16 
-1.11022e-16 2.77556e-17 1.77636e-15 
-5.55112e-17 3.46945e-18 6.66134e-16 
8.32667e-17 0 7.77156e-16 
-8.32667e-17 5.55112e-17 3.33067e-16 
-1.38778e-17 -8.32667e-17 -4.44089e-16 
-8.32667e-17 0 0 
-2.63678e-17 -4.02456e-17 1.33227e-15 
-5.55112e-17 0 -5.55112e-17 
2.77556e-17 -5.55112e-17 1.44329e-15 
-2.77556e-17 -5.55112e-17 0 
-2.77556e-17 2.77556e-17 4.44089e-16 
0 -2.77556e-17 -3.33067e-16 
6.85216e-18 -1.63498e-17 -3.33067e-16 
1.21431e-17 -3.46945e-17 8.88178e-16 
-1.38778e-17 -5.55112e-17 2.22045e-16 
3.05311e-17 2.25514e-17 -3.33067e-16 
4.16334e-17 2.77556e-17 -6.66134e-16 
5.55112e-17 -5.55112e-17 -4.44089e-16 
5.55112e-17 2.77556e-17 5.55112e-16 
-2.77556e-17 -5.55112e-17 -2.77556e-16 
0 0 4.44089e-16 
-4.16334e-17 1.04083e-17 -2.22045e-16 
-1.38778e-17 4.85723e-17 2.22045e-16 
0 -2.77556e-17 0 
4.16334e-17 -6.93889e-17 3.33067e-16 
0 8.32667e-17 -4.996e-16 
0 2.77556e-17 2.22045e-16 
2.77556e-17 -5.55112e-17 1.44329e-15 
1.11022e-16 1.38778e-17 8.88178e-16 
1.37043e-17 4.02673e-17 4.44089e-16 
0 8.32667e-17 3.33067e-16 
1.38778e-17 2.77556e-17 0 
0 2.77556e-17 -2.22045e-16 
-4.16334e-17 2.08167e-17 3.33067e-16 
5.55112e-17 -1.11022e-16 -2.22045e-16 
2.77556e-17 1.11022e-16 6.66134e-16 
-2.77556e-17 2.32068e-17 -2.22045e-16 
-1.38778e-17 2.77556e-17 1.11022e-16 
-5.55112e-17 3.46945e-18 6.66134e-16 
2.98372e-17 2.84495e-17 0 
-8.32667e-17 5.55112e-17 3.33067e-16 
-1.04083e-17 -1.56125e-17 0 
1.38778e-17 1.38778e-17 2.22045e-16 
0 -3.46945e-18 6.66134e-16 
-1.38778e-17 -1.38778e-17 -7.77156e-16 
-2.08167e-17 1.38778e-17 -8.88178e-16 
5.20417e-17 1.11022e-16 8.88178e-16 
1.9082e-17 4.16334e-17 3.33067e-16 
2.77556e-17 0 4.44089e-16 
-8.32667e-17 -4.16334e-17 1.55431e-15 
8.32667e-17 0 7.77156e-16 
0 1.38778e-17 0 
1.38778e-18 1.38778e-17 -5.55112e-16 
3.46945e-17 -6.93889e-17 2.22045e-16 
6.93889e-18 -2.77556e-17 0 
0 1.38778e-18 -4.44089e-16 
-2.77556e-17 0 2.22045e-16 
-4.53413e-17 -6.66134e-17 -4.44089e-16 
-2.77556e-17 2.77556e-17 4.44089e-16 
0 -2.77556e-17 5.55112e-16 
-2.77556e-17 -5.55112e-17 0 
0 -2.77556e-17 0 
0 2.08167e-17 -2.22045e-16 
4.16334e-17 -6.93889e-17 3.33067e-16 
1.38778e-17 2.77556e-17 7.77156e-16 
-6.93889e-17 -4.16334e-17 5.55112e-16 
1.38778e-17 4.16334e-17 -2.22045e-16 
-2.77556e-17 -5.55112e-17 -4.44089e-16 
-5.31693e-17 6.53991e-17 2.22045e-16 
8.32667e-17 -4.16334e-17 4.44089e-16 
2.98372e-17 2.84495e-17 0 
0 -1.66533e-17 8.88178e-16 
-8.32667e-17 5.55112e-17 3.33067e-16 
-4.02456e-17 3.19189e-17 4.44089e-16 
2.77556e-17 5.55112e-17 -1.11022e-16 
3.46945e-17 6.93889e-18 -1.11022e-16 
0 -1.38778e-17 4.44089e-16 
1.38778e-17 -6.93889e-18 2.22045e-16 
-9.71445e-17 -1.11022e-16 -8.88178e-16 
0 0 4.44089e-16 
-1.38778e-17 -5.55112e-17 2.22045e-16 
2.77556e-17 1.11022e-16 6.66134e-16 
1.38778e-17 0 5.55112e-17 
-4.16334e-17 2.08167e-17 3.33067e-16 
-2.77556e-17 2.32068e-17 -2.22045e-16 
3.46945e-17 6.93889e-18 -1.11022e-16 
2.77556e-17 5.55112e-17 -1.11022e-16 
-4.02456e-17 3.19189e-17 4.44089e-16 
-1.11022e-16 2.77556e-17 1.77636e-15 
0 -5.55112e-17 -4.44089e-16 
2.77556e-17 0 0 
-1.04083e-17 -1.56125e-17 0 
1.71711e-17 9.96585e-17 -4.44089e-16 
5.55112e-17 0 -4.44089e-16 
-2.77556e-17 1.52656e-17 8.88178e-16 
-2.42861e-17 -5.55112e-17 -1.11022e-16 
2.77556e-17 0 4.44089e-16 
-2.63678e-17 -4.02456e-17 1.33227e-15 
0 1.38778e-18 -4.44089e-16 
2.77556e-17 5.55112e-17 -6.66134e-16 
-5.55112e-17 0 -6.66134e-16 
0 0 4.44089e-16 
-9.71445e-17 -1.11022e-16 -8.88178e-16 
-2.77556e-18 -2.498e-17 1.11022e-16 
-1.38778e-17 -5.55112e-17 2.22045e-16 
-1.38778e-17 2.77556e-17 1.11022e-16 
-2.77556e-17 0 0 
-3.15764e-17 8.84376e-18 0 
3.46945e-17 -6.93889e-17 2.22045e-16 
2.98372e-17 2.84495e-17 0 
-2.10335e-17 6.93889e-18 -5.55112e-16 
-1.38778e-17 0 -4.44089e-16 
-8.67362e-18 -4.16334e-17 -6.66134e-16 
-5.55112e-17 2.77556e-17 0 
2.77556e-17 4.16334e-17 1.33227e-15 
8.32667e-17 -4.16334e-17 4.44089e-16 
-1.11022e-16 2.77556e-17 1.77636e-15 
-4.53413e-17 -6.66134e-17 -4.44089e-16 
5.55112e-17 -5.55112e-17 -2.22045e-16 
-3.46945e-17 5.55112e-17 -5.55112e-16 
0 5.55112e-17 4.44089e-16 
-4.16334e-17 1.04083e-17 -2.22045e-16 
0 -2.77556e-17 0 
0 2.08167e-17 -2.22045e-16 
4.16334e-17 -6.93889e-17 3.33067e-16 
-5.55112e-17 3.46945e-18 6.66134e-16 
-2.77556e-17 0 0 
4.16334e-17 0 0 
-1.38778e-17 2.77556e-17 1.11022e-16 
5.55112e-17 2.77556e-17 2.22045e-16 
-1.31839e-17 1.66533e-17 -7.63278e-17 
-4.02456e-17 3.19189e-17 4.44089e-16 
0 -1.38778e-17 4.44089e-16 
2.77556e-17 1.38778e-17 4.44089e-16 
5.55112e-17 5.55112e-17 0 
1.11022e-16 -2.77556e-17 -8.88178e-16 
5.55112e-17 5.55112e-17 1.33227e-15 
-2.77556e-17 1.38778e-17 -1.11022e-16 
-2.77556e-18 -2.498e-17 1.11022e-16 
0 0 2.22045e-16 
0 -2.77556e-17 1.33227e-15 
0 -2.77556e-17 0 
0 2.08167e-17 -2.22045e-16 
1.38778e-17 2.77556e-17 7.77156e-16 
2.85145e-17 2.77556e-17 6.66134e-16 
-1.38778e-17 5.55112e-17 5.55112e-17 
-3.15764e-17 8.84376e-18 0 
0 1.38778e-18 -4.44089e-16 
3.46945e-17 -6.93889e-17 2.22045e-16 
0 0 2.22045e-16 
-2.77556e-18 -2.498e-17 1.11022e-16 
-9.71445e-17 -1.11022e-16 -8.88178e-16 
-4.16334e-17 0 -4.44089e-16 
1.38778e-17 4.16334e-17 -2.22045e-16 
-2.77556e-17 -8.32667e-17 -4.44089e-16 
-2.77556e-17 -5.55112e-17 -4.44089e-16 
-5.31693e-17 6.53991e-17 2.22045e-16 
1.11022e-16 1.11022e-16 4.44089e-16 
0 0 -2.22045e-16 
1.52656e-17 3.98986e-18 4.44089e-16 
0 -2.77556e-17 1.33227e-15 
-3.15764e-17 8.84376e-18 0 
-3.1225e-17 0 8.88178e-16 
0 1.38778e-18 -4.44089e-16 
3.46945e-17 -6.93889e-17 2.22045e-16 
-6.93889e-17 -4.16334e-17 5.55112e-16 
5.20417e-17 1.11022e-16 8.88178e-16 
0 0 -2.22045e-16 
2.77556e-17 0 4.44089e-16 
0 -2.91434e-17 -2.22045e-16 
-3.15764e-17 8.84376e-18 0 
5.55112e-17 -2.90566e-17 6.66134e-16 
-1.38778e-17 5.55112e-17 5.55112e-17 
0 2.08167e-17 5.55112e-16 
-1.38778e-17 5.55112e-17 1.11022e-16 
8.32667e-17 -2.91434e-17 -7.77156e-16 
6.58761e-17 4.47559e-17 0 
1.21431e-17 -3.46945e-17 8.88178e-16 
0 2.77556e-17 -4.44089e-16 
-1.38778e-17 -5.55112e-17 2.22045e-16 
-2.77556e-17 -2.77556e-17 2.22045e-16 
-2.77556e-17 -5.55112e-17 0 
2.77556e-18 2.63678e-17 -5.55112e-17 
6.85216e-18 -1.63498e-17 -3.33067e-16 
-1.38778e-16 -1.38778e-17 9.99201e-16 
-5.55112e-17 0 -6.66134e-16 
0 1.38778e-18 -4.44089e-16 
2.77556e-17 5.55112e-17 -6.66134e-16 
-2.77556e-17 0 2.22045e-16 
-2.08167e-17 1.11022e-16 3.33067e-16 
-2.77556e-18 -2.498e-17 1.11022e-16 
0 0 4.44089e-16 
2.77556e-17 0 4.44089e-16 
7.21645e-17 -5.55112e-18 0 
-5.55112e-17 3.46945e-18 6.66134e-16 
-1.38778e-17 2.77556e-17 1.11022e-16 
-1.38778e-17 -8.32667e-17 -4.44089e-16 
0 2.77556e-17 2.22045e-16 
-5.55112e-17 0 -5.55112e-17 
2.77556e-17 -5.55112e-17 1.44329e-15 
1.11022e-16 1.38778e-17 8.88178e-16 
5.55112e-17 -1.11022e-16 -8.88178e-16 
0 0 2.22045e-16 
-4.16334e-17 -3.60904e-17 -8.88178e-16 
-8.32667e-17 -1.38778e-17 1.11022e-16 
0 -2.77556e-17 5.55112e-16 
8.32667e-17 -2.91434e-17 -7.77156e-16 
5.55112e-17 -5.55112e-17 4.44089e-16 
-4.53413e-17 -6.66134e-17 -4.44089e-16 
-3.98986e-17 0 7.77156e-16 
2.77556e-17 5.55112e-17 -6.66134e-16 
0 2.77556e-17 2.22045e-16 
-2.77556e-17 -8.32667e-17 -4.44089e-16 
-1.38778e-17 1.04083e-17 5.55112e-16 
-2.77556e-17 -2.77556e-17 1.11022e-16 
1.38778e-17 5.55112e-17 -6.10623e-16 
-3.22659e-17 4.34548e-17 4.44089e-16 
-8.32667e-17 0 0 
-4.16334e-17 0 5.55112e-17 
5.55112e-17 -5.55112e-17 4.44089e-16 
-6.93889e-17 -6.93889e-18 7.77156e-16 
-8.32667e-17 5.55112e-17 3.33067e-16 
0 -1.66533e-17 8.88178e-16 
1.38778e-17 5.55112e-17 -4.44089e-16 
-8.32667e-17 -4.16334e-17 1.55431e-15 
-1.04083e-17 -1.56125e-17 0 
-1.38778e-17 -1.38778e-17 -7.77156e-16 
2.77556e-17 0 0 
0 -5.55112e-17 -4.44089e-16 
-3.46945e-17 5.55112e-17 -5.55112e-16 
1.11022e-16 0 -1.11022e-16 
4.85723e-17 0 -8.88178e-16 
3.1225e-17 2.08167e-17 3.33067e-16 
-4.16334e-17 -5.55112e-17 -4.44089e-16 
-2.77556e-17 5.55112e-17 0 
-6.93889e-18 -1.73472e-17 3.33067e-16 
-7.28584e-17 -5.55112e-17 2.22045e-16 
1.38778e-17 0 5.55112e-17 
-4.16334e-17 2.08167e-17 3.33067e-16 
-6.02816e-17 -4.16334e-17 0 
2.77556e-17 1.11022e-16 6.66134e-16 
1.11022e-16 0 -1.11022e-16 
-5.55112e-18 1.8735e-17 -2.22045e-16 
-4.16334e-17 0 -4.44089e-16 
0 -2.77556e-17 1.33227e-15 
1.38778e-17 2.77556e-17 -8.88178e-16 
1.38778e-17 -2.77556e-17 -9.99201e-16 
-1.38778e-17 5.55112e-17 1.11022e-16 
5.55112e-17 -5.55112e-17 4.44089e-16 
-4.53413e-17 -6.66134e-17 -4.44089e-16 
-3.46945e-17 5.55112e-17 -5.55112e-16 
8.32667e-17 -2.91434e-17 -7.77156e-16 
-1.52656e-17 1.11022e-17 2.22045e-16 
0 -2.77556e-17 5.55112e-16 
-3.46945e-17 5.55112e-17 -5.55112e-16 
8.32667e-17 -2.91434e-17 -7.77156e-16 
-4.53413e-17 -6.66134e-17 -4.44089e-16 
0 1.73472e-17 4.44089e-16 
0 1.38778e-17 9.99201e-16 
-4.16334e-17 2.08167e-17 3.33067e-16 
5.55112e-17 -1.11022e-16 -2.22045e-16 
-4.16334e-17 2.08167e-17 3.33067e-16 
0 1.38778e-17 9.99201e-16 
0 1.73472e-17 4.44089e-16 
0 0 0 
6.93889e-18 -2.77556e-17 0 
2.77556e-17 5.55112e-17 -6.66134e-16 
-2.77556e-17 0 2.22045e-16 
-5.31693e-17 6.53991e-17 2.22045e-16 
5.55112e-17 -1.11022e-16 -2.22045e-16 
-4.16334e-17 2.08167e-17 3.33067e-16 
0 1.73472e-17 4.44089e-16 
-2.77556e-17 2.32068e-17 -2.22045e-16 
4.16334e-17 1.38778e-17 -1.11022e-16 
-1.38778e-17 -1.38778e-17 -7.77156e-16 
1.38778e-17 -5.55112e-17 -8.88178e-16 
0 0 0 
-3.98986e-17 0 7.77156e-16 
0 2.77556e-17 2.22045e-16 
2.77556e-17 -5.55112e-17 1.44329e-15 
0 8.32667e-17 -4.996e-16 
0 -1.73472e-17 2.77556e-16 
0 0 1.33227e-15 
-2.77556e-17 5.55112e-17 -4.44089e-16 
0 4.16334e-17 2.22045e-16 
2.77556e-17 4.16334e-17 1.33227e-15 
0 0 0 
-1.9082e-17 -5.18249e-17 4.44089e-16 
-1.11022e-16 2.77556e-17 1.77636e-15 
-2.77556e-17 -8.32667e-17 -4.44089e-16 
1.38778e-17 4.16334e-17 -2.22045e-16 
-2.77556e-17 0 2.22045e-16 
-5.31693e-17 6.53991e-17 2.22045e-16 
4.16334e-17 1.38778e-17 -1.11022e-16 
-1.38778e-17 -6.245e-17 -6.66134e-16 
2.77556e-17 0 8.88178e-16 
1.38778e-17 -5.55112e-17 -8.88178e-16 
0 8.32667e-17 3.33067e-16 
1.38778e-17 2.77556e-17 0 
0 2.77556e-17 -2.22045e-16 
0 0 0 
2.77556e-17 -2.77556e-17 0 
0 2.08167e-17 5.55112e-16 
4.85723e-17 0 -8.88178e-16 
-1.38778e-17 2.77556e-17 0 
1.11022e-16 0 -1.11022e-16 
0 5.55112e-17 4.44089e-16 
5.55112e-17 -5.55112e-17 -2.22045e-16 
-1.38778e-16 -1.38778e-17 9.99201e-16 
1.11022e-17 -7.70372e-34 0 
5.55112e-17 1.56125e-17 0 
2.32426e-17 1.587e-17 -8.88178e-16 
1.38778e-18 1.38778e-17 -5.55112e-16 
-2.77556e-17 5.55112e-17 0 
-6.93889e-18 -1.73472e-17 3.33067e-16 
-2.77556e-17 -2.08167e-17 -2.22045e-16 
-2.77556e-17 -5.55112e-17 -4.44089e-16 
-1.9082e-17 -5.18249e-17 4.44089e-16 
1.38778e-17 5.55112e-17 -4.44089e-16 
2.77556e-17 4.16334e-17 1.33227e-15 
-1.11022e-16 2.77556e-17 1.77636e-15 
-2.77556e-17 5.55112e-17 -6.66134e-16 
-1.38778e-17 -6.245e-17 -6.66134e-16 
2.77556e-17 0 8.88178e-16 
4.16334e-17 1.38778e-17 -1.11022e-16 
-2.77556e-17 0 -4.44089e-16 
-2.08167e-17 2.77556e-17 -4.44089e-16 
2.77556e-17 4.16334e-17 5.55112e-17 
-2.77556e-17 5.55112e-17 1.33227e-15 
3.46945e-17 6.93889e-18 -1.11022e-16 
4.16334e-17 -6.93889e-17 3.33067e-16 
5.55112e-17 2.77556e-17 2.22045e-16 
0 1.38778e-17 7.77156e-16 
1.38778e-17 6.93889e-18 0 
1.38778e-17 -2.77556e-17 2.22045e-16 
-5.55112e-17 5.55112e-17 -6.66134e-16 
-5.89806e-17 1.11022e-16 2.22045e-16 
-5.55112e-17 0 -1.11022e-16 
2.77556e-17 2.77556e-17 -2.22045e-16 
-1.38778e-17 4.85723e-17 2.22045e-16 
2.42861e-17 -4.16334e-17 2.22045e-16 
-5.55112e-17 0 -1.11022e-16 
-1.38778e-17 4.85723e-17 2.22045e-16 
1.37043e-17 4.02673e-17 4.44089e-16 
3.46945e-17 6.93889e-18 -1.11022e-16 
3.46945e-17 -5.55112e-17 -2.22045e-16 
5.55112e-17 1.56125e-17 0 
7.21645e-17 -5.55112e-18 0 
8.32667e-17 0 1.22125e-15 
-1.38778e-17 2.77556e-17 -4.44089e-16 
-1.38778e-17 -5.55112e-17 2.22045e-16 
-2.08167e-17 1.11022e-16 3.33067e-16 
-8.67362e-18 -4.16334e-17 -6.66134e-16 
0 -2.77556e-17 -3.33067e-16 
0 -2.77556e-17 9.99201e-16 
-8.32667e-17 -5.55112e-17 4.44089e-16 
-2.77556e-17 2.77556e-17 4.44089e-16 
0 0 4.44089e-16 
-9.71445e-17 -1.11022e-16 -8.88178e-16 
1.38778e-17 -6.93889e-18 2.22045e-16 
-2.77556e-18 -2.498e-17 1.11022e-16 
-1.38778e-17 2.77556e-17 -4.44089e-16 
-1.31839e-17 2.1684e-18 -1.66533e-16 
-1.38778e-17 -2.08167e-17 1.11022e-16 
-8.67362e-18 -4.16334e-17 -6.66134e-16 
2.85145e-17 2.77556e-17 6.66134e-16 
-8.32667e-17 -5.55112e-17 4.44089e-16 
1.38778e-17 2.77556e-17 7.77156e-16 
0 5.55112e-17 0 
-5.55112e-18 1.8735e-17 -2.22045e-16 
-5.10009e-17 -1.04083e-18 5.55112e-17 
-4.16334e-17 0 -4.44089e-16 
0 -2.77556e-17 1.33227e-15 
0 0 2.22045e-16 
-4.85723e-17 0 0 
-4.16334e-17 -3.60904e-17 -8.88178e-16 
-8.32667e-17 -1.38778e-17 1.11022e-16 
-2.21177e-17 0 5.55112e-17 
0 0 -4.44089e-16 
5.55112e-17 -5.55112e-17 4.44089e-16 
2.08167e-17 2.77556e-17 -4.44089e-16 
1.52656e-17 3.98986e-18 4.44089e-16 
0 1.38778e-17 9.99201e-16 
0 1.73472e-17 4.44089e-16 
1.38778e-17 2.77556e-17 4.44089e-16 
1.37043e-17 4.02673e-17 4.44089e-16 
0 8.32667e-17 3.33067e-16 
0 2.77556e-17 -2.22045e-16 
3.46945e-17 6.93889e-18 -1.11022e-16 
3.46945e-17 -5.55112e-17 -2.22045e-16 
2.77556e-17 0 8.88178e-16 
0 0 -4.44089e-16 
2.08167e-17 2.77556e-17 -4.44089e-16 
-5.55112e-17 -1.38778e-17 1.22125e-15 
5.55112e-17 -1.11022e-16 -8.88178e-16 
1.19262e-17 2.94903e-17 -4.16334e-17 
-5.55112e-17 -7.97973e-17 4.44089e-16 
2.77556e-17 4.16334e-17 5.55112e-17 
-2.08167e-17 2.77556e-17 -4.44089e-16 
9.02056e-17 -2.77556e-17 0 
3.95517e-17 -9.71445e-18 0 
2.25514e-17 1.38778e-17 0 
-1.38778e-17 -5.55112e-17 2.22045e-16 
-1.38778e-17 -2.08167e-17 1.11022e-16 
-8.67362e-18 -4.16334e-17 -6.66134e-16 
-2.77556e-18 -2.498e-17 1.11022e-16 
-4.16334e-17 0 -4.44089e-16 
0 0 2.22045e-16 
0 -2.77556e-17 1.33227e-15 
-1.66533e-17 2.35922e-17 0 
-6.93889e-18 -1.73472e-17 3.33067e-16 
-2.77556e-17 5.55112e-17 0 
-2.77556e-17 -5.55112e-17 -4.44089e-16 
-1.38778e-17 2.77556e-17 -4.44089e-16 
-1.38778e-17 -2.08167e-17 1.11022e-16 
-1.38778e-17 -5.55112e-17 2.22045e-16 
-8.67362e-18 -4.16334e-17 -6.66134e-16 
-2.77556e-17 0 -4.44089e-16 
2.77556e-17 4.16334e-17 5.55112e-17 
-2.77556e-17 5.55112e-17 5.55112e-16 
-2.77556e-17 5.55112e-17 1.33227e-15 
1.04083e-16 -5.55112e-17 1.77636e-15 
2.16705e-17 1.49078e-17 8.88178e-16 
0 -5.55112e-17 2.22045e-16 
8.32667e-17 5.55112e-17 -5.55112e-16 
7.21645e-17 -5.55112e-18 0 
2.77556e-17 0 8.88178e-16 
3.46945e-17 -5.55112e-17 -2.22045e-16 
8.32667e-17 0 1.22125e-15 
-1.38778e-17 -1.73472e-17 1.11022e-15 
1.38778e-17 5.55112e-17 -6.10623e-16 
-2.77556e-17 -2.77556e-17 1.11022e-16 
-3.22659e-17 4.34548e-17 4.44089e-16 
5.55112e-17 2.08167e-17 0 
-2.77556e-17 -2.77556e-17 1.11022e-16 
0 0 4.44089e-16 
1.63064e-17 -2.75819e-17 6.66134e-16 
6.58761e-17 4.47559e-17 0 
-1.11022e-16 5.55112e-17 0 
-5.55112e-17 -1.38778e-17 1.22125e-15 
-5.55112e-17 -7.97973e-17 4.44089e-16 
-6.93889e-18 2.77556e-17 -4.44089e-16 
0 0 1.33227e-15 
0 2.77556e-17 2.22045e-16 
-1.38778e-17 8.32667e-17 1.66533e-16 
5.55112e-17 -5.55112e-17 -4.44089e-16 
8.32667e-17 -3.98986e-17 -2.22045e-16 
-2.77556e-17 -5.55112e-17 -2.77556e-16 
1.71711e-17 9.96585e-17 -4.44089e-16 
0 0 2.22045e-16 
-4.16334e-17 0 -4.44089e-16 
-5.10009e-17 -1.04083e-18 5.55112e-17 
0 -2.77556e-17 1.33227e-15 
0 -5.55112e-17 2.22045e-16 
2.16705e-17 1.49078e-17 8.88178e-16 
-8.32667e-17 0 -4.44089e-16 
8.32667e-17 5.55112e-17 -5.55112e-16 
-1.38778e-17 5.55112e-17 5.55112e-17 
4.16334e-17 0 0 
-3.15764e-17 8.84376e-18 0 
-1.38778e-17 2.77556e-17 1.11022e-16 
2.16705e-17 1.49078e-17 8.88178e-16 
8.32667e-17 -3.98986e-17 -2.22045e-16 
-2.77556e-17 -5.55112e-17 -2.77556e-16 
5.55112e-17 -5.55112e-17 -4.44089e-16 
-5.55112e-17 0 4.44089e-16 
6.85216e-18 -1.63498e-17 -3.33067e-16 
2.77556e-17 -3.1225e-17 6.66134e-16 
-1.38778e-16 -1.38778e-17 9.99201e-16 
9.02056e-17 -2.77556e-17 0 
1.38778e-17 6.93889e-18 0 
2.77556e-17 4.16334e-17 5.55112e-17 
3.95517e-17 -9.71445e-18 0 
0 -2.77556e-17 -3.33067e-16 
5.55112e-17 -5.55112e-17 -2.22045e-16 
0 -2.77556e-17 5.55112e-16 
-2.77556e-17 -5.55112e-17 0 
-5.55112e-17 4.16334e-17 0 
-2.77556e-17 -5.55112e-17 2.22045e-16 
-4.16334e-17 5.55112e-17 2.22045e-16 
-2.77556e-17 0 -2.22045e-16 
-2.77556e-17 2.77556e-17 4.44089e-16 
0 -2.77556e-17 9.99201e-16 
-8.32667e-17 -5.55112e-17 4.44089e-16 
-2.77556e-17 0 0 
-1.38778e-17 5.55112e-17 1.11022e-16 
-5.55112e-17 -1.38778e-17 1.22125e-15 
1.11022e-16 2.77556e-17 3.33067e-16 
1.38778e-17 2.77556e-17 -8.88178e-16 
-5.55112e-17 0 -6.66134e-16 
5.55112e-17 -2.90566e-17 6.66134e-16 
0 1.38778e-18 -4.44089e-16 
-1.38778e-17 5.55112e-17 5.55112e-17 
0 1.38778e-17 0 
0 0 -2.22045e-16 
2.77556e-17 0 8.88178e-16 
-8.32667e-17 -4.16334e-17 1.55431e-15 
-4.02456e-17 3.19189e-17 4.44089e-16 
2.77556e-17 5.55112e-17 -1.11022e-16 
0 -1.38778e-17 4.44089e-16 
-1.11022e-16 2.77556e-17 1.77636e-15 
2.77556e-17 0 8.88178e-16 
0 0 -2.22045e-16 
-1.38778e-17 -6.245e-17 -6.66134e-16 
-2.77556e-17 5.55112e-17 -6.66134e-16 
-3.1225e-17 0 0 
3.46945e-17 -5.55112e-17 -2.22045e-16 
0 0 -4.44089e-16 
2.08167e-17 2.77556e-17 -4.44089e-16 
0 0 2.22045e-16 
-1.38778e-17 -6.93889e-18 2.22045e-16 
-9.71445e-17 -1.11022e-16 -8.88178e-16 
-2.77556e-18 -2.498e-17 1.11022e-16 
2.77556e-17 -1.9082e-17 8.88178e-16 
5.55112e-17 -5.55112e-17 4.44089e-16 
0 0 -4.44089e-16 
2.08167e-17 2.77556e-17 -4.44089e-16 
-4.53413e-17 -6.66134e-17 -4.44089e-16 
0 -2.77556e-17 5.55112e-16 
5.55112e-17 -5.55112e-17 -2.22045e-16 
-2.77556e-17 -5.55112e-17 0 
8.32667e-18 8.32667e-17 -7.77156e-16 
-2.77556e-17 5.55112e-17 0 
-2.77556e-17 -2.08167e-17 -2.22045e-16 
-2.77556e-17 -5.55112e-17 -4.44089e-16 
2.42861e-17 -4.16334e-17 2.22045e-16 
-3.53884e-17 -4.85723e-17 2.22045e-16 
0 -2.77556e-17 0 
1.38778e-17 2.77556e-17 7.77156e-16 
3.95517e-17 -9.71445e-18 0 
1.38778e-17 3.46945e-17 1.05471e-15 
1.38778e-17 6.93889e-18 0 
0 5.55112e-17 0 
0 -2.91434e-17 -2.22045e-16 
4.16334e-17 0 0 
-1.38778e-17 5.55112e-17 5.55112e-17 
0 2.77556e-17 0 
2.77556e-17 -5.55112e-17 1.11022e-16 
0 -2.91434e-17 -2.22045e-16 
5.55112e-17 -2.90566e-17 6.66134e-16 
-1.38778e-17 5.55112e-17 5.55112e-17 
0 2.08167e-17 5.55112e-16 
6.93889e-18 1.38778e-17 -5.55112e-17 
-2.77556e-17 2.77556e-17 -1.11022e-16 
2.77556e-17 -2.77556e-17 0 
1.04083e-16 -5.55112e-17 1.77636e-15 
6.245e-17 4.85723e-17 -8.88178e-16 
6.245e-17 -5.55112e-17 2.22045e-16 
8.32667e-17 5.55112e-17 -5.55112e-16 
-5.55112e-17 0 -2.22045e-16 
-7.28584e-17 -5.55112e-17 2.22045e-16 
2.77556e-17 -8.32667e-17 4.44089e-16 
5.55112e-17 5.55112e-17 1.33227e-15 
-6.93889e-17 -6.93889e-18 7.77156e-16 
-8.32667e-17 0 0 
5.55112e-17 -2.90566e-17 6.66134e-16 
2.77556e-17 -5.55112e-17 1.11022e-16 
2.77556e-18 2.63678e-17 -5.55112e-17 
1.80411e-17 -4.68375e-17 1.11022e-16 
2.77556e-17 -3.1225e-17 6.66134e-16 
-1.38778e-16 -1.38778e-17 9.99201e-16 
7.28584e-18 -6.07153e-18 1.11022e-16 
-9.71445e-17 -1.11022e-16 -8.88178e-16 
1.38778e-17 -6.93889e-18 2.22045e-16 
-1.38778e-17 -5.55112e-17 2.22045e-16 
-1.9082e-17 -5.18249e-17 4.44089e-16 
0 0 0 
2.77556e-17 -5.55112e-17 -4.44089e-16 
-1.11022e-16 2.77556e-17 1.77636e-15 
2.77556e-17 -3.1225e-17 6.66134e-16 
-1.38778e-16 -1.38778e-17 9.99201e-16 
1.80411e-17 -4.68375e-17 1.11022e-16 
0 -1.11022e-16 4.44089e-16 
-8.32667e-17 0 -4.44089e-16 
8.32667e-17 -3.98986e-17 -2.22045e-16 
-2.77556e-17 -5.55112e-17 -2.77556e-16 
2.16705e-17 1.49078e-17 8.88178e-16 
0 -2.77556e-17 -3.33067e-16 
5.55112e-17 -5.55112e-17 -2.22045e-16 
-2.77556e-17 -5.55112e-17 0 
-1.38778e-16 -1.38778e-17 9.99201e-16 
-5.55112e-17 5.55112e-17 -6.66134e-16 
1.38778e-17 3.46945e-17 1.05471e-15 
1.38778e-17 6.93889e-18 0 
3.95517e-17 -9.71445e-18 0 
6.245e-17 -1.38778e-17 -2.22045e-16 
-2.77556e-17 -5.55112e-17 -2.77556e-16 
8.32667e-17 -3.98986e-17 -2.22045e-16 
1.71711e-17 9.96585e-17 -4.44089e-16 
-2.77556e-17 -8.32667e-17 -4.44089e-16 
-4.16334e-17 5.55112e-17 2.22045e-16 
1.38778e-17 4.16334e-17 -2.22045e-16 
8.32667e-18 8.32667e-17 -7.77156e-16 
0 1.73472e-17 4.44089e-16 
0 1.38778e-17 9.99201e-16 
-4.16334e-17 -5.55112e-17 -4.44089e-16 
1.38778e-17 2.77556e-17 4.44089e-16 
-2.77556e-17 -6.93889e-17 2.22045e-16 
5.55112e-17 5.55112e-17 0 
1.11022e-16 -2.77556e-17 -8.88178e-16 
2.77556e-17 1.38778e-17 4.44089e-16 
-5.55112e-17 -1.38778e-17 1.22125e-15 
1.19262e-17 2.94903e-17 -4.16334e-17 
-4.85723e-17 -6.93889e-17 0 
-5.55112e-17 -7.97973e-17 4.44089e-16 
2.77556e-17 0 8.88178e-16 
0 -2.91434e-17 -2.22045e-16 
2.77556e-17 -5.55112e-17 1.11022e-16 
0 2.77556e-17 0 
3.46945e-17 -6.93889e-17 2.22045e-16 
-1.38778e-17 2.77556e-17 1.11022e-16 
-2.77556e-17 0 0 
-1.38778e-17 0 -4.44089e-16 
-2.77556e-17 0 -2.22045e-16 
0 8.32667e-17 -4.996e-16 
-9.36751e-17 -5.55112e-17 -2.22045e-16 
1.11022e-16 1.38778e-17 8.88178e-16 
-2.08167e-17 2.77556e-17 -4.44089e-16 
2.77556e-17 4.16334e-17 5.55112e-17 
-2.77556e-17 5.55112e-17 1.33227e-15 
3.95517e-17 -9.71445e-18 0 
1.38778e-17 4.16334e-17 -2.22045e-16 
-2.77556e-17 -2.08167e-17 -2.22045e-16 
-6.93889e-18 -1.73472e-17 3.33067e-16 
-2.77556e-17 -5.55112e-17 -4.44089e-16 
4.16334e-17 0 0 
0 -2.91434e-17 -2.22045e-16 
2.77556e-17 0 8.88178e-16 
0 2.77556e-17 0 
6.93889e-17 0 0 
2.77556e-17 0 0 
5.27356e-17 -1.21431e-17 -2.77556e-16 
-4.16334e-17 0 -4.44089e-16 
6.93889e-18 1.38778e-17 -5.55112e-17 
2.77556e-17 0 6.66134e-16 
-2.77556e-17 2.77556e-17 -1.11022e-16 
2.77556e-17 -2.77556e-17 0 
0 1.38778e-17 9.99201e-16 
-6.93889e-18 -1.73472e-17 3.33067e-16 
-4.16334e-17 -5.55112e-17 -4.44089e-16 
1.38778e-17 2.77556e-17 4.44089e-16 
6.245e-17 -5.55112e-17 2.22045e-16 
5.55112e-17 2.77556e-17 8.88178e-16 
1.38778e-17 -5.55112e-17 0 
1.38778e-17 -2.77556e-17 2.22045e-16 
0 0 -4.44089e-16 
2.77556e-17 0 8.88178e-16 
2.77556e-17 -1.9082e-17 8.88178e-16 
2.08167e-17 2.77556e-17 -4.44089e-16 
2.77556e-17 0 0 
5.27356e-17 -1.21431e-17 -2.77556e-16 
-4.16334e-17 0 -4.44089e-16 
0 -1.11022e-16 4.44089e-16 
0 0 -2.22045e-16 
-6.93889e-17 -4.16334e-17 5.55112e-16 
0 1.38778e-17 9.99201e-16 
5.20417e-17 1.11022e-16 8.88178e-16 
-2.77556e-17 5.55112e-17 5.55112e-16 
-2.77556e-17 0 -4.44089e-16 
-2.77556e-17 5.55112e-17 1.33227e-15 
5.55112e-17 8.32667e-17 -1.11022e-16 
-4.02456e-17 3.19189e-17 4.44089e-16 
1.04083e-17 -2.77556e-17 0 
-1.66533e-17 -6.93889e-18 9.4369e-16 
0 -1.38778e-17 4.44089e-16 
2.77556e-17 0 8.88178e-16 
7.21645e-17 -5.55112e-18 0 
4.16334e-17 0 0 
0 2.77556e-17 0 
5.55112e-17 -2.90566e-17 6.66134e-16 
-2.63678e-17 -4.02456e-17 1.33227e-15 
-8.32667e-17 0 0 
-5.55112e-17 0 -6.66134e-16 
4.16334e-17 1.38778e-17 -1.11022e-16 
-2.77556e-17 -2.08167e-17 5.55112e-17 
-1.38778e-17 -6.245e-17 -6.66134e-16 
1.38778e-17 -5.55112e-17 -8.88178e-16 
5.55112e-17 1.56125e-17 0 
7.21645e-17 -5.55112e-18 0 
8.32667e-17 0 1.22125e-15 
-1.38778e-17 -8.32667e-17 -4.44089e-16 
2.77556e-17 0 8.88178e-16 
0 -2.91434e-17 -2.22045e-16 
2.77556e-17 -1.9082e-17 8.88178e-16 
2.77556e-17 -5.55112e-17 1.11022e-16 
-1.38778e-17 2.77556e-17 -4.44089e-16 
-8.67362e-18 -4.16334e-17 -6.66134e-16 
-2.08167e-17 1.11022e-16 3.33067e-16 
2.77556e-17 0 4.44089e-16 
-2.77556e-17 5.55112e-17 1.33227e-15 
2.77556e-17 4.16334e-17 5.55112e-17 
-2.77556e-17 5.55112e-17 5.55112e-16 
-2.77556e-17 0 0 
2.77556e-17 4.16334e-17 1.33227e-15 
4.16334e-17 1.38778e-17 -1.11022e-16 
-1.9082e-17 -5.18249e-17 4.44089e-16 
0 0 0 
-1.38778e-17 -1.38778e-17 -7.77156e-16 
0 -3.46945e-18 6.66134e-16 
-1.04083e-17 -1.56125e-17 0 
2.77556e-17 0 0 
0 0 4.44089e-16 
-2.77556e-17 -2.77556e-17 1.11022e-16 
8.32667e-17 -2.77556e-17 6.66134e-16 
1.63064e-17 -2.75819e-17 6.66134e-16 
-8.32667e-17 -5.55112e-17 4.44089e-16 
1.38778e-17 2.77556e-17 7.77156e-16 
0 -2.77556e-17 -3.33067e-16 
2.85145e-17 2.77556e-17 6.66134e-16 
2.77556e-17 0 0 
-2.77556e-17 -5.55112e-17 -2.77556e-16 
6.245e-17 -1.38778e-17 -2.22045e-16 
1.71711e-17 9.96585e-17 -4.44089e-16 
1.38778e-17 1.38778e-17 2.22045e-16 
-2.77556e-17 5.55112e-17 -4.44089e-16 
0 -3.46945e-18 6.66134e-16 
-2.77556e-17 -2.08167e-17 5.55112e-17 
2.77556e-17 0 0 
0 -3.46945e-18 6.66134e-16 
-1.04083e-17 -1.56125e-17 0 
1.71711e-17 9.96585e-17 -4.44089e-16 
7.21645e-17 -5.55112e-18 0 
2.77556e-17 0 8.88178e-16 
8.32667e-17 0 1.22125e-15 
0 2.77556e-17 0 
1.38778e-17 4.16334e-17 -2.22045e-16 
-3.98986e-17 0 7.77156e-16 
-4.16334e-17 5.55112e-17 2.22045e-16 
-2.77556e-17 -8.32667e-17 -4.44089e-16 
1.0339e-16 -1.94289e-17 0 
2.77556e-17 -8.32667e-17 4.44089e-16 
8.32667e-17 -2.77556e-17 6.66134e-16 
-5.55112e-17 0 -2.22045e-16 
4.85723e-17 0 -8.88178e-16 
1.11022e-16 1.11022e-16 4.44089e-16 
-4.16334e-17 2.08167e-17 3.33067e-16 
-3.53016e-17 -1.45229e-17 0 
-2.77556e-17 -2.08167e-17 5.55112e-17 
4.16334e-17 1.38778e-17 -1.11022e-16 
-1.38778e-17 -1.38778e-17 -7.77156e-16 
1.38778e-17 -5.55112e-17 -8.88178e-16 
6.245e-17 4.85723e-17 -8.88178e-16 
1.04083e-16 -5.55112e-17 1.77636e-15 
0 -5.55112e-17 2.22045e-16 
8.32667e-17 5.55112e-17 -5.55112e-16 
-2.77556e-17 5.55112e-17 1.33227e-15 
0 -2.77556e-17 5.55112e-16 
2.77556e-17 4.16334e-17 5.55112e-17 
-2.77556e-17 0 0 
-5.55112e-17 2.77556e-17 0 
8.32667e-17 -4.16334e-17 4.44089e-16 
-8.32667e-17 5.55112e-17 3.33067e-16 
-8.67362e-18 -4.16334e-17 -6.66134e-16 
-5.55112e-17 0 4.44089e-16 
0 -2.77556e-17 -3.33067e-16 
6.85216e-18 -1.63498e-17 -3.33067e-16 
-1.38778e-16 -1.38778e-17 9.99201e-16 
1.0339e-16 -1.94289e-17 0 
6.93889e-17 1.11022e-16 -1.11022e-16 
5.55112e-17 -1.11022e-16 -2.22045e-16 
2.77556e-17 1.11022e-16 6.66134e-16 
-2.77556e-17 -2.08167e-17 -2.22045e-16 
-4.16334e-17 5.55112e-17 2.22045e-16 
1.11022e-16 -2.77556e-17 -8.88178e-16 
2.77556e-17 1.38778e-17 4.44089e-16 
1.0339e-16 -1.94289e-17 0 
-4.51028e-17 5.55112e-17 -3.33067e-16 
2.77556e-17 -8.32667e-17 4.44089e-16 
-7.28584e-17 -5.55112e-17 2.22045e-16 
9.02056e-17 -2.77556e-17 0 
-5.89806e-17 1.11022e-16 2.22045e-16 
1.38778e-17 6.93889e-18 0 
3.95517e-17 -9.71445e-18 0 
1.38778e-17 -2.77556e-17 -9.99201e-16 
0 -2.77556e-17 9.99201e-16 
0 -2.77556e-17 5.55112e-16 
-2.77556e-17 2.77556e-17 4.44089e-16 
3.1225e-17 3.46945e-17 0 
-2.77556e-17 -2.77556e-17 2.22045e-16 
1.21431e-17 -3.46945e-17 8.88178e-16 
4.16334e-17 2.77556e-17 -6.66134e-16 
-2.77556e-17 0 -2.22045e-16 
-2.77556e-17 -5.55112e-17 2.22045e-16 
-4.16334e-17 5.55112e-17 2.22045e-16 
1.11022e-16 1.38778e-17 8.88178e-16 
-3.53884e-17 -4.85723e-17 2.22045e-16 
1.38778e-17 2.77556e-17 7.77156e-16 
1.38778e-17 3.46945e-17 1.05471e-15 
0 5.55112e-17 0 
0 -5.55112e-17 -4.44089e-16 
5.55112e-17 2.77556e-17 5.55112e-16 
5.55112e-17 -5.55112e-17 -4.44089e-16 
0 0 4.44089e-16 
1.11022e-16 0 -1.11022e-16 
-3.46945e-17 5.55112e-17 -5.55112e-16 
5.55112e-17 -5.55112e-17 -2.22045e-16 
0 5.55112e-17 4.44089e-16 
-6.93889e-17 -6.93889e-18 7.77156e-16 
5.55112e-17 -5.55112e-17 4.44089e-16 
-8.32667e-17 0 0 
2.77556e-17 -5.55112e-17 1.11022e-16 
-2.77556e-17 5.55112e-17 -6.66134e-16 
0 0 1.33227e-15 
-1.38778e-17 -6.245e-17 -6.66134e-16 
0 -1.73472e-17 2.77556e-16 
-5.55112e-17 0 0 
0 -1.73472e-17 2.77556e-16 
-2.77556e-17 5.55112e-17 -4.44089e-16 
0 4.16334e-17 2.22045e-16 
1.38778e-17 2.77556e-17 7.77156e-16 
-3.53884e-17 -4.85723e-17 2.22045e-16 
0 -2.77556e-17 0 
2.85145e-17 2.77556e-17 6.66134e-16 
-1.38778e-17 2.77556e-17 0 
-2.77556e-17 2.77556e-17 -1.11022e-16 
0 2.08167e-17 5.55112e-16 
6.58761e-17 4.47559e-17 0 
-5.55112e-17 -1.38778e-17 1.22125e-15 
-4.85723e-17 -6.93889e-17 0 
-8.32667e-17 -3.46945e-17 0 
-5.55112e-17 -7.97973e-17 4.44089e-16 
1.38778e-17 2.77556e-17 -8.88178e-16 
-1.38778e-17 5.55112e-17 1.11022e-16 
8.32667e-17 -2.91434e-17 -7.77156e-16 
5.55112e-17 -5.55112e-17 4.44089e-16 
0 2.77556e-17 -4.44089e-16 
-9.71445e-17 -1.11022e-16 -8.88178e-16 
7.28584e-18 -6.07153e-18 1.11022e-16 
-1.38778e-17 -5.55112e-17 2.22045e-16 
6.93889e-17 -3.1225e-17 1.11022e-16 
2.15106e-17 -3.33067e-17 8.88178e-16 
0 0 4.44089e-16 
0 2.77556e-17 -2.22045e-16 
1.38778e-17 5.55112e-17 -6.10623e-16 
0 -2.08167e-17 0 
-1.38778e-17 1.04083e-17 5.55112e-16 
-3.22659e-17 4.34548e-17 4.44089e-16 
1.37043e-17 4.02673e-17 4.44089e-16 
2.15106e-17 -3.33067e-17 8.88178e-16 
-5.55112e-17 0 -1.11022e-16 
0 2.77556e-17 -2.22045e-16 
1.38778e-17 2.77556e-17 7.77156e-16 
-3.53884e-17 -4.85723e-17 2.22045e-16 
2.85145e-17 2.77556e-17 6.66134e-16 
0 5.55112e-17 0 
-3.1225e-17 0 0 
-9.71445e-17 -5.55112e-17 6.66134e-16 
3.46945e-17 -5.55112e-17 -2.22045e-16 
8.32667e-17 0 1.22125e-15 
5.20417e-18 0 -4.44089e-16 
-3.19189e-17 2.63678e-17 2.77556e-17 
5.55112e-17 0 -4.44089e-16 
2.77556e-17 0 4.44089e-16 
-5.55112e-17 0 4.44089e-16 
4.16334e-17 -6.93889e-17 3.33067e-16 
0 2.08167e-17 -2.22045e-16 
1.38778e-17 2.77556e-17 7.77156e-16 
-5.55112e-17 3.46945e-18 6.66134e-16 
7.21645e-17 -5.55112e-18 0 
8.32667e-17 0 7.77156e-16 
-1.38778e-17 -8.32667e-17 -4.44089e-16 
0 0 1.33227e-15 
-2.77556e-17 5.55112e-17 -4.44089e-16 
-1.38778e-17 -6.245e-17 -6.66134e-16 
0 -1.73472e-17 2.77556e-16 
0 0 4.44089e-16 
-2.77556e-17 -5.55112e-17 -2.77556e-16 
5.55112e-17 -5.55112e-17 -4.44089e-16 
6.93889e-17 -3.1225e-17 1.11022e-16 
-3.53884e-17 -4.85723e-17 2.22045e-16 
-5.55112e-17 0 0 
-5.55112e-17 5.55112e-17 -6.66134e-16 
1.38778e-17 3.46945e-17 1.05471e-15 
6.245e-17 4.85723e-17 -8.88178e-16 
5.55112e-17 2.77556e-17 8.88178e-16 
1.38778e-17 -5.55112e-17 0 
6.245e-17 -5.55112e-17 2.22045e-16 
2.42861e-17 -4.16334e-17 2.22045e-16 
-5.55112e-17 0 0 
-3.53884e-17 -4.85723e-17 2.22045e-16 
1.38778e-17 3.46945e-17 1.05471e-15 
-2.77556e-17 0 -2.22045e-16 
-4.16334e-17 5.55112e-17 2.22045e-16 
0 8.32667e-17 -4.996e-16 
1.11022e-16 1.38778e-17 8.88178e-16 
0 8.32667e-17 -4.996e-16 
-3.98986e-17 0 7.77156e-16 
0 2.77556e-17 2.22045e-16 
1.11022e-16 1.38778e-17 8.88178e-16 
6.93889e-17 1.11022e-16 -1.11022e-16 
-1.38778e-17 1.04083e-17 5.55112e-16 
-6.02816e-17 -4.16334e-17 0 
2.77556e-17 1.11022e-16 6.66134e-16 
-1.38778e-17 0 -4.44089e-16 
-8.32667e-17 5.55112e-17 3.33067e-16 
2.98372e-17 2.84495e-17 0 
-8.67362e-18 -4.16334e-17 -6.66134e-16 
1.38778e-17 4.16334e-17 -2.22045e-16 
-6.93889e-17 -4.16334e-17 5.55112e-16 
-2.77556e-17 0 2.22045e-16 
-5.31693e-17 6.53991e-17 2.22045e-16 
1.11022e-16 -2.77556e-17 -8.88178e-16 
-2.77556e-17 -5.55112e-17 2.22045e-16 
-2.77556e-17 -6.93889e-17 2.22045e-16 
2.77556e-17 1.38778e-17 4.44089e-16 
-5.55112e-17 5.55112e-17 -6.66134e-16 
1.38778e-17 3.46945e-17 1.05471e-15 
3.95517e-17 -9.71445e-18 0 
0 5.55112e-17 0 
-4.16334e-17 2.08167e-17 3.33067e-16 
-6.02816e-17 -4.16334e-17 0 
4.85723e-17 0 -8.88178e-16 
1.38778e-17 0 5.55112e-17 
-8.32667e-17 -5.55112e-17 4.44089e-16 
0 -2.77556e-17 -3.33067e-16 
-2.77556e-17 2.77556e-17 4.44089e-16 
6.85216e-18 -1.63498e-17 -3.33067e-16 
2.32426e-17 1.587e-17 -8.88178e-16 
-9.71445e-17 -5.55112e-17 6.66134e-16 
6.93889e-17 6.93889e-17 0 
5.55112e-17 -1.11022e-16 2.22045e-16 
-2.77556e-17 -8.32667e-17 -4.44089e-16 
-3.98986e-17 0 7.77156e-16 
-4.16334e-17 5.55112e-17 2.22045e-16 
1.11022e-16 1.38778e-17 8.88178e-16 
-8.32667e-17 9.71445e-17 2.77556e-16 
-9.71445e-17 -5.55112e-17 6.66134e-16 
-3.1225e-17 0 0 
8.32667e-17 0 1.22125e-15 
0 2.77556e-17 -4.44089e-16 
1.38778e-17 -6.93889e-18 2.22045e-16 
7.28584e-18 -6.07153e-18 1.11022e-16 
-9.71445e-17 -1.11022e-16 -8.88178e-16 
0 0 -2.22045e-16 
2.32426e-17 1.587e-17 -8.88178e-16 
0 0 1.33227e-15 
0 2.77556e-17 2.22045e-16 
-2.77556e-17 5.55112e-17 -6.66134e-16 
0 0 -2.22045e-16 
0 0 1.33227e-15 
0 2.77556e-17 2.22045e-16 
-2.77556e-17 0 2.22045e-16 
-6.93889e-17 -4.16334e-17 5.55112e-16 
-2.42861e-17 -5.55112e-17 -1.11022e-16 
-2.77556e-17 1.52656e-17 8.88178e-16 
-8.32667e-17 -5.55112e-17 4.44089e-16 
0 -2.77556e-17 5.55112e-16 
1.38778e-17 2.77556e-17 7.77156e-16 
0 5.55112e-17 0 
8.32667e-18 8.32667e-17 -7.77156e-16 
-2.77556e-17 -8.32667e-17 -4.44089e-16 
-4.16334e-17 5.55112e-17 2.22045e-16 
1.11022e-16 1.38778e-17 8.88178e-16 
2.25514e-17 1.38778e-17 0 
3.46945e-18 -2.77556e-17 0 
-1.38778e-17 -5.55112e-17 2.22045e-16 
-8.67362e-18 -4.16334e-17 -6.66134e-16 
1.38778e-17 -2.77556e-17 -9.99201e-16 
0 -2.77556e-17 9.99201e-16 
-2.77556e-17 2.77556e-17 4.44089e-16 
-5.55112e-17 5.55112e-17 0 
-2.77556e-17 5.55112e-17 0 
-5.55112e-17 0 -5.55112e-16 
-6.93889e-18 -1.73472e-17 3.33067e-16 
-7.28584e-17 -5.55112e-17 2.22045e-16 
-2.77556e-17 -5.55112e-17 2.22045e-16 
1.11022e-16 -2.77556e-17 -8.88178e-16 
-4.16334e-17 5.55112e-17 2.22045e-16 
2.77556e-17 1.38778e-17 4.44089e-16 
0 2.77556e-17 2.22045e-16 
0 0 1.33227e-15 
-2.77556e-17 5.55112e-17 -6.66134e-16 
-1.38778e-17 8.32667e-17 1.66533e-16 
2.77556e-17 -5.55112e-17 1.44329e-15 
-6.93889e-17 -6.93889e-18 7.77156e-16 
-2.63678e-17 -4.02456e-17 1.33227e-15 
-5.55112e-17 0 -6.66134e-16 
-1.38778e-17 0 -4.44089e-16 
-1.38778e-17 2.77556e-17 1.11022e-16 
2.98372e-17 2.84495e-17 0 
-8.32667e-17 5.55112e-17 3.33067e-16 
5.55112e-17 8.32667e-17 -1.11022e-16 
-5.55112e-17 -2.77556e-17 1.11022e-16 
1.38778e-17 2.77556e-17 0 
-5.55112e-17 5.55112e-17 0 
6.58761e-17 4.47559e-17 0 
-1.38778e-17 5.55112e-17 1.11022e-16 
8.32667e-17 -2.91434e-17 -7.77156e-16 
1.38778e-17 2.77556e-17 -8.88178e-16 
1.38778e-18 1.38778e-17 -5.55112e-16 
2.32426e-17 1.587e-17 -8.88178e-16 
0 0 -2.22045e-16 
0 2.77556e-17 2.22045e-16 
0 0 4.44089e-16 
5.55112e-17 2.77556e-17 5.55112e-16 
-2.77556e-17 -5.55112e-17 -2.77556e-16 
6.93889e-17 -3.1225e-17 1.11022e-16 
8.32667e-17 -4.16334e-17 4.44089e-16 
-5.55112e-17 2.77556e-17 0 
-8.32667e-17 5.55112e-17 3.33067e-16 
2.77556e-17 4.16334e-17 1.33227e-15 
-6.93889e-18 -1.38778e-17 0 
-2.77556e-17 -2.77556e-17 2.22045e-16 
2.77556e-17 0 0 
-4.16334e-17 0 -4.44089e-16 
-2.08167e-17 1.38778e-17 -8.88178e-16 
-2.77556e-18 -2.498e-17 1.11022e-16 
0 0 -2.22045e-16 
2.77556e-17 0 4.44089e-16 
-6.93889e-17 -6.93889e-18 7.77156e-16 
5.55112e-17 -2.90566e-17 6.66134e-16 
-8.32667e-17 0 0 
-5.55112e-17 0 -6.66134e-16 
3.46945e-18 -2.77556e-17 0 
2.25514e-17 1.38778e-17 0 
-1.38778e-17 -5.55112e-17 2.22045e-16 
4.16334e-17 2.77556e-17 -6.66134e-16 
0 -2.77556e-17 5.55112e-16 
1.38778e-17 -2.77556e-17 -9.99201e-16 
-2.77556e-17 2.77556e-17 4.44089e-16 
5.55112e-17 -5.55112e-17 4.44089e-16 
-8.32667e-17 -4.16334e-17 1.55431e-15 
0 1.38778e-17 0 
0 0 -2.22045e-16 
1.38778e-18 1.38778e-17 -5.55112e-16 
-2.77556e-17 -6.93889e-17 2.22045e-16 
-2.77556e-17 -5.55112e-17 2.22045e-16 
1.11022e-16 -2.77556e-17 -8.88178e-16 
-5.55112e-17 4.16334e-17 0 
0 0 -2.22045e-16 
-2.77556e-17 5.55112e-17 -6.66134e-16 
1.38778e-18 1.38778e-17 -5.55112e-16 
0 2.77556e-17 2.22045e-16 
1.38778e-17 -5.55112e-17 0 
-5.55112e-17 0 0 
6.245e-17 -5.55112e-17 2.22045e-16 
1.38778e-17 -2.77556e-17 2.22045e-16 
-1.38778e-17 -6.93889e-18 2.22045e-16 
0 6.93889e-18 -1.11022e-16 
0 0 4.44089e-16 
-2.77556e-18 -2.498e-17 1.11022e-16 
0 -2.77556e-17 9.99201e-16 
0 -2.77556e-17 5.55112e-16 
-8.32667e-17 -5.55112e-17 4.44089e-16 
-2.77556e-17 0 0 
5.55112e-17 2.77556e-17 5.55112e-16 
2.77556e-17 0 0 
-1.38778e-17 -1.38778e-17 -7.77156e-16 
0 -5.55112e-17 -4.44089e-16 
4.16334e-17 1.38778e-17 -1.11022e-16 
2.77556e-17 0 8.88178e-16 
-8.32667e-17 -4.16334e-17 1.55431e-15 
2.77556e-17 4.16334e-17 1.33227e-15 
1.38778e-17 2.77556e-17 0 
-2.77556e-17 -4.85723e-17 -2.22045e-16 
-5.55112e-17 -2.77556e-17 1.11022e-16 
5.55112e-17 8.32667e-17 -1.11022e-16 
0 6.93889e-18 -1.11022e-16 
-9.06393e-18 5.89806e-18 -3.33067e-16 
1.9082e-17 4.16334e-17 3.33067e-16 
-2.77556e-18 -2.498e-17 1.11022e-16 
2.08167e-17 2.77556e-17 -4.44089e-16 
3.46945e-17 -5.55112e-17 -2.22045e-16 
2.77556e-17 0 8.88178e-16 
8.32667e-17 0 1.22125e-15 
-8.32667e-17 0 0 
2.60209e-18 -2.32019e-17 4.44089e-16 
-4.16334e-17 0 5.55112e-17 
-6.93889e-17 -6.93889e-18 7.77156e-16 
6.245e-17 4.85723e-17 -8.88178e-16 
1.38778e-17 -5.55112e-17 0 
1.04083e-16 -5.55112e-17 1.77636e-15 
6.245e-17 -5.55112e-17 2.22045e-16 
-2.21177e-17 0 5.55112e-17 
-3.1225e-17 0 0 
0 0 -4.44089e-16 
2.08167e-17 2.77556e-17 -4.44089e-16 
5.55112e-17 5.55112e-17 0 
0 4.16334e-17 0 
2.77556e-17 -8.32667e-17 4.44089e-16 
5.55112e-17 5.55112e-17 1.33227e-15 
-2.77556e-17 5.55112e-17 1.33227e-15 
2.77556e-17 4.16334e-17 5.55112e-17 
0 -2.77556e-17 5.55112e-16 
0 5.55112e-17 0 
-2.77556e-17 0 2.22045e-16 
2.77556e-17 5.55112e-17 -6.66134e-16 
-3.98986e-17 0 7.77156e-16 
-2.77556e-17 -8.32667e-17 -4.44089e-16 
2.77556e-17 1.38778e-17 4.44089e-16 
1.11022e-16 -2.77556e-17 -8.88178e-16 
-5.55112e-17 0 -5.55112e-16 
5.55112e-17 5.55112e-17 1.33227e-15 
-6.93889e-17 -6.93889e-18 7.77156e-16 
-8.32667e-17 0 0 
-2.63678e-17 -4.02456e-17 1.33227e-15 
-5.55112e-17 0 -6.66134e-16 
-2.77556e-17 5.55112e-17 0 
-2.77556e-17 -2.08167e-17 -2.22045e-16 
-5.55112e-17 0 -5.55112e-16 
2.77556e-17 1.38778e-17 4.44089e-16 
-6.93889e-18 2.77556e-17 -4.44089e-16 
0 0 1.33227e-15 
2.32426e-17 1.587e-17 -8.88178e-16 
0 2.77556e-17 2.22045e-16 
-2.08167e-17 1.38778e-17 -8.88178e-16 
1.9082e-17 4.16334e-17 3.33067e-16 
-2.77556e-18 -2.498e-17 1.11022e-16 
2.77556e-17 0 4.44089e-16 
3.46945e-18 -8.32667e-18 2.77556e-17 
-1.38778e-17 -2.08167e-17 1.11022e-16 
2.25514e-17 1.38778e-17 0 
-1.38778e-17 -5.55112e-17 2.22045e-16 
0 2.77556e-17 2.22045e-16 
2.77556e-17 -5.55112e-17 1.44329e-15 
-5.55112e-17 0 -6.66134e-16 
-3.98986e-17 0 7.77156e-16 
3.1225e-17 3.46945e-17 0 
3.05311e-17 2.25514e-17 -3.33067e-16 
-4.69131e-18 -1.36761e-17 -1.11022e-16 
4.16334e-17 2.77556e-17 -6.66134e-16 
0 0 2.22045e-16 
0 -2.08167e-17 0 
-4.85723e-17 0 0 
-8.32667e-17 -1.38778e-17 1.11022e-16 
5.55112e-17 2.08167e-17 0 
1.38778e-17 5.55112e-17 -6.10623e-16 
-2.77556e-17 -2.77556e-17 1.11022e-16 
-1.38778e-17 -1.73472e-17 1.11022e-15 
-1.38778e-17 5.55112e-17 1.11022e-16 
0 -2.77556e-17 5.55112e-16 
8.32667e-17 -2.91434e-17 -7.77156e-16 
5.55112e-17 -5.55112e-17 4.44089e-16 
-5.55112e-17 -2.77556e-17 1.11022e-16 
-2.77556e-17 -4.85723e-17 -2.22045e-16 
-2.77556e-17 0 -4.44089e-16 
5.55112e-17 8.32667e-17 -1.11022e-16 
-1.38778e-17 -6.93889e-18 2.22045e-16 
1.38778e-17 -6.93889e-18 2.22045e-16 
-9.71445e-17 -1.11022e-16 -8.88178e-16 
-2.77556e-18 -2.498e-17 1.11022e-16 
-2.77556e-17 -2.08167e-17 -2.22045e-16 
1.38778e-17 4.16334e-17 -2.22045e-16 
8.32667e-18 8.32667e-17 -7.77156e-16 
-2.77556e-17 -5.55112e-17 -4.44089e-16 
-6.93889e-18 -1.73472e-17 3.33067e-16 
0 1.38778e-17 9.99201e-16 
-6.93889e-17 -4.16334e-17 5.55112e-16 
1.38778e-17 2.77556e-17 4.44089e-16 
1.11022e-16 2.77556e-17 3.33067e-16 
-4.85723e-17 -6.93889e-17 0 
-8.32667e-17 -3.46945e-17 0 
-5.55112e-17 -1.38778e-17 1.22125e-15 
-1.38778e-17 -6.245e-17 -6.66134e-16 
-2.77556e-17 5.55112e-17 -6.66134e-16 
0 -1.73472e-17 2.77556e-16 
-2.77556e-17 -2.08167e-17 5.55112e-17 
0 2.77556e-17 -2.22045e-16 
1.38778e-17 2.77556e-17 0 
-1.38778e-17 -1.38778e-17 -7.77156e-16 
0 0 0 
-5.55112e-17 2.77556e-17 0 
3.46945e-18 -2.77556e-17 0 
-8.67362e-18 -4.16334e-17 -6.66134e-16 
4.16334e-17 2.77556e-17 -6.66134e-16 
6.93889e-18 1.38778e-17 -5.55112e-17 
0 2.08167e-17 5.55112e-16 
-6.02816e-17 -4.16334e-17 0 
2.77556e-17 -2.77556e-17 0 
0 -2.77556e-17 9.99201e-16 
0 -2.77556e-17 5.55112e-16 
0 -2.77556e-17 -3.33067e-16 
-8.32667e-17 -5.55112e-17 4.44089e-16 
1.38778e-17 -2.77556e-17 -9.99201e-16 
-2.77556e-17 2.77556e-17 4.44089e-16 
5.55112e-17 -5.55112e-17 4.44089e-16 
-5.55112e-17 5.55112e-17 0 
2.77556e-17 0 6.66134e-16 
-6.02816e-17 -4.16334e-17 0 
-1.38778e-17 1.04083e-17 5.55112e-16 
2.77556e-17 1.11022e-16 6.66134e-16 
6.245e-17 -1.38778e-17 -2.22045e-16 
0 -3.46945e-18 6.66134e-16 
2.77556e-17 0 0 
1.71711e-17 9.96585e-17 -4.44089e-16 
6.93889e-17 1.11022e-16 -1.11022e-16 
-4.16334e-17 2.08167e-17 3.33067e-16 
5.55112e-17 -1.11022e-16 -2.22045e-16 
2.77556e-17 1.11022e-16 6.66134e-16 
0 0 4.44089e-16 
1.37043e-17 4.02673e-17 4.44089e-16 
1.38778e-17 2.77556e-17 0 
0 2.77556e-17 -2.22045e-16 
6.93889e-17 6.93889e-17 0 
-9.71445e-17 -5.55112e-17 6.66134e-16 
-8.32667e-17 9.71445e-17 2.77556e-16 
5.55112e-17 -1.11022e-16 2.22045e-16 
2.77556e-17 -2.77556e-17 0 
-2.77556e-17 2.77556e-17 -1.11022e-16 
0 2.08167e-17 5.55112e-16 
-1.38778e-17 2.77556e-17 0 
0 -2.77556e-17 0 
-5.55112e-17 0 0 
-3.53884e-17 -4.85723e-17 2.22045e-16 
2.42861e-17 -4.16334e-17 2.22045e-16 
1.38778e-17 3.46945e-17 -4.44089e-16 
0 -1.11022e-16 4.44089e-16 
-1.38778e-17 0 -1.11022e-16 
0 -1.38778e-17 4.44089e-16 
1.38778e-17 3.46945e-17 -4.44089e-16 
1.17961e-17 -4.16334e-18 0 
-1.38778e-17 0 -1.11022e-16 
0 -1.11022e-16 4.44089e-16 
-4.16334e-17 -5.55112e-17 -4.44089e-16 
-6.93889e-18 -1.73472e-17 3.33067e-16 
-4.51028e-17 5.55112e-17 -3.33067e-16 
-7.28584e-17 -5.55112e-17 2.22045e-16 
-2.77556e-17 -2.77556e-17 1.11022e-16 
5.55112e-17 2.08167e-17 0 
-1.38778e-17 -1.73472e-17 1.11022e-15 
1.63064e-17 -2.75819e-17 6.66134e-16 
0 0 -2.22045e-16 
2.77556e-17 0 8.88178e-16 
-8.32667e-17 -4.16334e-17 1.55431e-15 
-2.77556e-17 5.55112e-17 -6.66134e-16 
2.77556e-17 0 6.66134e-16 
6.93889e-18 1.38778e-17 -5.55112e-17 
-6.02816e-17 -4.16334e-17 0 
2.77556e-17 -2.77556e-17 0 
-3.46945e-17 5.55112e-17 -5.55112e-16 
4.85723e-17 0 -8.88178e-16 
0 2.08167e-17 5.55112e-16 
-1.38778e-17 2.77556e-17 0 
1.38778e-17 -5.55112e-17 0 
2.77556e-17 2.77556e-17 -2.22045e-16 
1.04083e-16 -5.55112e-17 1.77636e-15 
4.85723e-17 -2.77556e-17 -4.996e-16 
-4.16334e-17 -3.60904e-17 -8.88178e-16 
-1.11022e-16 5.55112e-17 0 
6.58761e-17 4.47559e-17 0 
-5.55112e-17 -7.97973e-17 4.44089e-16 
2.77556e-17 2.77556e-17 -2.22045e-16 
-5.55112e-17 0 0 
0 -2.77556e-17 0 
2.42861e-17 -4.16334e-17 2.22045e-16 
5.55112e-17 -2.90566e-17 6.66134e-16 
0 1.38778e-18 -4.44089e-16 
-2.63678e-17 -4.02456e-17 1.33227e-15 
-5.55112e-17 0 -6.66134e-16 
1.38778e-18 1.38778e-17 -5.55112e-16 
8.32667e-17 0 7.77156e-16 
5.55112e-17 1.56125e-17 0 
-1.38778e-17 -8.32667e-17 -4.44089e-16 
0 0 1.33227e-15 
-2.77556e-17 5.55112e-17 -6.66134e-16 
-1.38778e-17 8.32667e-17 1.66533e-16 
0 -1.73472e-17 2.77556e-16 
2.77556e-17 4.16334e-17 5.55112e-17 
1.38778e-17 6.93889e-18 0 
0 -2.77556e-17 5.55112e-16 
0 5.55112e-17 0 
2.42861e-17 -4.16334e-17 2.22045e-16 
1.38778e-17 -2.77556e-17 2.22045e-16 
-5.55112e-17 0 0 
1.38778e-17 3.46945e-17 1.05471e-15 
1.38778e-17 -2.77556e-17 2.22045e-16 
-5.55112e-17 0 0 
6.245e-17 -5.55112e-17 2.22045e-16 
2.42861e-17 -4.16334e-17 2.22045e-16 
0 -2.77556e-17 5.55112e-16 
-2.77556e-17 5.55112e-17 5.55112e-16 
2.77556e-17 4.16334e-17 5.55112e-17 
-2.77556e-17 0 0 
5.55112e-17 5.55112e-17 0 
-5.55112e-17 0 -5.55112e-16 
1.11022e-16 -2.77556e-17 -8.88178e-16 
5.55112e-17 5.55112e-17 1.33227e-15 
-2.77556e-17 5.55112e-17 -4.44089e-16 
1.38778e-17 1.38778e-17 2.22045e-16 
-1.38778e-17 -6.245e-17 -6.66134e-16 
-2.77556e-17 -2.08167e-17 5.55112e-17 
-1.38778e-17 5.55112e-17 1.11022e-16 
8.32667e-17 -2.91434e-17 -7.77156e-16 
-3.46945e-17 5.55112e-17 -5.55112e-16 
0 2.08167e-17 5.55112e-16 
-1.38778e-17 8.32667e-17 1.66533e-16 
-6.93889e-18 2.77556e-17 -4.44089e-16 
0 0 1.33227e-15 
0 4.16334e-17 2.22045e-16 
-1.38778e-17 4.85723e-17 2.22045e-16 
-5.55112e-17 0 -1.11022e-16 
4.16334e-17 -6.93889e-17 3.33067e-16 
3.46945e-17 6.93889e-18 -1.11022e-16 
8.32667e-17 0 1.22125e-15 
-8.32667e-17 9.71445e-17 2.77556e-16 
-9.71445e-17 -5.55112e-17 6.66134e-16 
5.55112e-17 -1.11022e-16 2.22045e-16 
1.63064e-17 -2.75819e-17 6.66134e-16 
8.32667e-17 -2.77556e-17 6.66134e-16 
0 0 4.44089e-16 
-5.55112e-17 0 -2.22045e-16 
-1.38778e-17 1.04083e-17 5.55112e-16 
-8.32667e-17 -1.38778e-17 1.11022e-16 
-4.85723e-17 0 0 
-3.22659e-17 4.34548e-17 4.44089e-16 
-5.55112e-17 0 -2.22045e-16 
2.77556e-17 -8.32667e-17 4.44089e-16 
0 4.16334e-17 0 
5.55112e-17 5.55112e-17 1.33227e-15 
-5.55112e-17 0 -5.55112e-17 
-9.36751e-17 -5.55112e-17 -2.22045e-16 
2.60209e-18 -2.32019e-17 4.44089e-16 
2.77556e-17 -5.55112e-17 1.44329e-15 
1.38778e-17 2.77556e-17 0 
5.55112e-17 2.77556e-17 5.55112e-16 
0 0 4.44089e-16 
0 2.77556e-17 -2.22045e-16 
2.08167e-17 2.77556e-17 -4.44089e-16 
2.77556e-17 0 8.88178e-16 
2.77556e-17 -1.9082e-17 8.88178e-16 
2.77556e-17 -5.55112e-17 1.11022e-16 
2.08167e-17 2.77556e-17 -4.44089e-16 
-3.1225e-17 0 0 
3.46945e-17 -5.55112e-17 -2.22045e-16 
8.32667e-17 0 1.22125e-15 
-8.32667e-17 -4.16334e-17 1.55431e-15 
-8.32667e-17 5.55112e-17 3.33067e-16 
8.32667e-17 0 7.77156e-16 
-1.38778e-17 -8.32667e-17 -4.44089e-16 
1.38778e-17 -2.77556e-17 2.22045e-16 
5.55112e-17 2.77556e-17 8.88178e-16 
-5.55112e-17 5.55112e-17 -6.66134e-16 
-5.89806e-17 1.11022e-16 2.22045e-16 
2.15106e-17 -3.33067e-17 8.88178e-16 
2.77556e-17 2.77556e-17 -2.22045e-16 
-1.38778e-17 4.85723e-17 2.22045e-16 
-5.55112e-17 0 -1.11022e-16 
0 -2.77556e-17 5.55112e-16 
1.38778e-17 2.77556e-17 7.77156e-16 
0 -2.77556e-17 -3.33067e-16 
-8.32667e-17 -5.55112e-17 4.44089e-16 
2.15106e-17 -3.33067e-17 8.88178e-16 
-1.38778e-17 4.85723e-17 2.22045e-16 
1.37043e-17 4.02673e-17 4.44089e-16 
-5.55112e-17 0 -1.11022e-16 
-8.32667e-17 6.93889e-17 -3.33067e-16 
0 -1.73472e-17 2.77556e-16 
-2.77556e-17 5.55112e-17 -4.44089e-16 
-5.55112e-17 0 0 
-5.55112e-17 -1.38778e-17 1.22125e-15 
-1.38778e-17 5.55112e-17 1.11022e-16 
-1.11022e-16 5.55112e-17 0 
6.58761e-17 4.47559e-17 0 
-1.31839e-17 1.66533e-17 -7.63278e-17 
1.38778e-17 3.46945e-17 -4.44089e-16 
-1.38778e-17 0 -1.11022e-16 
0 -1.38778e-17 4.44089e-16 
-1.38778e-17 2.77556e-17 1.11022e-16 
0 2.77556e-17 0 
7.21645e-17 -5.55112e-18 0 
-1.38778e-17 -8.32667e-17 -4.44089e-16 
1.11022e-16 1.11022e-16 4.44089e-16 
0 0 -2.22045e-16 
0 1.38778e-17 9.99201e-16 
1.52656e-17 3.98986e-18 4.44089e-16 
1.38778e-17 2.77556e-17 7.77156e-16 
2.42861e-17 -4.16334e-17 2.22045e-16 
-3.53884e-17 -4.85723e-17 2.22045e-16 
1.38778e-17 3.46945e-17 1.05471e-15 
-2.77556e-17 -5.55112e-17 2.22045e-16 
-4.16334e-17 5.55112e-17 2.22045e-16 
1.11022e-16 -2.77556e-17 -8.88178e-16 
-5.55112e-17 4.16334e-17 0 
-2.77556e-17 2.77556e-17 -1.11022e-16 
-1.11022e-16 5.55112e-17 0 
0 2.08167e-17 5.55112e-16 
6.58761e-17 4.47559e-17 0 
2.16705e-17 1.49078e-17 8.88178e-16 
-2.22044e-17 1.34441e-17 7.6836e-08 
1.04083e-16 -5.55112e-17 1.77636e-15 
0 -5.55112e-17 2.22045e-16 
-2.77556e-17 5.55112e-17 5.55112e-16 
-5.55112e-17 -2.77556e-17 1.11022e-16 
5.55112e-17 8.32667e-17 -1.11022e-16 
-5.55112e-17 5.55112e-17 0 
-2.42861e-17 -5.55112e-17 -1.11022e-16 
6.93889e-18 -2.77556e-17 0 
3.46945e-17 -6.93889e-17 2.22045e-16 
-2.77556e-17 0 2.22045e-16 
0 -1.73472e-17 2.77556e-16 
-2.77556e-17 5.55112e-17 -4.44089e-16 
-1.38778e-17 -6.245e-17 -6.66134e-16 
-2.77556e-17 -2.08167e-17 5.55112e-17 
-6.93889e-18 -1.73472e-17 3.33067e-16 
-2.77556e-17 5.55112e-17 0 
-4.16334e-17 -5.55112e-17 -4.44089e-16 
-1.66533e-17 2.35922e-17 0 
2.77556e-17 -1.9082e-17 8.88178e-16 
-8.32667e-17 0 0 
5.55112e-17 -5.55112e-17 4.44089e-16 
2.77556e-17 -5.55112e-17 1.11022e-16 
0 8.32667e-17 3.33067e-16 
0 2.77556e-17 -2.22045e-16 
3.46945e-17 6.93889e-18 -1.11022e-16 
0 0 0 
2.77556e-17 0 8.88178e-16 
-8.32667e-17 -4.16334e-17 1.55431e-15 
-2.77556e-17 5.55112e-17 -6.66134e-16 
4.16334e-17 1.38778e-17 -1.11022e-16 
2.77556e-17 -5.55112e-17 1.11022e-16 
2.08167e-17 2.77556e-17 -4.44089e-16 
2.77556e-17 0 8.88178e-16 
0 2.77556e-17 0 
-6.93889e-18 2.77556e-17 -4.44089e-16 
2.32426e-17 1.587e-17 -8.88178e-16 
6.93889e-17 6.93889e-17 0 
0 2.77556e-17 2.22045e-16 
-3.15764e-17 8.84376e-18 0 
-1.38778e-17 5.55112e-17 5.55112e-17 
-1.38778e-17 2.77556e-17 1.11022e-16 
3.46945e-17 -6.93889e-17 2.22045e-16 
5.55112e-17 -5.55112e-17 -2.22045e-16 
0 5.55112e-17 4.44089e-16 
-2.77556e-17 -5.55112e-17 0 
-1.38778e-16 -1.38778e-17 9.99201e-16 
-7.28584e-17 -5.55112e-17 2.22045e-16 
-5.55112e-17 0 -5.55112e-16 
2.77556e-17 -8.32667e-17 4.44089e-16 
5.55112e-17 5.55112e-17 1.33227e-15 
1.63064e-17 -2.75819e-17 6.66134e-16 
1.0339e-16 -1.94289e-17 0 
8.32667e-17 -2.77556e-17 6.66134e-16 
-5.55112e-17 0 -2.22045e-16 
2.16705e-17 1.49078e-17 8.88178e-16 
-8.32667e-17 0 -4.44089e-16 
-2.22044e-17 1.34441e-17 7.6836e-08 
0 -5.55112e-17 2.22045e-16 
1.38778e-17 -2.77556e-17 2.22045e-16 
-5.55112e-17 5.55112e-17 -6.66134e-16 
-5.55112e-17 0 0 
1.38778e-17 3.46945e-17 1.05471e-15 
-4.16334e-17 5.55112e-17 2.22045e-16 
-2.77556e-17 -2.08167e-17 -2.22045e-16 
8.32667e-18 8.32667e-17 -7.77156e-16 
2.77556e-17 1.38778e-17 4.44089e-16 
-4.85723e-17 0 0 
6.93889e-18 1.38778e-17 -5.55112e-17 
-8.32667e-17 -1.38778e-17 1.11022e-16 
-1.38778e-17 1.04083e-17 5.55112e-16 
2.77556e-17 0 0 
-8.32667e-17 6.93889e-17 -3.33067e-16 
0 -3.46945e-18 6.66134e-16 
6.245e-17 -1.38778e-17 -2.22045e-16 
2.15106e-17 -3.33067e-17 8.88178e-16 
1.04083e-16 -5.55112e-17 1.77636e-15 
4.85723e-17 -2.77556e-17 -4.996e-16 
6.93889e-17 -3.1225e-17 1.11022e-16 
-1.38778e-17 -1.38778e-17 -7.77156e-16 
-8.32667e-17 6.93889e-17 -3.33067e-16 
0 -3.46945e-18 6.66134e-16 
2.77556e-17 0 0 
0 1.38778e-17 7.77156e-16 
0 -1.11022e-16 4.44089e-16 
5.55112e-17 2.77556e-17 2.22045e-16 
0 -1.38778e-17 4.44089e-16 
8.32667e-17 -2.77556e-17 6.66134e-16 
-4.51028e-17 5.55112e-17 -3.33067e-16 
2.77556e-17 -8.32667e-17 4.44089e-16 
1.0339e-16 -1.94289e-17 0 
1.38778e-17 5.55112e-17 -4.44089e-16 
-8.32667e-17 5.55112e-17 3.33067e-16 
-8.32667e-17 -4.16334e-17 1.55431e-15 
2.77556e-17 4.16334e-17 1.33227e-15 
-4.16334e-17 -3.60904e-17 -8.88178e-16 
-1.11022e-16 5.55112e-17 0 
-2.77556e-17 2.77556e-17 -1.11022e-16 
6.58761e-17 4.47559e-17 0 
0 1.38778e-17 9.99201e-16 
-4.16334e-17 2.08167e-17 3.33067e-16 
1.11022e-16 1.11022e-16 4.44089e-16 
0 0 0 
3.1225e-17 3.46945e-17 0 
1.21431e-17 -3.46945e-17 8.88178e-16 
-2.77556e-17 -2.77556e-17 2.22045e-16 
0 -1.38778e-17 4.44089e-16 
1.38778e-17 -6.93889e-18 2.22045e-16 
0 2.77556e-17 -4.44089e-16 
1.80411e-17 2.63678e-17 1.66533e-16 
-9.71445e-17 -1.11022e-16 -8.88178e-16 
-8.32667e-17 5.55112e-17 3.33067e-16 
-1.38778e-17 2.77556e-17 1.11022e-16 
-5.55112e-17 3.46945e-18 6.66134e-16 
-1.38778e-17 -8.32667e-17 -4.44089e-16 
-5.55112e-17 0 -6.66134e-16 
-6.93889e-17 -6.93889e-18 7.77156e-16 
5.55112e-17 -2.90566e-17 6.66134e-16 
2.77556e-17 -5.55112e-17 1.11022e-16 
-2.77556e-17 0 -4.44089e-16 
-2.77556e-17 5.55112e-17 5.55112e-16 
-5.55112e-17 -2.77556e-17 1.11022e-16 
5.55112e-17 8.32667e-17 -1.11022e-16 
-1.38778e-17 1.04083e-17 5.55112e-16 
6.93889e-17 1.11022e-16 -1.11022e-16 
-1.38778e-17 -1.73472e-17 1.11022e-15 
2.77556e-17 1.11022e-16 6.66134e-16 
-4.51028e-17 5.55112e-17 -3.33067e-16 
6.93889e-17 1.11022e-16 -1.11022e-16 
5.55112e-17 -1.11022e-16 -2.22045e-16 
1.0339e-16 -1.94289e-17 0 
-2.77556e-17 -2.08167e-17 -2.22045e-16 
1.11022e-16 -2.77556e-17 -8.88178e-16 
-5.55112e-17 0 -5.55112e-16 
2.77556e-17 1.38778e-17 4.44089e-16 
5.55112e-17 8.32667e-17 -1.11022e-16 
-2.77556e-17 5.55112e-17 1.33227e-15 
-2.77556e-17 5.55112e-17 5.55112e-16 
-2.77556e-17 0 0 
1.38778e-17 3.46945e-17 1.05471e-15 
-5.55112e-17 5.55112e-17 -6.66134e-16 
-3.53884e-17 -4.85723e-17 2.22045e-16 
0 5.55112e-17 0 
4.16334e-17 -6.93889e-17 3.33067e-16 
2.42861e-17 -4.16334e-17 2.22045e-16 
0 -2.77556e-17 0 
1.38778e-17 2.77556e-17 7.77156e-16 
-1.38778e-17 -5.55112e-17 2.22045e-16 
-8.67362e-18 -4.16334e-17 -6.66134e-16 
3.46945e-18 -2.77556e-17 0 
4.16334e-17 2.77556e-17 -6.66134e-16 
5.55112e-17 2.77556e-17 8.88178e-16 
-5.55112e-17 5.55112e-17 -6.66134e-16 
1.38778e-17 -5.55112e-17 0 
1.38778e-17 -2.77556e-17 2.22045e-16 
-5.55112e-17 -2.77556e-17 1.11022e-16 
-4.85723e-17 -6.93889e-17 0 
1.38778e-17 2.77556e-17 0 
1.11022e-16 2.77556e-17 3.33067e-16 
-8.32667e-17 0 0 
2.77556e-17 -1.9082e-17 8.88178e-16 
5.55112e-17 -2.90566e-17 6.66134e-16 
2.77556e-17 -5.55112e-17 1.11022e-16 
-5.55112e-17 0 0 
-2.77556e-17 5.55112e-17 -4.44089e-16 
-8.32667e-17 6.93889e-17 -3.33067e-16 
0 2.77556e-17 0 
-5.10009e-17 -1.04083e-18 5.55112e-17 
0 0 2.22045e-16 
1.2739e-17 -6.85216e-18 -1.11022e-16 
-4.16334e-17 0 -4.44089e-16 
-2.77556e-17 -2.77556e-17 1.11022e-16 
-1.38778e-17 1.04083e-17 5.55112e-16 
-1.38778e-17 -1.73472e-17 1.11022e-15 
-3.22659e-17 4.34548e-17 4.44089e-16 
2.15106e-17 -3.33067e-17 8.88178e-16 
1.04083e-16 -5.55112e-17 1.77636e-15 
2.77556e-17 2.77556e-17 -2.22045e-16 
4.85723e-17 -2.77556e-17 -4.996e-16 
8.32667e-17 -2.91434e-17 -7.77156e-16 
-3.46945e-17 5.55112e-17 -5.55112e-16 
0 -2.77556e-17 5.55112e-16 
-1.38778e-17 5.55112e-17 1.11022e-16 
-2.77556e-17 5.55112e-17 1.33227e-15 
-2.77556e-17 0 -4.44089e-16 
-9.71716e-18 -1.66493e-17 -4.16197e-10 
5.55112e-17 8.32667e-17 -1.11022e-16 
-3.46945e-17 5.55112e-17 -5.55112e-16 
0 -2.77556e-17 5.55112e-16 
5.55112e-17 -5.55112e-17 -2.22045e-16 
-4.53413e-17 -6.66134e-17 -4.44089e-16 
1.80411e-17 2.63678e-17 1.66533e-16 
0 0 2.22045e-16 
-9.71445e-17 -1.11022e-16 -8.88178e-16 
-4.16334e-17 0 -4.44089e-16 
0 1.38778e-18 -4.44089e-16 
-5.55112e-17 0 -6.66134e-16 
-1.38778e-17 5.55112e-17 5.55112e-17 
3.46945e-17 -6.93889e-17 2.22045e-16 
1.38778e-18 1.38778e-17 -5.55112e-16 
-8.32667e-17 -4.16334e-17 1.55431e-15 
8.32667e-17 0 7.77156e-16 
-1.38778e-17 -8.32667e-17 -4.44089e-16 
5.55112e-17 -2.90566e-17 6.66134e-16 
2.77556e-17 -1.9082e-17 8.88178e-16 
0 -2.91434e-17 -2.22045e-16 
2.77556e-17 -5.55112e-17 1.11022e-16 
-4.02456e-17 3.19189e-17 4.44089e-16 
0 -1.38778e-17 4.44089e-16 
-1.66533e-17 -6.93889e-18 9.4369e-16 
-1.11022e-16 2.77556e-17 1.77636e-15 
1.38778e-17 2.77556e-17 0 
-1.38778e-17 -1.38778e-17 -7.77156e-16 
5.55112e-17 2.77556e-17 5.55112e-16 
0 2.77556e-17 -2.22045e-16 
0 1.38778e-18 -4.44089e-16 
-5.55112e-17 0 -6.66134e-16 
3.46945e-17 -6.93889e-17 2.22045e-16 
-2.77556e-17 0 2.22045e-16 
-6.93889e-18 -1.38778e-17 0 
-9.71445e-17 -1.11022e-16 -8.88178e-16 
0 2.77556e-17 -4.44089e-16 
-2.77556e-17 -2.77556e-17 2.22045e-16 
8.32667e-17 5.55112e-17 -5.55112e-16 
2.16705e-17 1.49078e-17 8.88178e-16 
-8.32667e-17 0 -4.44089e-16 
6.93889e-17 -3.1225e-17 1.11022e-16 
1.38778e-18 1.38778e-17 -5.55112e-16 
5.55112e-17 1.56125e-17 0 
2.32426e-17 1.587e-17 -8.88178e-16 
5.55112e-17 -1.11022e-16 2.22045e-16 
2.08167e-17 2.77556e-17 -4.44089e-16 
5.55112e-17 -5.55112e-17 4.44089e-16 
-2.21177e-17 0 5.55112e-17 
1.38778e-17 -1.32273e-17 0.0031863 
-1.11022e-16 5.55112e-17 0 
5.55112e-17 -1.11022e-16 -8.88178e-16 
-4.16334e-17 -3.60904e-17 -8.88178e-16 
-8.32667e-17 -1.38778e-17 1.11022e-16 
-1.38778e-17 -1.73472e-17 1.11022e-15 
8.32667e-17 -2.77556e-17 6.66134e-16 
-2.77556e-17 -2.77556e-17 1.11022e-16 
1.63064e-17 -2.75819e-17 6.66134e-16 
6.245e-17 -1.38778e-17 -2.22045e-16 
-8.32667e-17 6.93889e-17 -3.33067e-16 
0 -3.46945e-18 6.66134e-16 
0 2.77556e-17 0 
5.55112e-17 -1.11022e-16 2.22045e-16 
5.55112e-17 1.56125e-17 0 
8.32667e-17 0 1.22125e-15 
-1.38778e-17 -8.32667e-17 -4.44089e-16 
1.19262e-17 2.94903e-17 -4.16334e-17 
5.55112e-17 -1.11022e-16 -8.88178e-16 
-2.1684e-18 -2.77556e-17 -6.66134e-16 
-5.55112e-17 -7.97973e-17 4.44089e-16 
1.38778e-17 2.77556e-17 0 
-2.77556e-17 -4.85723e-17 -2.22045e-16 
-4.85723e-17 -6.93889e-17 0 
-5.55112e-17 -2.77556e-17 1.11022e-16 
0 -2.77556e-17 9.99201e-16 
0 -2.77556e-17 -3.33067e-16 
0 -2.77556e-17 5.55112e-16 
-2.77556e-17 2.77556e-17 4.44089e-16 
2.16705e-17 1.49078e-17 8.88178e-16 
2.49793e-17 -1.38575e-18 1.4802e-06 
8.32667e-17 -3.98986e-17 -2.22045e-16 
5.55112e-17 -5.55112e-17 -4.44089e-16 
8.32667e-18 8.32667e-17 -7.77156e-16 
-2.77556e-17 -5.55112e-17 2.22045e-16 
-4.16334e-17 5.55112e-17 2.22045e-16 
2.77556e-17 1.38778e-17 4.44089e-16 
-5.55112e-17 -7.97973e-17 4.44089e-16 
1.19262e-17 2.94903e-17 -4.16334e-17 
-4.85723e-17 -6.93889e-17 0 
-1.38778e-17 -1.38778e-17 5.52136e-12 
6.93889e-17 0 0 
5.27356e-17 -1.21431e-17 -2.77556e-16 
-2.70617e-17 -1.56125e-17 2.22045e-16 
-1.38778e-16 -1.38778e-17 9.99201e-16 
5.55112e-17 -1.11022e-16 2.22045e-16 
6.93889e-17 6.93889e-17 0 
2.32426e-17 1.587e-17 -8.88178e-16 
0 2.77556e-17 2.22045e-16 
2.08167e-17 2.77556e-17 -4.44089e-16 
2.77556e-17 -1.9082e-17 8.88178e-16 
5.55112e-17 -5.55112e-17 4.44089e-16 
2.77556e-17 -5.55112e-17 1.11022e-16 
6.245e-17 -5.55112e-17 2.22045e-16 
1.38778e-17 -5.55112e-17 0 
1.04083e-16 -5.55112e-17 1.77636e-15 
4.85723e-17 -2.77556e-17 -4.996e-16 
2.16705e-17 1.49078e-17 8.88178e-16 
-2.77556e-17 -5.55112e-17 -2.77556e-16 
-8.32667e-17 0 -4.44089e-16 
6.93889e-17 -3.1225e-17 1.11022e-16 
0 0 4.44089e-16 
5.55112e-17 -5.55112e-17 -4.44089e-16 
2.16705e-17 1.49078e-17 8.88178e-16 
6.93889e-17 -3.1225e-17 1.11022e-16 
-1.38778e-17 5.55112e-17 5.55112e-17 
2.77556e-17 -5.55112e-17 1.11022e-16 
0 -2.91434e-17 -2.22045e-16 
0 2.77556e-17 0 
-2.42861e-17 -5.55112e-17 -1.11022e-16 
-2.08167e-17 1.11022e-16 3.33067e-16 
-8.67362e-18 -4.16334e-17 -6.66134e-16 
2.77556e-17 0 4.44089e-16 
5.55112e-17 -5.55112e-17 4.44089e-16 
-2.77556e-17 2.77556e-17 4.44089e-16 
0 -2.77556e-17 5.55112e-16 
-4.53413e-17 -6.66134e-17 -4.44089e-16 
-2.1684e-18 -2.77556e-17 -6.66134e-16 
5.55112e-17 -1.11022e-16 -8.88178e-16 
-4.16334e-17 -3.60904e-17 -8.88178e-16 
-5.55112e-17 -7.97973e-17 4.44089e-16 
8.32667e-17 5.55112e-17 -5.55112e-16 
4.85723e-17 -2.77556e-17 -4.996e-16 
1.04083e-16 -5.55112e-17 1.77636e-15 
6.93889e-17 -3.1225e-17 1.11022e-16 
6.93889e-17 0 0 
-4.16334e-17 0 -4.44089e-16 
5.27356e-17 -1.21431e-17 -2.77556e-16 
-1.38778e-16 -1.38778e-17 9.99201e-16 
-2.77556e-17 5.55112e-17 1.33227e-15 
-2.77556e-17 0 -4.44089e-16 
-2.08167e-17 2.77556e-17 -4.44089e-16 
-9.71716e-18 -1.66493e-17 -4.16197e-10 
-7.28584e-17 -5.55112e-17 2.22045e-16 
-2.77556e-17 5.55112e-17 0 
-5.55112e-17 0 -5.55112e-16 
5.55112e-17 5.55112e-17 1.33227e-15 
2.77556e-17 1.38778e-17 4.44089e-16 
-5.55112e-17 0 -5.55112e-16 
-2.77556e-17 5.55112e-17 0 
5.55112e-17 5.55112e-17 1.33227e-15 
-4.16334e-17 0 5.55112e-17 
-4.1674e-18 4.16063e-18 5.07108e-07 
-8.32667e-17 0 0 
5.55112e-17 -5.55112e-17 4.44089e-16 
8.32667e-17 -3.98986e-17 -2.22045e-16 
-8.32667e-17 0 -4.44089e-16 
2.49793e-17 -1.38575e-18 1.4802e-06 
2.16705e-17 1.49078e-17 8.88178e-16 
-1.38778e-17 -6.245e-17 -6.66134e-16 
-2.77556e-17 5.55112e-17 -6.66134e-16 
-2.77556e-17 -2.08167e-17 5.55112e-17 
4.16334e-17 1.38778e-17 -1.11022e-16 
8.32667e-17 -2.77556e-17 6.66134e-16 
2.77556e-17 -8.32667e-17 4.44089e-16 
0 0 4.44089e-16 
-5.55112e-17 0 -2.22045e-16 
-6.02816e-17 -4.16334e-17 0 
0 2.08167e-17 5.55112e-16 
4.85723e-17 0 -8.88178e-16 
2.77556e-17 -2.77556e-17 0 
-2.77556e-17 -2.08167e-17 -2.22045e-16 
-2.77556e-17 5.55112e-17 0 
8.32667e-18 8.32667e-17 -7.77156e-16 
2.77556e-17 1.38778e-17 4.44089e-16 
-2.77556e-17 -8.32667e-17 -4.44089e-16 
0 2.77556e-17 2.22045e-16 
-3.98986e-17 0 7.77156e-16 
1.11022e-16 1.38778e-17 8.88178e-16 
1.87349e-17 -1.38778e-17 -1.29814e-06 
8.32667e-17 -3.98986e-17 -2.22045e-16 
5.55112e-17 -5.55112e-17 -4.44089e-16 
1.71711e-17 9.96585e-17 -4.44089e-16 
2.77556e-17 5.55112e-17 -6.66134e-16 
-5.55112e-17 0 -6.66134e-16 
-2.77556e-17 0 2.22045e-16 
-3.98986e-17 0 7.77156e-16 
1.04083e-16 -5.55112e-17 1.77636e-15 
2.15106e-17 -3.33067e-17 8.88178e-16 
2.16705e-17 1.49078e-17 8.88178e-16 
6.93889e-17 -3.1225e-17 1.11022e-16 
1.11022e-16 1.11022e-16 4.44089e-16 
4.85723e-17 0 -8.88178e-16 
1.11022e-16 0 -1.11022e-16 
0 -2.77556e-17 1.33227e-15 
2.77556e-17 0 8.88178e-16 
2.08167e-17 2.77556e-17 -4.44089e-16 
8.32667e-17 0 1.22125e-15 
0 2.77556e-17 0 
2.77556e-17 -8.32667e-17 4.44089e-16 
0 4.16334e-17 0 
0 0 4.44089e-16 
-5.55112e-17 0 -2.22045e-16 
-5.55112e-17 2.77556e-17 0.00318535 
5.55112e-17 -5.55112e-17 4.44089e-16 
-4.16334e-17 0 5.55112e-17 
-6.93889e-17 -6.93889e-18 7.77156e-16 
-2.77556e-17 0 -8.88178e-16 
1.80411e-17 -4.68375e-17 1.11022e-16 
1.38778e-17 3.46945e-17 -4.44089e-16 
0 -1.11022e-16 4.44089e-16 
1.04083e-16 -5.55112e-17 1.77636e-15 
6.245e-17 -5.55112e-17 2.22045e-16 
4.85723e-17 -2.77556e-17 -4.996e-16 
8.32667e-17 5.55112e-17 -5.55112e-16 
2.77556e-17 0 6.66134e-16 
1.38778e-17 0 5.55112e-17 
-6.02816e-17 -4.16334e-17 0 
2.77556e-17 1.11022e-16 6.66134e-16 
-2.77556e-17 1.38778e-17 -1.11022e-16 
-5.10009e-17 -1.04083e-18 5.55112e-17 
7.63278e-18 5.55112e-18 1.38778e-17 
0 -2.77556e-17 1.33227e-15 
2.77556e-17 0 6.66134e-16 
-1.38778e-17 1.04083e-17 5.55112e-16 
-1.38778e-17 -1.73472e-17 1.11022e-15 
2.77556e-17 1.11022e-16 6.66134e-16 
0 -2.77556e-17 5.55112e-16 
1.38778e-17 3.46945e-17 1.05471e-15 
1.38778e-17 2.77556e-17 7.77156e-16 
0 5.55112e-17 0 
7.21645e-17 -5.55112e-18 0 
5.55112e-17 1.56125e-17 0 
8.32667e-17 0 7.77156e-16 
-1.38778e-17 -8.32667e-17 -4.44089e-16 
-6.02816e-17 -4.16334e-17 0 
1.38778e-17 0 5.55112e-17 
2.77556e-17 0 6.66134e-16 
2.77556e-17 -2.77556e-17 0 
8.32667e-17 -3.98986e-17 -2.22045e-16 
1.87349e-17 -1.38778e-17 -1.29814e-06 
6.245e-17 -1.38778e-17 -2.22045e-16 
1.71711e-17 9.96585e-17 -4.44089e-16 
1.0339e-16 -1.94289e-17 0 
8.32667e-17 -2.77556e-17 6.66134e-16 
-1.38778e-17 -1.73472e-17 1.11022e-15 
1.63064e-17 -2.75819e-17 6.66134e-16 
-1.38778e-17 -6.93889e-18 2.22045e-16 
-2.77556e-17 1.38778e-17 -1.11022e-16 
-9.06393e-18 5.89806e-18 -3.33067e-16 
-2.77556e-18 -2.498e-17 1.11022e-16 
0 0 4.44089e-16 
-3.85976e-17 2.77556e-17 0.00318586 
-2.77556e-17 -2.77556e-17 1.11022e-16 
5.55112e-17 2.08167e-17 0 
-8.32667e-17 6.93889e-17 -3.33067e-16 
-2.77556e-17 5.55112e-17 -4.44089e-16 
0 -1.73472e-17 2.77556e-16 
-2.77556e-17 -2.08167e-17 5.55112e-17 
-2.08167e-17 2.77556e-17 -4.44089e-16 
2.77556e-17 4.16334e-17 5.55112e-17 
-4.16334e-17 1.38778e-17 0.00318586 
-2.77556e-17 0 -4.44089e-16 
-5.55112e-17 0 0 
1.38778e-17 -5.55112e-17 0 
-5.55112e-17 5.55112e-17 -6.66134e-16 
1.38778e-17 -2.77556e-17 2.22045e-16 
5.55112e-18 -1.43115e-17 -1.38778e-16 
1.04083e-16 -5.55112e-17 1.77636e-15 
0 -5.55112e-17 2.22045e-16 
6.245e-17 4.85723e-17 -8.88178e-16 
-1.38778e-17 5.55112e-17 0.00318404 
6.245e-17 -5.55112e-17 2.22045e-16 
6.245e-17 4.85723e-17 -8.88178e-16 
8.32667e-17 5.55112e-17 -5.55112e-16 
-4.16334e-17 2.08167e-17 3.33067e-16 
6.93889e-17 1.11022e-16 -1.11022e-16 
-6.02816e-17 -4.16334e-17 0 
2.77556e-17 1.11022e-16 6.66134e-16 
4.16334e-17 0 0 
-1.38778e-17 5.55112e-17 5.55112e-17 
0 2.77556e-17 0 
-1.38778e-17 2.77556e-17 1.11022e-16 
-2.77556e-17 0 0 
-2.77556e-17 2.77556e-17 4.44089e-16 
0 -2.77556e-17 9.99201e-16 
-5.55112e-17 5.55112e-17 0 
0 0 2.22045e-16 
5.55112e-17 -1.11022e-16 -8.88178e-16 
2.77556e-17 1.38778e-17 0.00399973 
-8.32667e-17 -1.38778e-17 1.11022e-16 
1.21431e-17 -3.46945e-17 8.88178e-16 
-2.77556e-17 -2.77556e-17 2.22045e-16 
-1.38778e-17 -5.55112e-17 2.22045e-16 
4.16334e-17 2.77556e-17 -6.66134e-16 
0 2.77556e-17 0 
8.32667e-17 0 1.22125e-15 
7.21645e-17 -5.55112e-18 0 
-1.38778e-17 -8.32667e-17 -4.44089e-16 
-3.46945e-18 0 -1.29851e-06 
5.55112e-17 5.55112e-17 0 
-2.77556e-17 -6.93889e-17 2.22045e-16 
2.77556e-17 1.38778e-17 4.44089e-16 
-3.98986e-17 0 7.77156e-16 
0 8.32667e-17 -4.996e-16 
-4.16334e-17 5.55112e-17 2.22045e-16 
1.11022e-16 1.38778e-17 8.88178e-16 
-5.55112e-17 -2.77556e-17 1.11022e-16 
1.38778e-17 2.77556e-17 0 
1.38778e-17 -2.77556e-17 -9.99201e-16 
1.11022e-16 2.77556e-17 3.33067e-16 
-3.46945e-18 0 -1.29851e-06 
5.55112e-17 5.55112e-17 0 
2.77556e-17 1.38778e-17 4.44089e-16 
5.55112e-17 5.55112e-17 1.33227e-15 
6.93889e-17 1.11022e-16 -1.11022e-16 
-2.77556e-17 -2.77556e-17 1.11022e-16 
-1.38778e-17 1.04083e-17 5.55112e-16 
-1.38778e-17 -1.73472e-17 1.11022e-15 
-4.51028e-17 5.55112e-17 -3.33067e-16 
-6.93889e-18 -1.73472e-17 3.33067e-16 
-5.55112e-17 0 -5.55112e-16 
-7.28584e-17 -5.55112e-17 2.22045e-16 
1.38778e-17 3.46945e-17 1.05471e-15 
1.38778e-17 -2.77556e-17 2.22045e-16 
-5.55112e-17 5.55112e-17 -6.66134e-16 
1.38778e-17 6.93889e-18 0 
-8.32667e-17 6.93889e-17 -3.33067e-16 
0 -3.46945e-18 6.66134e-16 
-2.77556e-17 5.55112e-17 -4.44089e-16 
-2.77556e-17 -2.08167e-17 5.55112e-17 
-4.85723e-17 -6.93889e-17 0 
-8.32667e-17 -3.46945e-17 0 
-5.55112e-17 -7.97973e-17 4.44089e-16 
-1.38778e-17 -1.38778e-17 5.52136e-12 
-5.55112e-17 0 0.00318586 
-2.77556e-17 -5.55112e-17 -2.77556e-16 
8.32667e-17 -3.98986e-17 -2.22045e-16 
6.245e-17 -1.38778e-17 -2.22045e-16 
-1.38778e-17 0 -1.11022e-16 
1.17961e-17 -4.16334e-18 0 
-6.93889e-18 -1.38778e-17 0 
-2.77556e-17 -2.77556e-17 2.22045e-16 
1.38778e-17 -2.77556e-17 2.22045e-16 
6.245e-17 -5.55112e-17 2.22045e-16 
5.55112e-17 2.77556e-17 8.88178e-16 
1.38778e-17 -1.38778e-17 0.00400098 
6.245e-17 -5.55112e-17 2.22045e-16 
6.245e-17 4.85723e-17 -8.88178e-16 
5.55112e-17 2.77556e-17 8.88178e-16 
1.38778e-17 -1.38778e-17 0.00400098 
-2.77556e-17 0 0 
0 -2.77556e-17 9.99201e-16 
-2.77556e-17 5.55112e-17 5.55112e-16 
-5.55112e-17 5.55112e-17 0 
1.21431e-17 -3.46945e-17 8.88178e-16 
-6.93889e-18 -1.38778e-17 0 
0 2.77556e-17 -4.44089e-16 
-2.77556e-17 -2.77556e-17 2.22045e-16 
2.77556e-17 -8.32667e-17 4.44089e-16 
-5.55112e-17 0 -5.55112e-16 
5.55112e-17 5.55112e-17 0 
5.55112e-17 5.55112e-17 1.33227e-15 
5.55112e-17 1.56125e-17 0 
-9.71445e-17 -5.55112e-17 6.66134e-16 
2.32426e-17 1.587e-17 -8.88178e-16 
5.55112e-17 -1.11022e-16 2.22045e-16 
4.16334e-17 -1.38778e-17 -1.11022e-16 
-2.77556e-17 -5.55112e-17 2.22045e-16 
-5.55112e-17 4.16334e-17 0 
-2.77556e-17 0 -2.22045e-16 
6.245e-17 4.85723e-17 -8.88178e-16 
0 -5.55112e-17 2.22045e-16 
-1.38778e-17 5.55112e-17 0.00318404 
8.32667e-17 5.55112e-17 -5.55112e-16 
1.04083e-16 -5.55112e-17 1.77636e-15 
5.55112e-18 -1.43115e-17 -1.38778e-16 
1.38778e-17 -5.55112e-17 0 
6.245e-17 4.85723e-17 -8.88178e-16 
5.55112e-17 -2.90566e-17 6.66134e-16 
-5.55112e-17 0 -6.66134e-16 
2.77556e-17 -5.55112e-17 1.11022e-16 
-1.38778e-17 5.55112e-17 5.55112e-17 
2.77556e-17 2.77556e-17 -2.22045e-16 
2.15106e-17 -3.33067e-17 8.88178e-16 
4.85723e-17 -2.77556e-17 -4.996e-16 
-5.55112e-17 0 -1.11022e-16 
8.32667e-17 5.55112e-17 -5.55112e-16 
1.04083e-16 -5.55112e-17 1.77636e-15 
2.16705e-17 1.49078e-17 8.88178e-16 
6.93889e-17 -3.1225e-17 1.11022e-16 
8.32667e-18 8.32667e-17 -7.77156e-16 
-4.16334e-17 5.55112e-17 2.22045e-16 
-2.77556e-17 -5.55112e-17 2.22045e-16 
1.11022e-16 1.38778e-17 8.88178e-16 
2.15106e-17 -3.33067e-17 8.88178e-16 
6.93889e-17 -3.1225e-17 1.11022e-16 
-5.55112e-17 0 -1.11022e-16 
0 2.77556e-17 -2.22045e-16 
-3.98986e-17 0 7.77156e-16 
1.38778e-17 4.16334e-17 -2.22045e-16 
-2.77556e-17 0 2.22045e-16 
-2.77556e-17 -8.32667e-17 -4.44089e-16 
-9.71445e-17 -1.11022e-16 -8.88178e-16 
-1.38778e-17 -5.55112e-17 2.22045e-16 
0 2.77556e-17 -4.44089e-16 
-2.77556e-17 -2.77556e-17 2.22045e-16 
-2.77556e-17 -5.55112e-17 -2.77556e-16 
2.16705e-17 1.49078e-17 8.88178e-16 
5.55112e-17 -5.55112e-17 -4.44089e-16 
6.93889e-17 -3.1225e-17 1.11022e-16 
-4.1674e-18 4.16063e-18 5.07108e-07 
2.77556e-17 -1.9082e-17 8.88178e-16 
-8.32667e-17 0 0 
5.55112e-17 -5.55112e-17 4.44089e-16 
-5.55112e-18 1.8735e-17 -2.22045e-16 
-5.10009e-17 -1.04083e-18 5.55112e-17 
6.93889e-17 0 0 
-4.16334e-17 0 -4.44089e-16 
2.32426e-17 1.587e-17 -8.88178e-16 
1.38778e-18 1.38778e-17 -5.55112e-16 
5.55112e-17 -1.11022e-16 2.22045e-16 
0 2.77556e-17 2.22045e-16 
-3.1225e-17 0 0 
-8.32667e-17 9.71445e-17 2.77556e-16 
8.32667e-17 0 1.22125e-15 
5.55112e-17 2.77556e-17 0.00318561 
8.32667e-17 -2.77556e-17 6.66134e-16 
6.93889e-17 1.11022e-16 -1.11022e-16 
1.0339e-16 -1.94289e-17 0 
-1.38778e-17 -1.73472e-17 1.11022e-15 
0 0 0 
2.77556e-17 5.55112e-17 -1.11022e-16 
3.46945e-17 6.93889e-18 -1.11022e-16 
-1.11022e-16 2.77556e-17 1.77636e-15 
0 1.38778e-17 9.99201e-16 
-4.51028e-17 5.55112e-17 -3.33067e-16 
-4.16334e-17 2.08167e-17 3.33067e-16 
5.55112e-17 -1.11022e-16 -2.22045e-16 
6.93889e-17 6.93889e-17 0 
-3.46945e-17 2.77556e-17 -1.24791e-06 
2.32426e-17 1.587e-17 -8.88178e-16 
-6.93889e-18 2.77556e-17 -4.44089e-16 
6.93889e-17 1.11022e-16 -1.11022e-16 
8.32667e-17 -2.77556e-17 6.66134e-16 
-2.77556e-17 -2.77556e-17 1.11022e-16 
-1.38778e-17 -1.73472e-17 1.11022e-15 
-2.77556e-17 -5.55112e-17 -2.77556e-16 
-5.55112e-17 0 0.00318586 
2.77556e-17 0 0 
6.245e-17 -1.38778e-17 -2.22045e-16 
2.77556e-17 -3.1225e-17 6.66134e-16 
-5.55112e-17 0 4.44089e-16 
-1.38778e-16 -1.38778e-17 9.99201e-16 
0 -1.11022e-16 4.44089e-16 
1.38778e-17 4.16334e-17 -2.22045e-16 
-2.77556e-17 -8.32667e-17 -4.44089e-16 
8.32667e-18 8.32667e-17 -7.77156e-16 
-2.77556e-17 -5.55112e-17 -4.44089e-16 
-4.85723e-17 0 0 
6.93889e-18 1.38778e-17 -5.55112e-17 
-1.38778e-17 1.04083e-17 5.55112e-16 
2.77556e-17 0 6.66134e-16 
-8.32667e-17 9.71445e-17 2.77556e-16 
6.93889e-17 6.93889e-17 0 
5.55112e-17 -1.11022e-16 2.22045e-16 
-5.55112e-17 8.32667e-17 0.0031842 
0 -2.77556e-17 5.55112e-16 
0 -2.77556e-17 9.99201e-16 
-2.77556e-17 5.55112e-17 5.55112e-16 
-2.77556e-17 0 0 
-3.22659e-17 4.34548e-17 4.44089e-16 
-1.38778e-17 1.04083e-17 5.55112e-16 
-1.38778e-17 -1.73472e-17 1.11022e-15 
2.77556e-17 0 6.66134e-16 
6.245e-17 -4.16334e-17 0.00318586 
5.55112e-17 -1.11022e-16 -8.88178e-16 
1.19262e-17 2.94903e-17 -4.16334e-17 
-5.55112e-17 -1.38778e-17 1.22125e-15 
0 2.77556e-17 -2.22045e-16 
-5.55112e-17 0 -1.11022e-16 
1.37043e-17 4.02673e-17 4.44089e-16 
3.46945e-17 6.93889e-18 -1.11022e-16 
-2.77556e-17 5.55112e-17 -4.44089e-16 
0 -3.46945e-18 6.66134e-16 
-8.32667e-17 6.93889e-17 -3.33067e-16 
0 2.77556e-17 0 
1.19262e-17 2.94903e-17 -4.16334e-17 
-4.85723e-17 -6.93889e-17 0 
0 0 0.00318586 
-5.55112e-17 -1.38778e-17 1.22125e-15 
0 4.16334e-17 0 
2.77556e-17 -8.32667e-17 4.44089e-16 
2.77556e-17 6.93889e-17 0.00318586 
5.55112e-17 5.55112e-17 0 
-4.16334e-17 -3.60904e-17 -8.88178e-16 
0 0 2.22045e-16 
5.55112e-17 -1.11022e-16 -8.88178e-16 
2.29004e-17 5.55654e-18 -2.22045e-16 
-5.55112e-17 0 -1.11022e-16 
4.85723e-17 -2.77556e-17 -4.996e-16 
2.77556e-17 2.77556e-17 -2.22045e-16 
2.42861e-17 -4.16334e-17 2.22045e-16 
1.2837e-17 3.40006e-17 0 
1.38778e-17 5.55112e-17 -6.10623e-16 
-1.38778e-17 -1.73472e-17 1.11022e-15 
-3.22659e-17 4.34548e-17 4.44089e-16 
1.38778e-17 2.77556e-17 0 
-8.32667e-17 -3.46945e-17 0 
1.38778e-17 -2.77556e-17 -9.99201e-16 
1.11022e-16 2.77556e-17 3.33067e-16 
4.16334e-17 -1.38778e-17 -1.11022e-16 
-2.77556e-17 -5.55112e-17 2.22045e-16 
-2.77556e-17 0 -2.22045e-16 
1.11022e-16 1.38778e-17 8.88178e-16 
0 5.20417e-18 0 
-2.77556e-18 -2.498e-17 1.11022e-16 
-2.77556e-17 1.38778e-17 -1.11022e-16 
0 -2.77556e-17 1.33227e-15 
-3.22659e-17 4.34548e-17 4.44089e-16 
-4.85723e-17 0 0 
-1.38778e-17 1.04083e-17 5.55112e-16 
2.77556e-17 0 6.66134e-16 
8.32667e-17 -2.77556e-17 6.66134e-16 
-3.85976e-17 2.77556e-17 0.00318586 
-2.77556e-17 -2.77556e-17 1.11022e-16 
0 0 4.44089e-16 
0 0 4.44089e-16 
2.16705e-17 1.49078e-17 8.88178e-16 
2.15106e-17 -3.33067e-17 8.88178e-16 
6.93889e-17 -3.1225e-17 1.11022e-16 
0 0 -2.22045e-16 
0 0 1.33227e-15 
-1.38778e-17 -6.245e-17 -6.66134e-16 
-2.77556e-17 5.55112e-17 -6.66134e-16 
-1.38778e-17 5.55112e-17 1.11022e-16 
0 2.08167e-17 5.55112e-16 
-1.11022e-16 5.55112e-17 0 
6.58761e-17 4.47559e-17 0 
1.0339e-16 -1.94289e-17 0 
5.55112e-17 -1.11022e-16 -2.22045e-16 
-4.51028e-17 5.55112e-17 -3.33067e-16 
-7.28584e-17 -5.55112e-17 2.22045e-16 
-8.32667e-17 0 0 
-5.55112e-17 0 -5.55112e-17 
0 -4.16334e-17 2.22045e-16 
2.60209e-18 -2.32019e-17 4.44089e-16 
-4.16334e-17 -3.60904e-17 -8.88178e-16 
-4.85723e-17 0 0 
0 0 2.22045e-16 
2.29004e-17 5.55654e-18 -2.22045e-16 
-1.38778e-17 -1.73472e-17 1.11022e-15 
6.93889e-17 1.11022e-16 -1.11022e-16 
1.0339e-16 -1.94289e-17 0 
2.77556e-17 1.11022e-16 6.66134e-16 
0 5.55112e-17 0 
-8.32667e-17 -5.55112e-17 4.44089e-16 
0 -2.77556e-17 5.55112e-16 
-2.77556e-17 0 0 
-4.51028e-17 5.55112e-17 -3.33067e-16 
0 1.38778e-17 9.99201e-16 
-6.93889e-18 -1.73472e-17 3.33067e-16 
-4.16334e-17 -5.55112e-17 -4.44089e-16 
0 -2.77556e-17 5.55112e-16 
-2.77556e-17 5.55112e-17 1.33227e-15 
0 5.55112e-17 0 
-2.77556e-17 0 0 
-2.77556e-17 5.55112e-17 5.55112e-16 
-4.16334e-17 1.38778e-17 0.00318586 
2.77556e-17 4.16334e-17 5.55112e-17 
-2.77556e-17 0 -4.44089e-16 
3.46945e-17 -5.55112e-17 -2.22045e-16 
0 1.38778e-17 2.49847e-07 
-9.71445e-17 -5.55112e-17 6.66134e-16 
-3.1225e-17 0 0 
1.38778e-17 -1.32273e-17 0.0031863 
2.08167e-17 2.77556e-17 -4.44089e-16 
5.55112e-17 -5.55112e-17 4.44089e-16 
2.77556e-17 -5.55112e-17 1.11022e-16 
-4.51028e-17 5.55112e-17 -3.33067e-16 
6.93889e-17 1.11022e-16 -1.11022e-16 
-4.16334e-17 2.08167e-17 3.33067e-16 
5.55112e-17 -1.11022e-16 -2.22045e-16 
-5.55112e-17 0 -5.55112e-16 
2.77556e-17 -8.32667e-17 4.44089e-16 
-4.51028e-17 5.55112e-17 -3.33067e-16 
-7.28584e-17 -5.55112e-17 2.22045e-16 
2.77556e-17 0 6.66134e-16 
-4.85723e-17 0 0 
6.93889e-18 1.38778e-17 -5.55112e-17 
-2.77556e-17 2.77556e-17 -1.11022e-16 
-5.55112e-17 -2.77556e-17 1.11022e-16 
-2.77556e-17 5.55112e-17 5.55112e-16 
1.38778e-17 -2.77556e-17 -9.99201e-16 
-5.55112e-17 5.55112e-17 0 
-8.32667e-17 9.71445e-17 2.77556e-16 
-9.71445e-17 -5.55112e-17 6.66134e-16 
0 1.38778e-17 2.49847e-07 
-3.1225e-17 0 0 
5.55112e-17 -1.11022e-16 -2.22045e-16 
-4.16334e-17 -5.55112e-17 -4.44089e-16 
-4.51028e-17 5.55112e-17 -3.33067e-16 
-7.28584e-17 -5.55112e-17 2.22045e-16 
0 0 1.33227e-15 
2.32426e-17 1.587e-17 -8.88178e-16 
-3.46945e-17 2.77556e-17 -1.24791e-06 
-6.93889e-18 2.77556e-17 -4.44089e-16 
6.245e-17 -1.38778e-17 -2.22045e-16 
0 -3.46945e-18 6.66134e-16 
0 0 -2.59793e-07 
0 2.77556e-17 0 
-6.93889e-17 -1.38778e-17 0.00318586 
-2.77556e-17 -4.85723e-17 -2.22045e-16 
-2.77556e-17 0 -4.44089e-16 
-5.55112e-17 -2.77556e-17 1.11022e-16 
6.245e-17 -1.38778e-17 -2.22045e-16 
-5.55112e-17 -2.77556e-17 0.00318586 
-8.32667e-17 6.93889e-17 -3.33067e-16 
0 2.77556e-17 0 
1.17961e-17 -4.16334e-18 0 
-2.77556e-17 -2.77556e-17 2.22045e-16 
-1.38778e-17 0 -1.11022e-16 
0 -1.11022e-16 4.44089e-16 
-2.77556e-17 -2.08167e-17 -2.22045e-16 
1.38778e-17 4.16334e-17 -2.22045e-16 
-4.16334e-17 5.55112e-17 2.22045e-16 
8.32667e-18 8.32667e-17 -7.77156e-16 
5.27356e-17 -1.21431e-17 -2.77556e-16 
-1.38778e-16 -1.38778e-17 9.99201e-16 
-4.16334e-17 0 -4.44089e-16 
0 -1.11022e-16 4.44089e-16 
5.55112e-17 -5.55112e-17 4.44089e-16 
-8.32667e-17 -3.46945e-17 0 
1.38778e-17 -2.77556e-17 -9.99201e-16 
-5.55112e-17 5.55112e-17 0 
5.27356e-17 -1.21431e-17 -2.77556e-16 
1.17961e-17 -4.16334e-18 0 
1.80411e-17 -4.68375e-17 1.11022e-16 
0 -1.11022e-16 4.44089e-16 
0 1.38778e-17 7.77156e-16 
-5.55112e-17 0 4.44089e-16 
4.16334e-17 -6.93889e-17 3.33067e-16 
0 -1.11022e-16 4.44089e-16 
1.38778e-17 2.77556e-17 0 
1.38778e-17 -2.77556e-17 -9.99201e-16 
-8.32667e-17 -3.46945e-17 0 
-5.55112e-17 5.55112e-17 0 
2.42861e-17 -2.77556e-17 -4.87734e-08 
0 4.16334e-17 0 
5.55112e-17 5.55112e-17 0 
5.55112e-17 5.55112e-17 1.33227e-15 
0 0 0.00318586 
-4.85723e-17 -6.93889e-17 0 
1.11022e-16 2.77556e-17 3.33067e-16 
-5.55112e-17 -1.38778e-17 1.22125e-15 
6.93889e-17 -3.1225e-17 1.11022e-16 
0 0 4.44089e-16 
5.55112e-17 2.77556e-17 5.55112e-16 
0 2.77556e-17 -2.22045e-16 
1.38778e-17 3.46945e-17 1.05471e-15 
0 -2.77556e-17 5.55112e-16 
1.38778e-17 6.93889e-18 0 
0 5.55112e-17 0 
5.55112e-17 8.32667e-17 0.00318586 
2.77556e-17 -8.32667e-17 4.44089e-16 
0 4.16334e-17 0 
0 0 4.44089e-16 
-3.1225e-17 0 0 
-2.21177e-17 0 5.55112e-17 
9.71445e-17 5.55112e-17 0.00318592 
2.08167e-17 2.77556e-17 -4.44089e-16 
0 -4.16334e-17 2.22045e-16 
-8.32667e-17 0 0 
2.60209e-18 -2.32019e-17 4.44089e-16 
-4.16334e-17 0 5.55112e-17 
-6.93889e-18 -1.73472e-17 3.33067e-16 
-2.77556e-17 -2.08167e-17 -2.22045e-16 
-5.55112e-17 0 -5.55112e-16 
-2.77556e-17 5.55112e-17 0 
-1.11022e-16 5.55112e-17 0 
0 2.08167e-17 5.55112e-16 
6.93889e-18 1.38778e-17 -5.55112e-17 
-2.77556e-17 2.77556e-17 -1.11022e-16 
1.11022e-16 -2.77556e-17 -8.88178e-16 
0 -5.55112e-17 0.00318586 
-2.77556e-17 -6.93889e-17 2.22045e-16 
-5.55112e-17 4.16334e-17 0 
-1.38778e-17 0 -1.11022e-16 
0 -1.11022e-16 4.44089e-16 
-2.77556e-17 -2.77556e-17 2.22045e-16 
0 -1.38778e-17 4.44089e-16 
6.93889e-17 1.11022e-16 -1.11022e-16 
-4.51028e-17 5.55112e-17 -3.33067e-16 
8.32667e-17 -2.77556e-17 6.66134e-16 
1.0339e-16 -1.94289e-17 0 
5.55112e-17 5.55112e-17 0.00318586 
-4.85723e-17 -6.93889e-17 0 
-2.77556e-17 -4.85723e-17 -2.22045e-16 
-5.55112e-17 -2.77556e-17 1.11022e-16 
5.55112e-17 2.08167e-17 0 
0 0 4.44089e-16 
-1.17961e-17 0 -5.25782e-07 
1.63064e-17 -2.75819e-17 6.66134e-16 
-2.08167e-17 2.77556e-17 -4.44089e-16 
9.02056e-17 -2.77556e-17 0 
3.95517e-17 -9.71445e-18 0 
1.38778e-17 6.93889e-18 1.11022e-16 
-2.77556e-17 5.55112e-17 5.55112e-16 
5.55112e-17 8.32667e-17 -1.11022e-16 
-2.77556e-17 0 0 
-5.55112e-17 5.55112e-17 0 
6.245e-17 -1.38778e-17 -2.22045e-16 
0 0 -2.59793e-07 
0 -3.46945e-18 6.66134e-16 
1.71711e-17 9.96585e-17 -4.44089e-16 
5.55112e-17 2.77556e-17 0.00318561 
-8.32667e-17 9.71445e-17 2.77556e-16 
8.32667e-17 0 1.22125e-15 
5.55112e-17 -1.11022e-16 2.22045e-16 
-5.55112e-17 0 -5.55112e-17 
3.46945e-17 2.08167e-17 -4.44089e-16 
-9.36751e-17 -5.55112e-17 -2.22045e-16 
1.11022e-16 1.38778e-17 8.88178e-16 
-2.77556e-17 5.55112e-17 -6.66134e-16 
-8.32667e-17 -4.16334e-17 1.55431e-15 
0 0 -2.22045e-16 
1.38778e-18 1.38778e-17 -5.55112e-16 
3.46945e-17 -5.55112e-17 -2.22045e-16 
0 0 -4.44089e-16 
-4.16232e-18 4.98733e-17 -5.93666e-08 
-3.1225e-17 0 0 
-3.1225e-17 0 0 
0 0 -4.44089e-16 
-4.16232e-18 4.98733e-17 -5.93666e-08 
-2.21177e-17 0 5.55112e-17 
0 0 -4.44089e-16 
5.55112e-17 -5.55112e-17 4.44089e-16 
2.08167e-17 2.64537e-17 -4.38529e-07 
-2.21177e-17 0 5.55112e-17 
-8.32667e-17 9.71445e-17 2.77556e-16 
2.42861e-17 -6.93889e-18 1.65983e-06 
-9.71445e-17 -5.55112e-17 6.66134e-16 
6.93889e-17 6.93889e-17 0 
-8.32667e-17 -3.46945e-17 0 
1.38778e-17 2.77556e-17 0 
-4.85723e-17 -6.93889e-17 0 
1.11022e-16 2.77556e-17 3.33067e-16 
1.38778e-17 6.93889e-18 0 
2.77556e-17 2.77556e-17 0.00606834 
1.38778e-17 -2.77556e-17 2.22045e-16 
-5.89806e-17 1.11022e-16 2.22045e-16 
-8.32667e-17 6.93889e-17 -3.33067e-16 
2.77556e-17 0 0 
-5.55112e-17 -2.77556e-17 0.00318586 
6.245e-17 -1.38778e-17 -2.22045e-16 
-6.93889e-17 -6.93889e-18 7.77156e-16 
-5.55112e-17 2.77556e-17 0.00318535 
5.55112e-17 -5.55112e-17 4.44089e-16 
2.77556e-17 -5.55112e-17 1.11022e-16 
-5.55112e-17 -2.77556e-17 1.11022e-16 
5.55112e-17 5.55112e-17 0.00318586 
-4.85723e-17 -6.93889e-17 0 
1.11022e-16 2.77556e-17 3.33067e-16 
-2.10335e-17 6.93889e-18 -5.55112e-16 
2.28983e-17 -1.38778e-18 4.996e-16 
-1.31839e-17 2.1684e-18 -1.66533e-16 
-8.67362e-18 -4.16334e-17 -6.66134e-16 
1.249e-17 -2.11636e-17 1.94289e-16 
7.63278e-18 5.55112e-18 1.38778e-17 
1.38778e-17 0 -8.88178e-16 
0 -2.77556e-17 1.33227e-15 
1.11022e-16 -2.77556e-17 -8.88178e-16 
-4.42354e-17 2.77556e-17 0.00318586 
5.55112e-17 5.55112e-17 0 
-2.77556e-17 -6.93889e-17 2.22045e-16 
-8.32667e-17 -1.38778e-17 1.11022e-16 
0 2.77556e-17 0.00606827 
0 -2.08167e-17 0 
-1.38778e-17 1.04083e-17 5.55112e-16 
5.55112e-17 -1.11022e-16 2.22045e-16 
1.38778e-18 1.38778e-17 -5.55112e-16 
5.55112e-17 1.56125e-17 0 
-1.38778e-17 -8.32667e-17 -4.44089e-16 
2.32426e-17 1.587e-17 -8.88178e-16 
-9.71445e-17 -5.55112e-17 6.66134e-16 
2.42861e-17 -6.93889e-18 1.65983e-06 
6.93889e-17 6.93889e-17 0 
1.38778e-17 -2.77556e-17 -9.99201e-16 
1.38778e-17 2.77556e-17 0 
-5.55112e-17 -2.77556e-17 1.11022e-16 
-5.55112e-17 5.55112e-17 0 
3.46945e-18 -2.77556e-17 0 
-1.38778e-17 3.46945e-17 2.22045e-16 
-4.69131e-18 -1.36761e-17 -1.11022e-16 
4.16334e-17 2.77556e-17 -6.66134e-16 
1.2837e-17 3.40006e-17 0 
1.38778e-17 5.55112e-17 -6.10623e-16 
5.55112e-17 2.08167e-17 0 
-1.38778e-17 -1.73472e-17 1.11022e-15 
-2.77556e-17 -2.77556e-17 1.11022e-16 
7.28584e-17 -4.85723e-17 0.00399973 
1.38778e-17 5.55112e-17 -6.10623e-16 
5.55112e-17 2.08167e-17 0 
-9.06393e-18 5.89806e-18 -3.33067e-16 
0 6.93889e-18 -1.11022e-16 
-1.38778e-17 -6.93889e-18 2.22045e-16 
-2.77556e-18 -2.498e-17 1.11022e-16 
0 -2.77556e-17 9.99201e-16 
1.38778e-17 -2.77556e-17 -9.99201e-16 
-2.77556e-17 5.55112e-17 5.55112e-16 
-5.55112e-17 5.55112e-17 0 
5.55112e-17 8.32667e-17 -1.11022e-16 
-2.77556e-17 -4.85723e-17 -2.22045e-16 
-2.77556e-17 0 -4.44089e-16 
3.46945e-17 0 4.47447e-10 
1.38778e-17 -2.77556e-17 -9.99201e-16 
0 -2.77556e-17 5.55112e-16 
-1.38778e-17 5.55112e-17 1.11022e-16 
5.55112e-17 -5.55112e-17 4.44089e-16 
-5.55112e-17 0 0 
-4.16334e-18 2.498e-17 0 
-2.77556e-17 5.55112e-17 -4.44089e-16 
0 2.77556e-17 0 
-5.55112e-17 8.32667e-17 0.0031842 
6.93889e-17 6.93889e-17 0 
5.55112e-17 -1.11022e-16 2.22045e-16 
0 2.77556e-17 2.22045e-16 
0 -1.73472e-17 2.77556e-16 
-8.32667e-17 6.93889e-17 -3.33067e-16 
-5.55112e-17 -6.93889e-17 0.00399973 
-5.55112e-17 0 0 
1.9082e-17 4.16334e-17 3.33067e-16 
5.20417e-17 1.11022e-16 8.88178e-16 
-3.19189e-17 2.63678e-17 2.77556e-17 
2.77556e-17 0 4.44089e-16 
0 4.16334e-17 0 
2.42861e-17 -2.77556e-17 -4.87734e-08 
-5.55112e-17 0 -2.22045e-16 
5.55112e-17 5.55112e-17 1.33227e-15 
6.93889e-17 -3.1225e-17 1.11022e-16 
4.85723e-17 -2.77556e-17 -4.996e-16 
2.15106e-17 -3.33067e-17 8.88178e-16 
-5.55112e-17 0 -1.11022e-16 
-6.93889e-17 -1.38778e-17 0.00318586 
-2.77556e-17 0 -4.44089e-16 
-2.77556e-17 5.55112e-17 5.55112e-16 
-5.55112e-17 -2.77556e-17 1.11022e-16 
3.95517e-17 -9.71445e-18 0 
-2.77556e-17 5.55112e-17 1.33227e-15 
-2.08167e-17 2.77556e-17 -4.44089e-16 
1.38778e-17 6.93889e-18 1.11022e-16 
-4.02456e-17 3.19189e-17 4.44089e-16 
-1.66533e-17 -6.93889e-18 9.4369e-16 
2.91434e-17 -2.79488e-17 4.16334e-17 
-1.11022e-16 2.77556e-17 1.77636e-15 
8.32667e-17 -3.98986e-17 -2.22045e-16 
-2.77556e-17 -5.55112e-17 -2.77556e-16 
-6.93889e-18 -3.46945e-17 0.00318586 
-8.32667e-17 0 -4.44089e-16 
2.28983e-17 -1.38778e-18 4.996e-16 
3.46945e-18 -2.77556e-17 0 
-1.38778e-17 -2.08167e-17 1.11022e-16 
-8.67362e-18 -4.16334e-17 -6.66134e-16 
0 6.93889e-18 -1.11022e-16 
1.9082e-17 4.16334e-17 3.33067e-16 
-3.19189e-17 -3.51752e-17 -5.55112e-17 
2.77556e-17 0 4.44089e-16 
-2.42861e-17 -5.55112e-17 -1.11022e-16 
-2.08167e-17 1.11022e-16 3.33067e-16 
-1.38778e-17 0 -4.44089e-16 
-8.67362e-18 -4.16334e-17 -6.66134e-16 
2.08167e-17 2.64537e-17 -4.38529e-07 
2.77556e-17 -1.9082e-17 8.88178e-16 
5.55112e-17 -5.55112e-17 4.44089e-16 
0 0 -4.44089e-16 
-8.32667e-17 0 -4.44089e-16 
0 5.55112e-17 0.00318577 
0 -5.55112e-17 2.22045e-16 
8.32667e-17 5.55112e-17 -5.55112e-16 
-2.77556e-17 -2.77556e-17 2.22045e-16 
4.16334e-17 2.77556e-17 -6.66134e-16 
3.1225e-17 3.46945e-17 0 
0 -1.38778e-17 4.44089e-16 
1.38778e-17 2.77556e-17 0 
-2.77556e-17 -4.85723e-17 -2.22045e-16 
5.55112e-17 8.32667e-17 -1.11022e-16 
3.46945e-17 0 4.47447e-10 
-1.38778e-17 1.04083e-17 5.55112e-16 
-2.77556e-17 -2.77556e-17 1.11022e-16 
7.28584e-17 -4.85723e-17 0.00399973 
1.38778e-17 5.55112e-17 -6.10623e-16 
1.94275e-17 5.55654e-18 1.55696e-06 
-2.77556e-17 -5.55112e-17 2.22045e-16 
-2.77556e-17 -6.93889e-17 2.22045e-16 
-5.55112e-17 4.16334e-17 0 
-2.08167e-17 2.77556e-17 -4.44089e-16 
-2.77556e-17 -2.77556e-17 0.00399973 
2.77556e-17 4.16334e-17 5.55112e-17 
9.02056e-17 -2.77556e-17 0 
-6.93889e-17 -4.16334e-17 5.55112e-16 
0 0 -2.22045e-16 
-2.42861e-17 -5.55112e-17 -1.11022e-16 
2.77556e-17 0 4.44089e-16 
2.77556e-17 -8.32667e-17 4.44089e-16 
5.55112e-17 8.32667e-17 0.00318586 
8.32667e-17 -2.77556e-17 6.66134e-16 
0 0 4.44089e-16 
-5.89806e-17 1.11022e-16 2.22045e-16 
1.38778e-17 0 -3.33067e-16 
-5.55112e-17 5.55112e-17 -6.66134e-16 
3.95517e-17 -9.71445e-18 0 
-8.32667e-17 6.93889e-17 -3.33067e-16 
-5.55112e-17 -6.93889e-17 0.00399973 
-5.55112e-17 0 0 
0 2.77556e-17 0 
0 2.77556e-17 0.00606827 
0 -2.08167e-17 0 
-1.38778e-17 1.04083e-17 5.55112e-16 
1.38778e-17 5.55112e-17 -6.10623e-16 
0 5.55112e-17 -2.22045e-16 
-2.77556e-17 -2.77556e-17 2.22045e-16 
-9.71445e-17 -1.11022e-16 -8.88178e-16 
-4.16334e-17 0 -4.44089e-16 
-4.16334e-17 5.55112e-17 2.22045e-16 
0 -5.55112e-17 0.00318586 
1.11022e-16 -2.77556e-17 -8.88178e-16 
-5.55112e-17 4.16334e-17 0 
0 2.77556e-17 2.22045e-16 
-3.81639e-17 5.55112e-17 0.00400098 
-6.93889e-18 2.77556e-17 -4.44089e-16 
-1.38778e-17 8.32667e-17 1.66533e-16 
3.46945e-17 6.93889e-18 -1.11022e-16 
2.77556e-17 5.55112e-17 -1.11022e-16 
0 1.38778e-17 7.77156e-16 
0 -1.38778e-17 4.44089e-16 
0 0 1.33227e-15 
1.24899e-17 -2.77556e-17 -7.39537e-08 
-2.77556e-17 5.55112e-17 -4.44089e-16 
0 4.16334e-17 2.22045e-16 
-2.77556e-17 -2.77556e-17 0.00399973 
1.38778e-17 6.93889e-18 0 
2.77556e-17 4.16334e-17 5.55112e-17 
9.02056e-17 -2.77556e-17 0 
7.11237e-18 3.45312e-17 -1.11022e-16 
3.1225e-17 3.46945e-17 0 
1.04083e-17 -2.77556e-17 0 
0 -1.38778e-17 4.44089e-16 
1.04083e-17 -2.77556e-17 0 
4.16334e-17 2.77556e-17 -6.66134e-16 
-1.66533e-17 -6.93889e-18 9.4369e-16 
0 -1.38778e-17 4.44089e-16 
-2.77556e-17 -6.93889e-17 2.22045e-16 
-2.77556e-17 -5.55112e-17 2.22045e-16 
1.94275e-17 5.55654e-18 1.55696e-06 
2.77556e-17 1.38778e-17 4.44089e-16 
3.46945e-18 -8.32667e-18 2.77556e-17 
2.25514e-17 1.38778e-17 0 
3.05311e-17 2.25514e-17 -3.33067e-16 
-1.38778e-17 -5.55112e-17 2.22045e-16 
-2.08167e-17 1.11022e-16 3.33067e-16 
-2.77556e-18 -2.498e-17 1.11022e-16 
-9.71445e-17 -1.11022e-16 -8.88178e-16 
-1.38778e-17 -5.55112e-17 2.22045e-16 
-2.77556e-17 0 -2.22045e-16 
-9.36751e-17 -5.55112e-17 -2.22045e-16 
3.46945e-17 2.08167e-17 -4.44089e-16 
1.11022e-16 1.38778e-17 8.88178e-16 
-5.55112e-17 -1.38778e-17 1.22125e-15 
6.245e-17 -4.16334e-17 0.00318586 
5.55112e-17 -1.11022e-16 -8.88178e-16 
-1.11022e-16 5.55112e-17 0 
1.63064e-17 -2.75819e-17 6.66134e-16 
0 0 4.44089e-16 
-1.38778e-17 -2.08167e-17 3.1509e-07 
-5.55112e-17 0 -2.22045e-16 
2.77556e-18 2.63678e-17 -5.55112e-17 
-2.77556e-17 -5.55112e-17 0 
-2.70617e-17 -1.56125e-17 2.22045e-16 
-1.38778e-16 -1.38778e-17 9.99201e-16 
2.77556e-18 2.63678e-17 -5.55112e-17 
5.27356e-17 -1.21431e-17 -2.77556e-16 
1.80411e-17 -4.68375e-17 1.11022e-16 
-1.38778e-16 -1.38778e-17 9.99201e-16 
0 6.93889e-18 -1.11022e-16 
-2.77556e-18 -2.498e-17 1.11022e-16 
1.9082e-17 4.16334e-17 3.33067e-16 
2.77556e-17 0 4.44089e-16 
5.55112e-17 2.77556e-17 8.88178e-16 
1.38778e-17 -5.55112e-17 0 
2.77556e-17 1.94289e-17 0 
6.245e-17 4.85723e-17 -8.88178e-16 
2.77556e-17 -5.55112e-17 1.44329e-15 
-9.36751e-17 -5.55112e-17 -2.22045e-16 
2.77556e-17 -6.93889e-18 0.00606827 
0 8.32667e-17 -4.996e-16 
0 -1.73472e-17 2.77556e-16 
0 0 0.00606834 
-1.38778e-17 8.32667e-17 1.66533e-16 
0 4.16334e-17 2.22045e-16 
2.77556e-17 -8.32667e-17 4.44089e-16 
-5.55112e-17 0 -5.55112e-16 
2.77556e-17 6.93889e-17 0.00318586 
5.55112e-17 5.55112e-17 0 
-1.11022e-16 5.55112e-17 0 
2.77556e-17 1.38778e-17 0.00399973 
5.55112e-17 -1.11022e-16 -8.88178e-16 
-8.32667e-17 -1.38778e-17 1.11022e-16 
1.04083e-17 -2.77556e-17 0 
3.1225e-17 3.46945e-17 0 
-1.66533e-17 -6.93889e-18 9.4369e-16 
4.16334e-17 2.77556e-17 -6.66134e-16 
-5.55112e-17 0 0 
-2.77556e-17 5.55112e-17 -4.44089e-16 
1.24899e-17 -2.77556e-17 -7.39537e-08 
0 4.16334e-17 2.22045e-16 
0 0 4.44089e-16 
0 4.16334e-17 0 
-1.38778e-17 -2.08167e-17 3.1509e-07 
-5.55112e-17 0 -2.22045e-16 
0 5.55112e-17 -2.22045e-16 
-4.16334e-17 0 -4.44089e-16 
1.11022e-16 0 -1.11022e-16 
-1.38778e-16 -1.38778e-17 9.99201e-16 
-6.02816e-17 -4.16334e-17 0 
-1.38778e-17 1.04083e-17 5.55112e-16 
6.93889e-18 1.38778e-17 -5.55112e-17 
2.77556e-17 0 6.66134e-16 
2.08167e-17 2.77556e-17 -4.44089e-16 
9.71445e-17 5.55112e-17 0.00318592 
-3.1225e-17 0 0 
8.32667e-17 0 1.22125e-15 
1.38778e-17 5.55112e-17 0.00399973 
-4.16334e-17 0 5.55112e-17 
2.60209e-18 -2.32019e-17 4.44089e-16 
-6.93889e-17 -6.93889e-18 7.77156e-16 
-1.38778e-17 -1.73472e-17 1.11022e-15 
5.55112e-17 2.08167e-17 0 
-1.17961e-17 0 -5.25782e-07 
1.63064e-17 -2.75819e-17 6.66134e-16 
-3.81639e-17 5.55112e-17 0.00400098 
-6.93889e-18 2.77556e-17 -4.44089e-16 
6.93889e-17 6.93889e-17 0 
0 2.77556e-17 2.22045e-16 
1.38778e-17 -2.77556e-17 2.22045e-16 
2.77556e-17 2.77556e-17 0.00606834 
5.55112e-17 2.77556e-17 8.88178e-16 
-5.89806e-17 1.11022e-16 2.22045e-16 
2.60209e-18 -2.32019e-17 4.44089e-16 
1.38778e-17 5.55112e-17 0.00399973 
-6.93889e-17 -6.93889e-18 7.77156e-16 
2.77556e-17 -5.55112e-17 1.44329e-15 
-1.66533e-17 -6.93889e-18 9.4369e-16 
0 -1.38778e-17 4.44089e-16 
4.16334e-17 2.77556e-17 -6.66134e-16 
-1.11022e-16 2.77556e-17 1.77636e-15 
-4.85723e-17 0 0 
0 -2.08167e-17 0 
0 -2.25514e-17 -1.11022e-16 
-3.22659e-17 4.34548e-17 4.44089e-16 
1.38778e-17 0 -3.33067e-16 
-5.55112e-17 5.55112e-17 -6.66134e-16 
5.55112e-17 2.77556e-17 8.88178e-16 
-5.89806e-17 1.11022e-16 2.22045e-16 
6.93889e-17 0 0 
-5.10009e-17 -1.04083e-18 5.55112e-17 
2.77556e-17 0 0 
-4.16334e-17 0 -4.44089e-16 
1.11022e-16 -2.77556e-17 -8.88178e-16 
-4.42354e-17 2.77556e-17 0.00318586 
-5.55112e-17 0 -5.55112e-16 
5.55112e-17 5.55112e-17 0 
0 -3.46945e-18 6.66134e-16 
-2.77556e-17 5.55112e-17 -4.44089e-16 
-4.16334e-18 2.498e-17 0 
0 2.77556e-17 0 
-5.55112e-17 0 4.44089e-16 
5.55112e-17 -5.55112e-17 -2.22045e-16 
0 -2.77556e-17 -3.33067e-16 
-1.38778e-16 -1.38778e-17 9.99201e-16 
-2.77556e-17 -5.55112e-17 -2.77556e-16 
-6.93889e-18 -3.46945e-17 0.00318586 
-8.32667e-17 0 -4.44089e-16 
6.93889e-17 -3.1225e-17 1.11022e-16 
3.46945e-18 -8.32667e-18 2.77556e-17 
3.05311e-17 2.25514e-17 -3.33067e-16 
7.28584e-18 -6.07153e-18 1.11022e-16 
-1.38778e-17 -5.55112e-17 2.22045e-16 
-5.55112e-17 5.55112e-17 -6.66134e-16 
1.38778e-17 -5.55112e-17 0 
2.77556e-17 1.94289e-17 0 
5.55112e-17 2.77556e-17 8.88178e-16 
-1.62386e-17 9.78066e-19 -4.85723e-17 
-1.9082e-17 -5.18249e-17 4.44089e-16 
2.91434e-17 -2.79488e-17 4.16334e-17 
-1.11022e-16 2.77556e-17 1.77636e-15 
0 5.55112e-17 -2.22045e-16 
-9.71445e-17 -1.11022e-16 -8.88178e-16 
-2.21177e-17 -6.59195e-17 -1.11022e-16 
-4.16334e-17 0 -4.44089e-16 
8.32667e-17 5.55112e-17 -5.55112e-16 
-8.32667e-17 0 -4.44089e-16 
0 5.55112e-17 0.00318577 
6.93889e-17 -3.1225e-17 1.11022e-16 
5.27356e-17 -1.21431e-17 -2.77556e-16 
1.80411e-17 -4.68375e-17 1.11022e-16 
-1.38778e-16 -1.38778e-17 9.99201e-16 
0 -1.11022e-16 4.44089e-16 
-2.77556e-17 -4.85723e-17 -2.22045e-16 
5.89789e-18 5.20417e-17 -3.67721e-11 
1.38778e-17 2.77556e-17 0 
-4.85723e-17 -6.93889e-17 0 
-1.38778e-17 0 -1.11022e-16 
7.11237e-18 3.45312e-17 -1.11022e-16 
-1.31839e-17 1.66533e-17 -7.63278e-17 
0 -1.38778e-17 4.44089e-16 
1.249e-17 -2.11636e-17 1.94289e-16 
0 5.20417e-18 0 
-2.77556e-17 1.38778e-17 -1.11022e-16 
0 -2.77556e-17 1.33227e-15 
0 -2.25514e-17 -1.11022e-16 
0 0 2.22045e-16 
0 -2.08167e-17 0 
-4.85723e-17 0 0 
0 1.38778e-17 7.77156e-16 
-2.77556e-17 -2.77556e-17 2.22045e-16 
0 5.55112e-17 -2.22045e-16 
0 -1.11022e-16 4.44089e-16 
-5.89806e-17 1.11022e-16 2.22045e-16 
1.38778e-17 6.93889e-18 0 
2.77556e-17 2.77556e-17 0.00606834 
9.02056e-17 -2.77556e-17 0 
2.28983e-17 -1.38778e-18 4.996e-16 
-1.38778e-17 -2.08167e-17 1.11022e-16 
-1.31839e-17 2.1684e-18 -1.66533e-16 
-8.67362e-18 -4.16334e-17 -6.66134e-16 
-6.93889e-18 2.77556e-17 -4.44089e-16 
1.24899e-17 -2.77556e-17 -7.39537e-08 
0 0 1.33227e-15 
0 4.16334e-17 2.22045e-16 
1.80411e-17 -4.68375e-17 1.11022e-16 
1.17961e-17 -4.16334e-18 0 
1.38778e-17 3.46945e-17 -4.44089e-16 
0 -1.11022e-16 4.44089e-16 
-1.38778e-17 3.46945e-17 2.22045e-16 
-1.62386e-17 9.78066e-19 -4.85723e-17 
-1.66533e-17 -6.93889e-18 9.4369e-16 
-1.11022e-16 2.77556e-17 1.77636e-15 
0 6.93889e-17 5.55112e-16 
-9.71445e-17 -1.11022e-16 -8.88178e-16 
0 5.55112e-17 -2.22045e-16 
-2.77556e-17 -2.77556e-17 2.22045e-16 
2.60209e-18 -2.32019e-17 4.44089e-16 
-9.36751e-17 -5.55112e-17 -2.22045e-16 
2.77556e-17 -6.93889e-18 0.00606827 
2.77556e-17 -5.55112e-17 1.44329e-15 
-2.21177e-17 -6.59195e-17 -1.11022e-16 
-2.77556e-18 -2.498e-17 1.11022e-16 
0 0 -2.22045e-16 
0 -2.77556e-17 1.33227e-15 
0 0 0.00606834 
0 -1.73472e-17 2.77556e-16 
-5.55112e-17 0 0 
0 4.16334e-17 2.22045e-16 
-5.10009e-17 -1.04083e-18 5.55112e-17 
1.2739e-17 -6.85216e-18 -1.11022e-16 
2.77556e-17 0 0 
-4.16334e-17 0 -4.44089e-16 
-2.21177e-17 -6.59195e-17 -1.11022e-16 
-9.71445e-17 -1.11022e-16 -8.88178e-16 
-2.77556e-18 -2.498e-17 1.11022e-16 
-4.16334e-17 0 -4.44089e-16 
-6.93889e-18 -1.38778e-17 0 
1.21431e-17 -3.46945e-17 8.88178e-16 
-1.38778e-17 0 -1.11022e-16 
-2.77556e-17 -2.77556e-17 2.22045e-16 
3.1225e-17 3.46945e-17 0 
4.16334e-17 2.77556e-17 -6.66134e-16 
1.04083e-17 -2.77556e-17 0 
0 -1.38778e-17 4.44089e-16 
-1.31839e-17 1.66533e-17 -7.63278e-17 
1.04083e-17 -2.77556e-17 0 
-4.02456e-17 3.19189e-17 4.44089e-16 
0 -1.38778e-17 4.44089e-16 
-2.08167e-17 1.11022e-16 3.33067e-16 
0 6.93889e-17 5.55112e-16 
-5.55112e-17 2.77556e-17 0 
-1.38778e-17 -5.55112e-17 2.22045e-16 
-2.21177e-17 -6.59195e-17 -1.11022e-16 
0 6.93889e-17 5.55112e-16 
-2.08167e-17 1.11022e-16 3.33067e-16 
-9.71445e-17 -1.11022e-16 -8.88178e-16 
0 0 -2.22045e-16 
-2.21177e-17 -6.59195e-17 -1.11022e-16 
-2.08167e-17 1.11022e-16 3.33067e-16 
-2.77556e-18 -2.498e-17 1.11022e-16 
-2.21177e-17 -6.59195e-17 -1.11022e-16 
-4.16334e-17 0 -4.44089e-16 
-2.77556e-18 -2.498e-17 1.11022e-16 
0 -2.77556e-17 1.33227e-15 
0 5.55112e-17 -2.22045e-16 
1.11022e-16 0 -1.11022e-16 
5.55112e-17 -5.55112e-17 -2.22045e-16 
-1.38778e-16 -1.38778e-17 9.99201e-16 
2.77556e-17 5.55112e-17 -1.11022e-16 
0 6.93889e-17 5.55112e-16 
0 1.38778e-17 7.77156e-16 
0 -1.38778e-17 4.44089e-16 
0 6.93889e-17 5.55112e-16 
0 5.55112e-17 -2.22045e-16 
0 1.38778e-17 7.77156e-16 
-2.77556e-17 -2.77556e-17 2.22045e-16 
-2.21177e-17 -6.59195e-17 -1.11022e-16 
0 5.55112e-17 -2.22045e-16 
0 6.93889e-17 5.55112e-16 
-9.71445e-17 -1.11022e-16 -8.88178e-16 
-5.55112e-17 2.77556e-17 0 
4.16334e-17 2.77556e-17 -6.66134e-16 
2.77556e-17 5.55112e-17 -1.11022e-16 
-1.11022e-16 2.77556e-17 1.77636e-15 
-1.38778e-17 0 -4.44089e-16 
-2.08167e-17 1.11022e-16 3.33067e-16 
-5.55112e-17 2.77556e-17 0 
-8.67362e-18 -4.16334e-17 -6.66134e-16 
1.38778e-17 0 -3.33067e-16 
-5.89806e-17 1.11022e-16 2.22045e-16 
9.02056e-17 -2.77556e-17 0 
3.95517e-17 -9.71445e-18 0 
-5.55112e-17 2.77556e-17 0 
-8.32667e-17 5.55112e-17 3.33067e-16 
-1.38778e-17 0 -4.44089e-16 
-8.67362e-18 -4.16334e-17 -6.66134e-16 
-9.36751e-17 -5.55112e-17 -2.22045e-16 
3.46945e-17 2.08167e-17 -4.44089e-16 
-5.55112e-17 0 -5.55112e-17 
2.60209e-18 -2.32019e-17 4.44089e-16 
-5.55112e-17 2.77556e-17 0 
2.77556e-17 5.55112e-17 -1.11022e-16 
2.77556e-17 4.16334e-17 1.33227e-15 
-1.11022e-16 2.77556e-17 1.77636e-15 
0 0 -2.22045e-16 
-2.08167e-17 1.11022e-16 3.33067e-16 
-2.42861e-17 -5.55112e-17 -1.11022e-16 
2.77556e-17 0 4.44089e-16 
2.77556e-17 5.55112e-17 -1.11022e-16 
-5.55112e-17 2.77556e-17 0 
0 6.93889e-17 5.55112e-16 
4.16334e-17 2.77556e-17 -6.66134e-16 
-3.19189e-17 2.63678e-17 2.77556e-17 
5.20417e-18 0 -4.44089e-16 
-3.19189e-17 -3.51752e-17 -5.55112e-17 
2.77556e-17 0 4.44089e-16 
0 1.38778e-17 7.77156e-16 
0 5.55112e-17 -2.22045e-16 
-5.55112e-17 0 4.44089e-16 
0 -1.11022e-16 4.44089e-16 
0 6.93889e-17 5.55112e-16 
-2.77556e-17 -2.77556e-17 2.22045e-16 
0 1.38778e-17 7.77156e-16 
0 -1.38778e-17 4.44089e-16 
-5.55112e-17 2.77556e-17 0 
-8.67362e-18 -4.16334e-17 -6.66134e-16 
-1.38778e-17 -5.55112e-17 2.22045e-16 
4.16334e-17 2.77556e-17 -6.66134e-16 
1.11022e-16 1.11022e-16 4.44089e-16 
-2.21177e-17 -6.59195e-17 -1.11022e-16 
0 0 -2.22045e-16 
0 -2.77556e-17 1.33227e-15 
-2.70617e-17 -1.56125e-17 2.22045e-16 
5.27356e-17 -1.21431e-17 -2.77556e-16 
2.77556e-18 2.63678e-17 -5.55112e-17 
-1.38778e-16 -1.38778e-17 9.99201e-16 
-8.32667e-17 -3.46945e-17 0 
1.38778e-17 2.77556e-17 0 
5.89789e-18 5.20417e-17 -3.67721e-11 
-4.85723e-17 -6.93889e-17 0 
1.11022e-16 0 -1.11022e-16 
0 5.55112e-17 -2.22045e-16 
-2.21177e-17 -6.59195e-17 -1.11022e-16 
-4.16334e-17 0 -4.44089e-16 
-1.38778e-17 3.46945e-17 2.22045e-16 
-1.66533e-17 -6.93889e-18 9.4369e-16 
4.16334e-17 2.77556e-17 -6.66134e-16 
-1.11022e-16 2.77556e-17 1.77636e-15 
-2.21177e-17 -6.59195e-17 -1.11022e-16 
1.11022e-16 1.11022e-16 4.44089e-16 
1.11022e-16 0 -1.11022e-16 
0 -2.77556e-17 1.33227e-15 
0 8.32667e-17 -4.996e-16 
-9.36751e-17 -5.55112e-17 -2.22045e-16 
2.77556e-17 -6.93889e-18 0.00606827 
-2.77556e-17 0 -2.22045e-16 
2.77556e-17 5.55112e-17 -1.11022e-16 
4.16334e-17 2.77556e-17 -6.66134e-16 
0 6.93889e-17 5.55112e-16 
0 -1.38778e-17 4.44089e-16 
5.55112e-17 -5.55112e-17 -2.22045e-16 
-5.55112e-17 0 4.44089e-16 
0 5.55112e-17 -2.22045e-16 
-1.38778e-16 -1.38778e-17 9.99201e-16 
-2.21177e-17 -6.59195e-17 -1.11022e-16 
1.11022e-16 0 -1.11022e-16 
-4.16334e-17 0 -4.44089e-16 
0 -2.77556e-17 1.33227e-15 
-2.08167e-17 1.11022e-16 3.33067e-16 
-9.71445e-17 -1.11022e-16 -8.88178e-16 
0 6.93889e-17 5.55112e-16 
-1.38778e-17 -5.55112e-17 2.22045e-16 
0 -2.08167e-17 0 
0 0 2.22045e-16 
0 2.77556e-17 0.00606827 
-8.32667e-17 -1.38778e-17 1.11022e-16 
-2.08167e-17 1.11022e-16 3.33067e-16 
-1.38778e-17 -5.55112e-17 2.22045e-16 
-5.55112e-17 2.77556e-17 0 
-8.67362e-18 -4.16334e-17 -6.66134e-16 
1.38778e-17 5.55112e-17 -6.10623e-16 
0 -2.25514e-17 -1.11022e-16 
0 -2.08167e-17 0 
-3.22659e-17 4.34548e-17 4.44089e-16 
-5.55112e-17 2.77556e-17 0 
-1.38778e-17 -5.55112e-17 2.22045e-16 
0 6.93889e-17 5.55112e-16 
4.16334e-17 2.77556e-17 -6.66134e-16 
-2.08167e-17 1.11022e-16 3.33067e-16 
-2.21177e-17 -6.59195e-17 -1.11022e-16 
-9.71445e-17 -1.11022e-16 -8.88178e-16 
-2.77556e-18 -2.498e-17 1.11022e-16 
7.28584e-17 -4.85723e-17 0.00399973 
0 2.77556e-17 0.00606827 
-1.38778e-17 1.04083e-17 5.55112e-16 
1.38778e-17 5.55112e-17 -6.10623e-16 
-2.77556e-17 1.38778e-17 -1.11022e-16 
7.63278e-18 5.55112e-18 1.38778e-17 
1.249e-17 -2.11636e-17 1.94289e-16 
0 -2.77556e-17 1.33227e-15 
-1.38778e-17 8.32667e-17 1.66533e-16 
0 0 0.00606834 
-6.93889e-18 2.77556e-17 -4.44089e-16 
0 4.16334e-17 2.22045e-16 
1.38778e-17 -2.77556e-17 2.22045e-16 
5.55112e-17 2.77556e-17 8.88178e-16 
2.77556e-17 2.77556e-17 0.00606834 
1.38778e-17 -1.38778e-17 0.00400098 
-5.55112e-17 5.55112e-17 -6.66134e-16 
2.77556e-17 1.94289e-17 0 
1.38778e-17 0 -3.33067e-16 
5.55112e-17 2.77556e-17 8.88178e-16 
0 6.93889e-17 5.55112e-16 
4.16334e-17 2.77556e-17 -6.66134e-16 
-2.77556e-17 -2.77556e-17 2.22045e-16 
0 -1.38778e-17 4.44089e-16 
-1.38778e-17 -5.55112e-17 2.22045e-16 
-2.77556e-17 -2.77556e-17 2.22045e-16 
0 6.93889e-17 5.55112e-16 
4.16334e-17 2.77556e-17 -6.66134e-16 
2.77556e-17 4.16334e-17 1.33227e-15 
2.77556e-17 5.55112e-17 -1.11022e-16 
0 0 0 
-1.11022e-16 2.77556e-17 1.77636e-15 
-2.77556e-17 0 -2.22045e-16 
3.46945e-17 2.08167e-17 -4.44089e-16 
4.16334e-17 -1.38778e-17 -1.11022e-16 
1.11022e-16 1.38778e-17 8.88178e-16 
-1.38778e-17 3.46945e-17 2.22045e-16 
-1.66533e-17 -6.93889e-18 9.4369e-16 
3.1225e-17 3.46945e-17 0 
4.16334e-17 2.77556e-17 -6.66134e-16 
0 0 -2.22045e-16 
-2.77556e-18 -2.498e-17 1.11022e-16 
-2.08167e-17 1.11022e-16 3.33067e-16 
2.77556e-17 0 4.44089e-16 
-2.77556e-17 -2.77556e-17 2.22045e-16 
-4.16334e-17 0 -4.44089e-16 
0 5.55112e-17 -2.22045e-16 
0 -1.11022e-16 4.44089e-16 
-4.85723e-17 0 0 
0 -2.25514e-17 -1.11022e-16 
0 0 2.22045e-16 
2.29004e-17 5.55654e-18 -2.22045e-16 
0 0 1.33227e-15 
-3.46945e-17 2.77556e-17 -1.24791e-06 
1.24899e-17 -2.77556e-17 -7.39537e-08 
-6.93889e-18 2.77556e-17 -4.44089e-16 
-5.55112e-17 0 0.00318586 
-5.55112e-17 -2.77556e-17 0.00318586 
2.77556e-17 0 0 
6.245e-17 -1.38778e-17 -2.22045e-16 
-2.77556e-17 -2.77556e-17 2.22045e-16 
0 -1.11022e-16 4.44089e-16 
0 1.38778e-17 7.77156e-16 
0 -1.38778e-17 4.44089e-16 
1.24899e-17 -2.77556e-17 -7.39537e-08 
-4.16334e-18 2.498e-17 0 
-2.77556e-17 5.55112e-17 -4.44089e-16 
-5.55112e-17 0 0 
1.38778e-17 5.55112e-17 0.00399973 
2.60209e-18 -2.32019e-17 4.44089e-16 
2.77556e-17 -6.93889e-18 0.00606827 
2.77556e-17 -5.55112e-17 1.44329e-15 
2.42861e-17 -6.93889e-18 1.65983e-06 
-3.46945e-17 2.77556e-17 -1.24791e-06 
2.32426e-17 1.587e-17 -8.88178e-16 
6.93889e-17 6.93889e-17 0 
-8.32667e-17 0 -4.44089e-16 
-6.93889e-18 -3.46945e-17 0.00318586 
0 5.55112e-17 0.00318577 
6.93889e-17 -3.1225e-17 1.11022e-16 
5.55112e-17 -1.11022e-16 -8.88178e-16 
-4.16334e-17 -3.60904e-17 -8.88178e-16 
2.29004e-17 5.55654e-18 -2.22045e-16 
-2.1684e-18 -2.77556e-17 -6.66134e-16 
2.49793e-17 -1.38575e-18 1.4802e-06 
-8.32667e-17 0 -4.44089e-16 
-2.22044e-17 1.34441e-17 7.6836e-08 
2.16705e-17 1.49078e-17 8.88178e-16 
4.16334e-17 2.77556e-17 -6.66134e-16 
0 -1.38778e-17 4.44089e-16 
2.77556e-17 5.55112e-17 -1.11022e-16 
-1.11022e-16 2.77556e-17 1.77636e-15 
0 0 0.00606834 
0 -1.73472e-17 2.77556e-16 
-5.55112e-17 -6.93889e-17 0.00399973 
-5.55112e-17 0 0 
-4.85723e-17 -6.93889e-17 0 
5.89789e-18 5.20417e-17 -3.67721e-11 
-8.32667e-17 -3.46945e-17 0 
-1.38778e-17 -1.38778e-17 5.52136e-12 
5.55112e-17 -1.11022e-16 2.22045e-16 
5.55112e-17 2.77556e-17 0.00318561 
-8.32667e-17 9.71445e-17 2.77556e-16 
-5.55112e-17 8.32667e-17 0.0031842 
5.55112e-18 -1.43115e-17 -1.38778e-16 
1.04083e-16 -5.55112e-17 1.77636e-15 
-2.22044e-17 1.34441e-17 7.6836e-08 
0 -5.55112e-17 2.22045e-16 
-1.38778e-17 3.46945e-17 2.22045e-16 
3.1225e-17 3.46945e-17 0 
-4.69131e-18 -1.36761e-17 -1.11022e-16 
4.16334e-17 2.77556e-17 -6.66134e-16 
-3.19189e-17 -3.51752e-17 -5.55112e-17 
1.9082e-17 4.16334e-17 3.33067e-16 
-3.19189e-17 2.63678e-17 2.77556e-17 
2.77556e-17 0 4.44089e-16 
1.38778e-17 6.93889e-18 0 
-2.77556e-17 -2.77556e-17 0.00399973 
2.77556e-17 2.77556e-17 0.00606834 
9.02056e-17 -2.77556e-17 0 
-5.55112e-17 -7.97973e-17 4.44089e-16 
-2.1684e-18 -2.77556e-17 -6.66134e-16 
1.19262e-17 2.94903e-17 -4.16334e-17 
-1.38778e-17 -1.38778e-17 5.52136e-12 
-2.77556e-17 5.55112e-17 5.55112e-16 
-4.16334e-17 1.38778e-17 0.00318586 
-2.77556e-17 0 -4.44089e-16 
-6.93889e-17 -1.38778e-17 0.00318586 
-3.85976e-17 2.77556e-17 0.00318586 
8.32667e-17 -2.77556e-17 6.66134e-16 
5.55112e-17 8.32667e-17 0.00318586 
0 0 4.44089e-16 
-4.16334e-17 5.55112e-17 2.22045e-16 
-8.32667e-17 6.245e-17 0.00399973 
0 -5.55112e-17 0.00318586 
-5.55112e-17 4.16334e-17 0 
2.91434e-17 -2.79488e-17 4.16334e-17 
-1.66533e-17 -6.93889e-18 9.4369e-16 
-1.62386e-17 9.78066e-19 -4.85723e-17 
-1.11022e-16 2.77556e-17 1.77636e-15 
2.77556e-17 -1.9082e-17 8.88178e-16 
-4.1674e-18 4.16063e-18 5.07108e-07 
2.08167e-17 2.64537e-17 -4.38529e-07 
5.55112e-17 -5.55112e-17 4.44089e-16 
1.87349e-17 -1.38778e-17 -1.29814e-06 
8.32667e-17 -3.98986e-17 -2.22045e-16 
2.49793e-17 -1.38575e-18 1.4802e-06 
5.55112e-17 -5.55112e-17 -4.44089e-16 
0 5.55112e-17 -2.22045e-16 
-4.16334e-17 0 -4.44089e-16 
-1.38778e-16 -1.38778e-17 9.99201e-16 
0 -1.11022e-16 4.44089e-16 
3.46945e-17 -5.55112e-17 -2.22045e-16 
-4.16232e-18 4.98733e-17 -5.93666e-08 
0 1.38778e-17 2.49847e-07 
-3.1225e-17 0 0 
-4.16334e-18 2.498e-17 0 
0 0 -2.59793e-07 
0 -3.46945e-18 6.66134e-16 
0 2.77556e-17 0 
1.87349e-17 -1.38778e-17 -1.29814e-06 
0 0 -2.59793e-07 
6.245e-17 -1.38778e-17 -2.22045e-16 
1.71711e-17 9.96585e-17 -4.44089e-16 
1.38778e-17 -1.38778e-17 0.00400098 
6.245e-17 -5.55112e-17 2.22045e-16 
6.245e-17 4.85723e-17 -8.88178e-16 
-1.38778e-17 5.55112e-17 0.00318404 
2.77556e-17 1.38778e-17 0.00399973 
5.55112e-17 -1.11022e-16 -8.88178e-16 
6.245e-17 -4.16334e-17 0.00318586 
-1.11022e-16 5.55112e-17 0 
3.46945e-17 2.08167e-17 -4.44089e-16 
0 -4.16334e-17 2.22045e-16 
-5.55112e-17 0 -5.55112e-17 
2.60209e-18 -2.32019e-17 4.44089e-16 
2.77556e-17 6.93889e-17 0.00318586 
-5.55112e-17 0 -5.55112e-16 
-4.42354e-17 2.77556e-17 0.00318586 
5.55112e-17 5.55112e-17 0 
-5.55112e-17 2.77556e-17 0.00318535 
1.38778e-17 -1.32273e-17 0.0031863 
5.55112e-17 -5.55112e-17 4.44089e-16 
2.77556e-17 -5.55112e-17 1.11022e-16 
1.38778e-17 6.93889e-18 1.11022e-16 
-2.77556e-17 5.55112e-17 1.33227e-15 
-2.08167e-17 2.77556e-17 -4.44089e-16 
-9.71716e-18 -1.66493e-17 -4.16197e-10 
-1.17961e-17 0 -5.25782e-07 
1.2837e-17 3.40006e-17 0 
5.55112e-17 2.08167e-17 0 
-1.38778e-17 -1.73472e-17 1.11022e-15 
8.32667e-17 0 1.22125e-15 
9.71445e-17 5.55112e-17 0.00318592 
-3.1225e-17 0 0 
5.55112e-17 2.77556e-17 0.00318561 
6.93889e-17 6.93889e-17 0 
-5.55112e-17 8.32667e-17 0.0031842 
-3.81639e-17 5.55112e-17 0.00400098 
0 2.77556e-17 2.22045e-16 
0 5.55112e-17 -2.22045e-16 
-1.38778e-16 -1.38778e-17 9.99201e-16 
-5.55112e-17 0 4.44089e-16 
0 -1.11022e-16 4.44089e-16 
-8.32667e-17 0 0 
0 -4.16334e-17 2.22045e-16 
-4.1674e-18 4.16063e-18 5.07108e-07 
-4.16334e-17 0 5.55112e-17 
-8.32667e-17 6.245e-17 0.00399973 
0 8.32667e-17 -4.996e-16 
2.77556e-17 -6.93889e-18 0.00606827 
-2.77556e-17 0 -2.22045e-16 
5.55112e-17 5.55112e-17 0 
-3.46945e-18 0 -1.29851e-06 
2.42861e-17 -2.77556e-17 -4.87734e-08 
5.55112e-17 5.55112e-17 1.33227e-15 
-3.81639e-17 5.55112e-17 0.00400098 
0 0 0.00606834 
-6.93889e-18 2.77556e-17 -4.44089e-16 
-1.38778e-17 8.32667e-17 1.66533e-16 
3.95517e-17 -9.71445e-18 0 
9.02056e-17 -2.77556e-17 0 
1.38778e-17 0 -3.33067e-16 
1.38778e-17 6.93889e-18 1.11022e-16 
1.2837e-17 3.40006e-17 0 
0 -2.25514e-17 -1.11022e-16 
1.38778e-17 5.55112e-17 -6.10623e-16 
-3.22659e-17 4.34548e-17 4.44089e-16 
5.55112e-18 -1.43115e-17 -1.38778e-16 
2.77556e-17 1.94289e-17 0 
1.38778e-17 -5.55112e-17 0 
6.245e-17 4.85723e-17 -8.88178e-16 
-1.31839e-17 1.66533e-17 -7.63278e-17 
7.11237e-18 3.45312e-17 -1.11022e-16 
1.04083e-17 -2.77556e-17 0 
0 -1.38778e-17 4.44089e-16 
-2.77556e-17 -6.93889e-17 2.22045e-16 
1.94275e-17 5.55654e-18 1.55696e-06 
-3.46945e-18 0 -1.29851e-06 
2.77556e-17 1.38778e-17 4.44089e-16 
-2.77556e-17 0 -4.44089e-16 
-9.71716e-18 -1.66493e-17 -4.16197e-10 
5.55112e-17 8.32667e-17 -1.11022e-16 
3.46945e-17 0 4.47447e-10 
2.42861e-17 -2.77556e-17 -4.87734e-08 
-1.38778e-17 -2.08167e-17 3.1509e-07 
0 4.16334e-17 0 
-5.55112e-17 0 -2.22045e-16 
1.11022e-16 2.77556e-17 3.33067e-16 
5.55112e-17 5.55112e-17 0.00318586 
-4.85723e-17 -6.93889e-17 0 
0 0 0.00318586 
-3.85976e-17 2.77556e-17 0.00318586 
7.28584e-17 -4.85723e-17 0.00399973 
-2.77556e-17 -2.77556e-17 1.11022e-16 
5.55112e-17 2.08167e-17 0 
2.77556e-17 1.38778e-17 0.00399973 
0 2.77556e-17 0.00606827 
0 0 2.22045e-16 
-8.32667e-17 -1.38778e-17 1.11022e-16 
-2.21177e-17 0 5.55112e-17 
9.71445e-17 5.55112e-17 0.00318592 
2.08167e-17 2.77556e-17 -4.44089e-16 
1.38778e-17 -1.32273e-17 0.0031863 
-4.16334e-17 1.38778e-17 0.00318586 
-2.77556e-17 -2.77556e-17 0.00399973 
2.77556e-17 4.16334e-17 5.55112e-17 
-2.08167e-17 2.77556e-17 -4.44089e-16 
-5.55112e-17 -2.77556e-17 0.00318586 
-5.55112e-17 -6.93889e-17 0.00399973 
-8.32667e-17 6.93889e-17 -3.33067e-16 
0 2.77556e-17 0 
0 6.93889e-17 5.55112e-16 
-1.38778e-17 -5.55112e-17 2.22045e-16 
-9.71445e-17 -1.11022e-16 -8.88178e-16 
-2.77556e-17 -2.77556e-17 2.22045e-16 
1.38778e-17 5.55112e-17 0.00399973 
-5.55112e-17 2.77556e-17 0.00318535 
-4.16334e-17 0 5.55112e-17 
-6.93889e-17 -6.93889e-18 7.77156e-16 
1.38778e-17 2.77556e-17 0 
5.89789e-18 5.20417e-17 -3.67721e-11 
-2.77556e-17 -4.85723e-17 -2.22045e-16 
3.46945e-17 0 4.47447e-10 
-2.77556e-17 -5.55112e-17 2.22045e-16 
1.94275e-17 5.55654e-18 1.55696e-06 
4.16334e-17 -1.38778e-17 -1.11022e-16 
-5.55112e-17 4.16334e-17 0 
1.19262e-17 2.94903e-17 -4.16334e-17 
0 0 0.00318586 
6.245e-17 -4.16334e-17 0.00318586 
-5.55112e-17 -1.38778e-17 1.22125e-15 
5.55112e-17 8.32667e-17 0.00318586 
2.77556e-17 -8.32667e-17 4.44089e-16 
2.77556e-17 6.93889e-17 0.00318586 
0 4.16334e-17 0 
-1.38778e-17 -2.08167e-17 3.1509e-07 
-1.17961e-17 0 -5.25782e-07 
0 0 4.44089e-16 
1.63064e-17 -2.75819e-17 6.66134e-16 
-2.77556e-17 -4.85723e-17 -2.22045e-16 
-6.93889e-17 -1.38778e-17 0.00318586 
5.55112e-17 5.55112e-17 0.00318586 
-5.55112e-17 -2.77556e-17 1.11022e-16 
-9.71445e-17 -5.55112e-17 6.66134e-16 
0 1.38778e-17 2.49847e-07 
2.42861e-17 -6.93889e-18 1.65983e-06 
-8.32667e-17 9.71445e-17 2.77556e-16 
-2.77556e-17 -5.55112e-17 -2.77556e-16 
-6.93889e-18 -3.46945e-17 0.00318586 
-5.55112e-17 0 0.00318586 
8.32667e-17 -3.98986e-17 -2.22045e-16 
-1.38778e-17 5.55112e-17 0.00318404 
0 -5.55112e-17 2.22045e-16 
0 5.55112e-17 0.00318577 
8.32667e-17 5.55112e-17 -5.55112e-16 
0 0 -4.44089e-16 
2.08167e-17 2.64537e-17 -4.38529e-07 
-4.16232e-18 4.98733e-17 -5.93666e-08 
-2.21177e-17 0 5.55112e-17 
-4.42354e-17 2.77556e-17 0.00318586 
1.11022e-16 -2.77556e-17 -8.88178e-16 
0 -5.55112e-17 0.00318586 
-2.77556e-17 -6.93889e-17 2.22045e-16 
3.1225e-17 2.08167e-17 3.33067e-16 
1.11022e-16 0 -1.11022e-16 
1.38778e-17 0 -8.88178e-16 
2.77556e-17 -2.77556e-17 7.77156e-16 
3.1225e-17 2.08167e-17 3.33067e-16 
1.38778e-17 0 -8.88178e-16 
1.11022e-16 0 -1.11022e-16 
4.85723e-17 0 -8.88178e-16 
0 0 0 
1.38778e-17 -5.55112e-17 -8.88178e-16 
-1.9082e-17 -5.18249e-17 4.44089e-16 
2.77556e-17 -5.55112e-17 -4.44089e-16 
0 0 0 
-1.9082e-17 -5.18249e-17 4.44089e-16 
1.38778e-17 -5.55112e-17 -8.88178e-16 
4.16334e-17 1.38778e-17 -1.11022e-16 
-1.38778e-17 4.85723e-17 2.22045e-16 
2.42861e-17 -4.16334e-17 2.22045e-16 
4.16334e-17 -6.93889e-17 3.33067e-16 
-5.55112e-17 0 -1.11022e-16 
4.16334e-17 -6.93889e-17 3.33067e-16 
2.42861e-17 -4.16334e-17 2.22045e-16 
-1.38778e-17 4.85723e-17 2.22045e-16 
0 -2.77556e-17 0 
-5.55112e-17 0 4.44089e-16 
2.85145e-17 2.77556e-17 6.66134e-16 
0 2.08167e-17 -2.22045e-16 
2.77556e-17 -3.1225e-17 6.66134e-16 
0 2.08167e-17 -2.22045e-16 
2.85145e-17 2.77556e-17 6.66134e-16 
-5.55112e-17 0 4.44089e-16 
1.38778e-17 2.77556e-17 7.77156e-16 
-1.11022e-16 2.77556e-17 1.77636e-15 
-1.38778e-17 3.46945e-17 2.22045e-16 
8.32667e-17 -4.16334e-17 4.44089e-16 
4.16334e-17 2.77556e-17 -6.66134e-16 
-1.11022e-16 2.77556e-17 1.77636e-15 
8.32667e-17 -4.16334e-17 4.44089e-16 
-1.38778e-17 3.46945e-17 2.22045e-16 
-1.62386e-17 9.78066e-19 -4.85723e-17 
-1.11022e-16 2.77556e-17 1.77636e-15 
1.38778e-17 5.55112e-17 -4.44089e-16 
8.32667e-17 -4.16334e-17 4.44089e-16 
-1.62386e-17 9.78066e-19 -4.85723e-17 
-1.11022e-16 2.77556e-17 1.77636e-15 
8.32667e-17 -4.16334e-17 4.44089e-16 
1.38778e-17 5.55112e-17 -4.44089e-16 
2.77556e-17 4.16334e-17 1.33227e-15 
1.38778e-17 2.77556e-17 -8.88178e-16 
1.11022e-16 2.77556e-17 3.33067e-16 
1.38778e-17 -2.77556e-17 -9.99201e-16 
-8.32667e-17 -3.46945e-17 0 
1.38778e-17 2.77556e-17 -8.88178e-16 
1.38778e-17 -2.77556e-17 -9.99201e-16 
1.11022e-16 2.77556e-17 3.33067e-16 
-1.38778e-17 5.55112e-17 1.11022e-16 
0 1.38778e-17 9.99201e-16 
5.55112e-17 -1.11022e-16 -2.22045e-16 
-4.16334e-17 -5.55112e-17 -4.44089e-16 
-4.51028e-17 5.55112e-17 -3.33067e-16 
-4.16334e-17 -5.55112e-17 -4.44089e-16 
5.55112e-17 -1.11022e-16 -2.22045e-16 
0 1.38778e-17 9.99201e-16 
0 1.73472e-17 4.44089e-16 
0 -2.77556e-17 -3.33067e-16 
2.85145e-17 2.77556e-17 6.66134e-16 
-5.55112e-17 0 4.44089e-16 
6.85216e-18 -1.63498e-17 -3.33067e-16 
-5.55112e-17 0 4.44089e-16 
2.85145e-17 2.77556e-17 6.66134e-16 
0 -2.77556e-17 -3.33067e-16 
1.38778e-17 2.77556e-17 7.77156e-16 
2.77556e-17 0 4.44089e-16 
0 6.93889e-18 -1.11022e-16 
0 0 4.44089e-16 
-3.19189e-17 -3.51752e-17 -5.55112e-17 
2.77556e-17 0 4.44089e-16 
0 0 4.44089e-16 
0 6.93889e-18 -1.11022e-16 
-2.77556e-18 -2.498e-17 1.11022e-16 
0 -1.38778e-17 4.44089e-16 
1.21431e-17 -3.46945e-17 8.88178e-16 
-1.38778e-17 0 -1.11022e-16 
7.11237e-18 3.45312e-17 -1.11022e-16 
0 -1.38778e-17 4.44089e-16 
-1.38778e-17 0 -1.11022e-16 
1.21431e-17 -3.46945e-17 8.88178e-16 
-2.77556e-17 -2.77556e-17 2.22045e-16 
2.77556e-17 4.16334e-17 5.55112e-17 
3.95517e-17 -9.71445e-18 0 
0 5.55112e-17 0 
-2.77556e-17 5.55112e-17 1.33227e-15 
0 5.55112e-17 0 
3.95517e-17 -9.71445e-18 0 
2.77556e-17 4.16334e-17 5.55112e-17 
1.38778e-17 6.93889e-18 0 
-6.93889e-18 -1.73472e-17 3.33067e-16 
-2.77556e-17 -5.55112e-17 -4.44089e-16 
-6.93889e-17 -4.16334e-17 5.55112e-16 
1.38778e-17 4.16334e-17 -2.22045e-16 
-6.93889e-17 -4.16334e-17 5.55112e-16 
-2.77556e-17 -5.55112e-17 -4.44089e-16 
-6.93889e-18 -1.73472e-17 3.33067e-16 
-1.66533e-17 2.35922e-17 0 
-4.16334e-17 0 -4.44089e-16 
-9.71445e-17 -1.11022e-16 -8.88178e-16 
-6.93889e-18 -1.38778e-17 0 
-2.77556e-17 -2.77556e-17 2.22045e-16 
4.16334e-17 2.77556e-17 -6.66134e-16 
2.25514e-17 1.38778e-17 0 
3.05311e-17 2.25514e-17 -3.33067e-16 
-4.69131e-18 -1.36761e-17 -1.11022e-16 
4.16334e-17 2.77556e-17 -6.66134e-16 
3.05311e-17 2.25514e-17 -3.33067e-16 
2.25514e-17 1.38778e-17 0 
-1.38778e-17 -5.55112e-17 2.22045e-16 
0 -1.11022e-16 4.44089e-16 
2.77556e-17 0 0 
-2.77556e-17 -2.77556e-17 2.22045e-16 
-4.16334e-17 0 -4.44089e-16 
0 -1.11022e-16 4.44089e-16 
-2.77556e-17 -2.77556e-17 2.22045e-16 
2.77556e-17 0 0 
1.17961e-17 -4.16334e-18 0 
2.77556e-17 -5.55112e-17 1.44329e-15 
1.11022e-16 1.38778e-17 8.88178e-16 
-9.36751e-17 -5.55112e-17 -2.22045e-16 
0 8.32667e-17 -4.996e-16 
-9.36751e-17 -5.55112e-17 -2.22045e-16 
1.11022e-16 1.38778e-17 8.88178e-16 
2.77556e-17 -5.55112e-17 1.44329e-15 
-5.55112e-17 0 -5.55112e-17 
-8.32667e-17 0 0 
2.77556e-17 -5.55112e-17 1.44329e-15 
2.60209e-18 -2.32019e-17 4.44089e-16 
-6.93889e-17 -6.93889e-18 7.77156e-16 
2.60209e-18 -2.32019e-17 4.44089e-16 
2.77556e-17 -5.55112e-17 1.44329e-15 
-8.32667e-17 0 0 
-5.55112e-17 0 -5.55112e-17 
-2.77556e-17 -2.08167e-17 5.55112e-17 
0 -3.46945e-18 6.66134e-16 
-1.38778e-17 -1.38778e-17 -7.77156e-16 
-8.32667e-17 6.93889e-17 -3.33067e-16 
-2.77556e-17 -2.08167e-17 5.55112e-17 
-1.38778e-17 -1.38778e-17 -7.77156e-16 
0 -3.46945e-18 6.66134e-16 
1.38778e-17 1.38778e-17 2.22045e-16 
-1.11022e-16 2.77556e-17 1.77636e-15 
2.77556e-17 -5.55112e-17 -4.44089e-16 
0 8.32667e-17 3.33067e-16 
0 0 0 
-1.11022e-16 2.77556e-17 1.77636e-15 
0 8.32667e-17 3.33067e-16 
2.77556e-17 -5.55112e-17 -4.44089e-16 
2.91434e-17 -2.79488e-17 4.16334e-17 
1.38778e-17 2.77556e-17 -8.88178e-16 
-5.55112e-17 -1.38778e-17 1.22125e-15 
6.58761e-17 4.47559e-17 0 
-1.38778e-17 5.55112e-17 1.11022e-16 
1.38778e-17 2.77556e-17 -8.88178e-16 
6.58761e-17 4.47559e-17 0 
-5.55112e-17 -1.38778e-17 1.22125e-15 
-5.55112e-17 -7.97973e-17 4.44089e-16 
-4.16334e-17 5.55112e-17 2.22045e-16 
-2.77556e-17 0 -2.22045e-16 
-8.32667e-17 6.245e-17 0.00399973 
-5.55112e-17 4.16334e-17 0 
-8.32667e-17 6.245e-17 0.00399973 
-2.77556e-17 0 -2.22045e-16 
-4.16334e-17 5.55112e-17 2.22045e-16 
0 8.32667e-17 -4.996e-16 
4.85723e-17 -2.77556e-17 -4.996e-16 
2.42861e-17 -4.16334e-17 2.22045e-16 
-5.55112e-17 0 0 
2.77556e-17 2.77556e-17 -2.22045e-16 
-5.55112e-17 0 0 
2.42861e-17 -4.16334e-17 2.22045e-16 
4.85723e-17 -2.77556e-17 -4.996e-16 
6.245e-17 -5.55112e-17 2.22045e-16 
-5.55112e-17 0 0 
1.38778e-17 -5.55112e-17 0 
4.85723e-17 -2.77556e-17 -4.996e-16 
2.77556e-17 2.77556e-17 -2.22045e-16 
4.85723e-17 -2.77556e-17 -4.996e-16 
1.38778e-17 -5.55112e-17 0 
-5.55112e-17 0 0 
6.245e-17 -5.55112e-17 2.22045e-16 
0 -5.55112e-17 -4.44089e-16 
1.71711e-17 9.96585e-17 -4.44089e-16 
5.55112e-17 2.77556e-17 5.55112e-16 
2.77556e-17 0 0 
0 -5.55112e-17 -4.44089e-16 
5.55112e-17 2.77556e-17 5.55112e-16 
1.71711e-17 9.96585e-17 -4.44089e-16 
5.55112e-17 -5.55112e-17 -4.44089e-16 
-2.77556e-17 -5.55112e-17 -2.77556e-16 
5.55112e-17 2.77556e-17 5.55112e-16 
1.71711e-17 9.96585e-17 -4.44089e-16 
2.77556e-17 0 0 
-2.77556e-17 -5.55112e-17 -2.77556e-16 
1.71711e-17 9.96585e-17 -4.44089e-16 
5.55112e-17 2.77556e-17 5.55112e-16 
5.55112e-17 -5.55112e-17 -4.44089e-16 
-9.71445e-17 -5.55112e-17 6.66134e-16 
8.32667e-17 0 1.22125e-15 
5.55112e-17 1.56125e-17 0 
3.46945e-17 -5.55112e-17 -2.22045e-16 
-9.71445e-17 -5.55112e-17 6.66134e-16 
5.55112e-17 1.56125e-17 0 
8.32667e-17 0 1.22125e-15 
5.55112e-17 -1.11022e-16 2.22045e-16 
-5.55112e-17 -7.97973e-17 4.44089e-16 
-1.11022e-16 5.55112e-17 0 
5.55112e-17 -1.11022e-16 -8.88178e-16 
-4.16334e-17 -3.60904e-17 -8.88178e-16 
-5.55112e-17 -7.97973e-17 4.44089e-16 
5.55112e-17 -1.11022e-16 -8.88178e-16 
-1.11022e-16 5.55112e-17 0 
-5.55112e-17 -1.38778e-17 1.22125e-15 
-4.16334e-17 0 -4.44089e-16 
1.80411e-17 2.63678e-17 1.66533e-16 
-6.93889e-18 -1.38778e-17 0 
-9.71445e-17 -1.11022e-16 -8.88178e-16 
-4.16334e-17 0 -4.44089e-16 
-6.93889e-18 -1.38778e-17 0 
1.80411e-17 2.63678e-17 1.66533e-16 
1.2739e-17 -6.85216e-18 -1.11022e-16 
-4.16334e-17 -3.60904e-17 -8.88178e-16 
-8.32667e-17 -1.38778e-17 1.11022e-16 
6.93889e-18 1.38778e-17 -5.55112e-17 
-1.11022e-16 5.55112e-17 0 
6.93889e-18 1.38778e-17 -5.55112e-17 
-8.32667e-17 -1.38778e-17 1.11022e-16 
-4.16334e-17 -3.60904e-17 -8.88178e-16 
-4.85723e-17 0 0 
6.93889e-18 1.38778e-17 -5.55112e-17 
-2.77556e-17 2.77556e-17 -1.11022e-16 
-4.16334e-17 -3.60904e-17 -8.88178e-16 
-1.11022e-16 5.55112e-17 0 
-4.16334e-17 -3.60904e-17 -8.88178e-16 
-2.77556e-17 2.77556e-17 -1.11022e-16 
6.93889e-18 1.38778e-17 -5.55112e-17 
-4.85723e-17 0 0 
SCALARS VonMises float 
LOOKUP_TABLE default
1.61692e-12 1.61692e-12 1.61692e-12 1.61692e-12 5.71618e-13 5.71618e-13 5.71618e-13 5.71618e-13 3.62715e-13 3.62715e-13 3.62715e-13 3.62715e-13 5.98819e-13 5.98819e-13 5.98819e-13 5.98819e-13 5.127e-13 5.127e-13 5.127e-13 5.127e-13 1.47789e-12 1.47789e-12 1.47789e-12 1.47789e-12 6.38976e-13 6.38976e-13 6.38976e-13 6.38976e-13 2.09778e-13 2.09778e-13 2.09778e-13 2.09778e-13 4.76631e-13 4.76631e-13 4.76631e-13 4.76631e-13 5.07914e-13 5.07914e-13 5.07914e-13 5.07914e-13 7.95004e-13 7.95004e-13 7.95004e-13 7.95004e-13 1.02263e-12 1.02263e-12 1.02263e-12 1.02263e-12 2.98467e-13 2.98467e-13 2.98467e-13 2.98467e-13 5.19995e-13 5.19995e-13 5.19995e-13 5.19995e-13 2.55184e-13 2.55184e-13 2.55184e-13 2.55184e-13 2.76992e-13 2.76992e-13 2.76992e-13 2.76992e-13 4.50053e-13 4.50053e-13 4.50053e-13 4.50053e-13 3.00619e-13 3.00619e-13 3.00619e-13 3.00619e-13 4.99772e-13 4.99772e-13 4.99772e-13 4.99772e-13 9.37054e-13 9.37054e-13 9.37054e-13 9.37054e-13 7.6146e-13 7.6146e-13 7.6146e-13 7.6146e-13 2.53958e-13 2.53958e-13 2.53958e-13 2.53958e-13 3.7677e-13 3.7677e-13 3.7677e-13 3.7677e-13 2.94267e-13 2.94267e-13 2.94267e-13 2.94267e-13 1.16926e-13 1.16926e-13 1.16926e-13 1.16926e-13 9.80299e-13 9.80299e-13 9.80299e-13 9.80299e-13 7.88185e-13 7.88185e-13 7.88185e-13 7.88185e-13 6.53555e-13 6.53555e-13 6.53555e-13 6.53555e-13 2.19899e-13 2.19899e-13 2.19899e-13 2.19899e-13 3.48668e-13 3.48668e-13 3.48668e-13 3.48668e-13 1.47091e-12 1.47091e-12 1.47091e-12 1.47091e-12 3.75062e-13 3.75062e-13 3.75062e-13 3.75062e-13 4.19061e-14 4.19061e-14 4.19061e-14 4.19061e-14 4.67616e-13 4.67616e-13 4.67616e-13 4.67616e-13 1.54172e-13 1.54172e-13 1.54172e-13 1.54172e-13 3.60567e-13 3.60567e-13 3.60567e-13 3.60567e-13 1.18771e-13 1.18771e-13 1.18771e-13 1.18771e-13 3.39779e-13 3.39779e-13 3.39779e-13 3.39779e-13 1.77876e-13 1.77876e-13 1.77876e-13 1.77876e-13 5.41005e-13 5.41005e-13 5.41005e-13 5.41005e-13 2.31017e-13 2.31017e-13 2.31017e-13 2.31017e-13 1.22854e-12 1.22854e-12 1.22854e-12 1.22854e-12 1.22082e-13 1.22082e-13 1.22082e-13 1.22082e-13 1.7938e-12 1.7938e-12 1.7938e-12 1.7938e-12 1.79446e-13 1.79446e-13 1.79446e-13 1.79446e-13 3.35691e-13 3.35691e-13 3.35691e-13 3.35691e-13 5.18649e-13 5.18649e-13 5.18649e-13 5.18649e-13 3.37785e-13 3.37785e-13 3.37785e-13 3.37785e-13 1.01186e-12 1.01186e-12 1.01186e-12 1.01186e-12 9.19186e-13 9.19186e-13 9.19186e-13 9.19186e-13 1.53107e-13 1.53107e-13 1.53107e-13 1.53107e-13 9.30932e-13 9.30932e-13 9.30932e-13 9.30932e-13 3.98913e-13 3.98913e-13 3.98913e-13 3.98913e-13 9.61308e-13 9.61308e-13 9.61308e-13 9.61308e-13 8.2464e-13 8.2464e-13 8.2464e-13 8.2464e-13 2.42643e-13 2.42643e-13 2.42643e-13 2.42643e-13 3.76171e-13 3.76171e-13 3.76171e-13 3.76171e-13 1.3982e-13 1.3982e-13 1.3982e-13 1.3982e-13 3.22406e-13 3.22406e-13 3.22406e-13 3.22406e-13 7.94402e-13 7.94402e-13 7.94402e-13 7.94402e-13 1.32277e-14 1.32277e-14 1.32277e-14 1.32277e-14 9.12144e-13 9.12144e-13 9.12144e-13 9.12144e-13 6.33471e-13 6.33471e-13 6.33471e-13 6.33471e-13 8.19126e-13 8.19126e-13 8.19126e-13 8.19126e-13 6.16074e-13 6.16074e-13 6.16074e-13 6.16074e-13 1.62669e-13 1.62669e-13 1.62669e-13 1.62669e-13 1.0575e-13 1.0575e-13 1.0575e-13 1.0575e-13 4.16619e-13 4.16619e-13 4.16619e-13 4.16619e-13 4.43757e-13 4.43757e-13 4.43757e-13 4.43757e-13 2.85388e-13 2.85388e-13 2.85388e-13 2.85388e-13 3.14983e-13 3.14983e-13 3.14983e-13 3.14983e-13 5.21553e-13 5.21553e-13 5.21553e-13 5.21553e-13 4.48282e-13 4.48282e-13 4.48282e-13 4.48282e-13 1.24662e-12 1.24662e-12 1.24662e-12 1.24662e-12 1.81335e-13 1.81335e-13 1.81335e-13 1.81335e-13 1.01471e-12 1.01471e-12 1.01471e-12 1.01471e-12 3.12552e-13 3.12552e-13 3.12552e-13 3.12552e-13 4.5623e-13 4.5623e-13 4.5623e-13 4.5623e-13 5.18859e-13 5.18859e-13 5.18859e-13 5.18859e-13 4.44426e-13 4.44426e-13 4.44426e-13 4.44426e-13 1.1396e-12 1.1396e-12 1.1396e-12 1.1396e-12 8.44431e-13 8.44431e-13 8.44431e-13 8.44431e-13 2.29684e-13 2.29684e-13 2.29684e-13 2.29684e-13 1.91763e-12 1.91763e-12 1.91763e-12 1.91763e-12 7.55789e-13 7.55789e-13 7.55789e-13 7.55789e-13 7.21425e-13 7.21425e-13 7.21425e-13 7.21425e-13 3.10889e-13 3.10889e-13 3.10889e-13 3.10889e-13 5.94727e-13 5.94727e-13 5.94727e-13 5.94727e-13 1.12513e-13 1.12513e-13 1.12513e-13 1.12513e-13 1.87113e-13 1.87113e-13 1.87113e-13 1.87113e-13 1.02253e-13 1.02253e-13 1.02253e-13 1.02253e-13 2.2269e-13 2.2269e-13 2.2269e-13 2.2269e-13 6.24537e-13 6.24537e-13 6.24537e-13 6.24537e-13 4.79885e-13 4.79885e-13 4.79885e-13 4.79885e-13 7.37549e-13 7.37549e-13 7.37549e-13 7.37549e-13 1.48271e-13 1.48271e-13 1.48271e-13 1.48271e-13 1.68503e-13 1.68503e-13 1.68503e-13 1.68503e-13 7.25833e-13 7.25833e-13 7.25833e-13 7.25833e-13 2.02316e-12 2.02316e-12 2.02316e-12 2.02316e-12 3.2244e-13 3.2244e-13 3.2244e-13 3.2244e-13 2.25038e-12 2.25038e-12 2.25038e-12 2.25038e-12 7.40108e-13 7.40108e-13 7.40108e-13 7.40108e-13 2.1279e-13 2.1279e-13 2.1279e-13 2.1279e-13 6.4759e-14 6.4759e-14 6.4759e-14 6.4759e-14 1.25036e-13 1.25036e-13 1.25036e-13 1.25036e-13 2.93932e-13 2.93932e-13 2.93932e-13 2.93932e-13 1.33975e-13 1.33975e-13 1.33975e-13 1.33975e-13 6.78882e-14 6.78882e-14 6.78882e-14 6.78882e-14 8.42701e-14 8.42701e-14 8.42701e-14 8.42701e-14 7.91862e-13 7.91862e-13 7.91862e-13 7.91862e-13 2.90613e-13 2.90613e-13 2.90613e-13 2.90613e-13 6.45859e-13 6.45859e-13 6.45859e-13 6.45859e-13 4.148e-13 4.148e-13 4.148e-13 4.148e-13 2.34692e-13 2.34692e-13 2.34692e-13 2.34692e-13 6.80215e-14 6.80215e-14 6.80215e-14 6.80215e-14 3.06548e-13 3.06548e-13 3.06548e-13 3.06548e-13 1.00129e-12 1.00129e-12 1.00129e-12 1.00129e-12 1.58905e-13 1.58905e-13 1.58905e-13 1.58905e-13 7.65835e-13 7.65835e-13 7.65835e-13 7.65835e-13 1.67503e-12 1.67503e-12 1.67503e-12 1.67503e-12 1.67085e-13 1.67085e-13 1.67085e-13 1.67085e-13 3.46402e-14 3.46402e-14 3.46402e-14 3.46402e-14 1.41668e-12 1.41668e-12 1.41668e-12 1.41668e-12 1.00041e-13 1.00041e-13 1.00041e-13 1.00041e-13 8.24546e-13 8.24546e-13 8.24546e-13 8.24546e-13 2.78637e-13 2.78637e-13 2.78637e-13 2.78637e-13 6.76854e-13 6.76854e-13 6.76854e-13 6.76854e-13 2.00904e-13 2.00904e-13 2.00904e-13 2.00904e-13 1.54291e-13 1.54291e-13 1.54291e-13 1.54291e-13 2.71964e-13 2.71964e-13 2.71964e-13 2.71964e-13 9.02969e-13 9.02969e-13 9.02969e-13 9.02969e-13 4.71291e-13 4.71291e-13 4.71291e-13 4.71291e-13 2.05153e-13 2.05153e-13 2.05153e-13 2.05153e-13 7.75357e-14 7.75357e-14 7.75357e-14 7.75357e-14 5.7561e-13 5.7561e-13 5.7561e-13 5.7561e-13 9.45363e-14 9.45363e-14 9.45363e-14 9.45363e-14 2.34762e-13 2.34762e-13 2.34762e-13 2.34762e-13 5.8137e-13 5.8137e-13 5.8137e-13 5.8137e-13 4.9298e-13 4.9298e-13 4.9298e-13 4.9298e-13 2.69179e-13 2.69179e-13 2.69179e-13 2.69179e-13 6.39097e-13 6.39097e-13 6.39097e-13 6.39097e-13 2.14174e-13 2.14174e-13 2.14174e-13 2.14174e-13 1.35432e-12 1.35432e-12 1.35432e-12 1.35432e-12 8.98141e-14 8.98141e-14 8.98141e-14 8.98141e-14 2.13494e-13 2.13494e-13 2.13494e-13 2.13494e-13 1.72946e-13 1.72946e-13 1.72946e-13 1.72946e-13 1.27837e-13 1.27837e-13 1.27837e-13 1.27837e-13 2.25123e-13 2.25123e-13 2.25123e-13 2.25123e-13 1.24868e-12 1.24868e-12 1.24868e-12 1.24868e-12 1.91541e-13 1.91541e-13 1.91541e-13 1.91541e-13 8.43789e-13 8.43789e-13 8.43789e-13 8.43789e-13 1.18062e-12 1.18062e-12 1.18062e-12 1.18062e-12 1.09537e-13 1.09537e-13 1.09537e-13 1.09537e-13 1.30686e-13 1.30686e-13 1.30686e-13 1.30686e-13 7.82673e-13 7.82673e-13 7.82673e-13 7.82673e-13 2.23423e-13 2.23423e-13 2.23423e-13 2.23423e-13 2.27026e-13 2.27026e-13 2.27026e-13 2.27026e-13 1.45528e-13 1.45528e-13 1.45528e-13 1.45528e-13 3.35875e-13 3.35875e-13 3.35875e-13 3.35875e-13 1.06344e-13 1.06344e-13 1.06344e-13 1.06344e-13 1.62247e-13 1.62247e-13 1.62247e-13 1.62247e-13 1.08375e-12 1.08375e-12 1.08375e-12 1.08375e-12 4.42257e-13 4.42257e-13 4.42257e-13 4.42257e-13 1.82758e-13 1.82758e-13 1.82758e-13 1.82758e-13 1.47613e-13 1.47613e-13 1.47613e-13 1.47613e-13 9.57252e-14 9.57252e-14 9.57252e-14 9.57252e-14 9.2037e-13 9.2037e-13 9.2037e-13 9.2037e-13 4.44209e-13 4.44209e-13 4.44209e-13 4.44209e-13 3.79017e-13 3.79017e-13 3.79017e-13 3.79017e-13 1.00319e-13 1.00319e-13 1.00319e-13 1.00319e-13 7.95157e-14 7.95157e-14 7.95157e-14 7.95157e-14 1.29422e-12 1.29422e-12 1.29422e-12 1.29422e-12 2.62067e-13 2.62067e-13 2.62067e-13 2.62067e-13 9.90923e-14 9.90923e-14 9.90923e-14 9.90923e-14 2.24176e-13 2.24176e-13 2.24176e-13 2.24176e-13 6.51816e-13 6.51816e-13 6.51816e-13 6.51816e-13 1.26254e-13 1.26254e-13 1.26254e-13 1.26254e-13 1.41812e-12 1.41812e-12 1.41812e-12 1.41812e-12 7.22095e-13 7.22095e-13 7.22095e-13 7.22095e-13 1.37265e-12 1.37265e-12 1.37265e-12 1.37265e-12 1.78174e-13 1.78174e-13 1.78174e-13 1.78174e-13 5.37719e-13 5.37719e-13 5.37719e-13 5.37719e-13 4.80775e-13 4.80775e-13 4.80775e-13 4.80775e-13 1.81876e-13 1.81876e-13 1.81876e-13 1.81876e-13 1.87733e-13 1.87733e-13 1.87733e-13 1.87733e-13 1.30473e-12 1.30473e-12 1.30473e-12 1.30473e-12 1.65116e-13 1.65116e-13 1.65116e-13 1.65116e-13 2.31517e-13 2.31517e-13 2.31517e-13 2.31517e-13 9.45709e-13 9.45709e-13 9.45709e-13 9.45709e-13 9.20701e-14 9.20701e-14 9.20701e-14 9.20701e-14 1.12308e-12 1.12308e-12 1.12308e-12 1.12308e-12 9.17472e-13 9.17472e-13 9.17472e-13 9.17472e-13 7.93128e-14 7.93128e-14 7.93128e-14 7.93128e-14 1.49876e-13 1.49876e-13 1.49876e-13 1.49876e-13 8.01308e-14 8.01308e-14 8.01308e-14 8.01308e-14 1.79503e-13 1.79503e-13 1.79503e-13 1.79503e-13 2.81855e-13 2.81855e-13 2.81855e-13 2.81855e-13 1.13961e-13 1.13961e-13 1.13961e-13 1.13961e-13 1.05003e-13 1.05003e-13 1.05003e-13 1.05003e-13 9.85006e-14 9.85006e-14 9.85006e-14 9.85006e-14 1.56923e-13 1.56923e-13 1.56923e-13 1.56923e-13 7.1519e-14 7.1519e-14 7.1519e-14 7.1519e-14 5.46918e-13 5.46918e-13 5.46918e-13 5.46918e-13 6.23783e-13 6.23783e-13 6.23783e-13 6.23783e-13 4.20898e-13 4.20898e-13 4.20898e-13 4.20898e-13 3.22179e-13 3.22179e-13 3.22179e-13 3.22179e-13 8.29322e-13 8.29322e-13 8.29322e-13 8.29322e-13 1.26445e-12 1.26445e-12 1.26445e-12 1.26445e-12 3.90924e-13 3.90924e-13 3.90924e-13 3.90924e-13 4.45109e-13 4.45109e-13 4.45109e-13 4.45109e-13 1.9882e-13 1.9882e-13 1.9882e-13 1.9882e-13 3.16847e-13 3.16847e-13 3.16847e-13 3.16847e-13 9.82196e-13 9.82196e-13 9.82196e-13 9.82196e-13 1.4539e-14 1.4539e-14 1.4539e-14 1.4539e-14 4.62573e-14 4.62573e-14 4.62573e-14 4.62573e-14 1.99957e-12 1.99957e-12 1.99957e-12 1.99957e-12 3.50482e-13 3.50482e-13 3.50482e-13 3.50482e-13 1.09338e-13 1.09338e-13 1.09338e-13 1.09338e-13 1.53012e-13 1.53012e-13 1.53012e-13 1.53012e-13 2.97773e-13 2.97773e-13 2.97773e-13 2.97773e-13 1.59592e-13 1.59592e-13 1.59592e-13 1.59592e-13 3.94258e-13 3.94258e-13 3.94258e-13 3.94258e-13 1.76918e-13 1.76918e-13 1.76918e-13 1.76918e-13 2.89706e-12 2.89706e-12 2.89706e-12 2.89706e-12 3.06702e-13 3.06702e-13 3.06702e-13 3.06702e-13 1.02511e-13 1.02511e-13 1.02511e-13 1.02511e-13 1.06718e-13 1.06718e-13 1.06718e-13 1.06718e-13 1.88309e-13 1.88309e-13 1.88309e-13 1.88309e-13 3.95488e-13 3.95488e-13 3.95488e-13 3.95488e-13 4.6192e-13 4.6192e-13 4.6192e-13 4.6192e-13 4.78738e-13 4.78738e-13 4.78738e-13 4.78738e-13 8.1423e-14 8.1423e-14 8.1423e-14 8.1423e-14 2.94384e-13 2.94384e-13 2.94384e-13 2.94384e-13 6.16043e-13 6.16043e-13 6.16043e-13 6.16043e-13 4.12041e-13 4.12041e-13 4.12041e-13 4.12041e-13 8.94318e-14 8.94318e-14 8.94318e-14 8.94318e-14 9.19142e-13 9.19142e-13 9.19142e-13 9.19142e-13 3.8362e-13 3.8362e-13 3.8362e-13 3.8362e-13 3.37131e-14 3.37131e-14 3.37131e-14 3.37131e-14 3.24534e-13 3.24534e-13 3.24534e-13 3.24534e-13 5.06587e-13 5.06587e-13 5.06587e-13 5.06587e-13 2.03669e-13 2.03669e-13 2.03669e-13 2.03669e-13 1.37001e-13 1.37001e-13 1.37001e-13 1.37001e-13 1.36968e-13 1.36968e-13 1.36968e-13 1.36968e-13 8.97144e-13 8.97144e-13 8.97144e-13 8.97144e-13 4.27887e-13 4.27887e-13 4.27887e-13 4.27887e-13 6.32032e-13 6.32032e-13 6.32032e-13 6.32032e-13 5.18019e-13 5.18019e-13 5.18019e-13 5.18019e-13 8.80168e-14 8.80168e-14 8.80168e-14 8.80168e-14 8.37069e-14 8.37069e-14 8.37069e-14 8.37069e-14 6.05596e-13 6.05596e-13 6.05596e-13 6.05596e-13 3.35765e-13 3.35765e-13 3.35765e-13 3.35765e-13 3.65091e-13 3.65091e-13 3.65091e-13 3.65091e-13 9.27185e-13 9.27185e-13 9.27185e-13 9.27185e-13 1.41898e-13 1.41898e-13 1.41898e-13 1.41898e-13 2.87046e-13 2.87046e-13 2.87046e-13 2.87046e-13 7.99047e-13 7.99047e-13 7.99047e-13 7.99047e-13 9.30415e-14 9.30415e-14 9.30415e-14 9.30415e-14 6.06464e-13 6.06464e-13 6.06464e-13 6.06464e-13 6.36179e-14 6.36179e-14 6.36179e-14 6.36179e-14 5.51723e-13 5.51723e-13 5.51723e-13 5.51723e-13 4.1926e-13 4.1926e-13 4.1926e-13 4.1926e-13 1.8786e-13 1.8786e-13 1.8786e-13 1.8786e-13 7.09948e-14 7.09948e-14 7.09948e-14 7.09948e-14 6.20987e-13 6.20987e-13 6.20987e-13 6.20987e-13 2.41255e-13 2.41255e-13 2.41255e-13 2.41255e-13 8.40501e-13 8.40501e-13 8.40501e-13 8.40501e-13 1.41014e-13 1.41014e-13 1.41014e-13 1.41014e-13 3.33272e-13 3.33272e-13 3.33272e-13 3.33272e-13 1.54382e-13 1.54382e-13 1.54382e-13 1.54382e-13 2.3518e-13 2.3518e-13 2.3518e-13 2.3518e-13 3.38698e-13 3.38698e-13 3.38698e-13 3.38698e-13 9.18393e-14 9.18393e-14 9.18393e-14 9.18393e-14 6.20974e-13 6.20974e-13 6.20974e-13 6.20974e-13 2.73526e-13 2.73526e-13 2.73526e-13 2.73526e-13 2.70509e-13 2.70509e-13 2.70509e-13 2.70509e-13 2.1599e-13 2.1599e-13 2.1599e-13 2.1599e-13 1.95803e-13 1.95803e-13 1.95803e-13 1.95803e-13 1.34829e-13 1.34829e-13 1.34829e-13 1.34829e-13 4.58252e-13 4.58252e-13 4.58252e-13 4.58252e-13 3.67638e-13 3.67638e-13 3.67638e-13 3.67638e-13 2.36318e-13 2.36318e-13 2.36318e-13 2.36318e-13 1.47838e-13 1.47838e-13 1.47838e-13 1.47838e-13 6.7255e-14 6.7255e-14 6.7255e-14 6.7255e-14 4.28921e-13 4.28921e-13 4.28921e-13 4.28921e-13 7.89466e-14 7.89466e-14 7.89466e-14 7.89466e-14 4.19716e-14 4.19716e-14 4.19716e-14 4.19716e-14 2.80159e-13 2.80159e-13 2.80159e-13 2.80159e-13 9.24987e-14 9.24987e-14 9.24987e-14 9.24987e-14 1.2927e-12 1.2927e-12 1.2927e-12 1.2927e-12 1.39769e-13 1.39769e-13 1.39769e-13 1.39769e-13 1.49953e-13 1.49953e-13 1.49953e-13 1.49953e-13 6.43754e-13 6.43754e-13 6.43754e-13 6.43754e-13 8.78873e-14 8.78873e-14 8.78873e-14 8.78873e-14 2.53321e-13 2.53321e-13 2.53321e-13 2.53321e-13 2.28621e-13 2.28621e-13 2.28621e-13 2.28621e-13 1.35703e-13 1.35703e-13 1.35703e-13 1.35703e-13 6.88701e-13 6.88701e-13 6.88701e-13 6.88701e-13 3.21534e-13 3.21534e-13 3.21534e-13 3.21534e-13 7.27507e-14 7.27507e-14 7.27507e-14 7.27507e-14 1.66808e-13 1.66808e-13 1.66808e-13 1.66808e-13 6.69887e-13 6.69887e-13 6.69887e-13 6.69887e-13 2.70196e-13 2.70196e-13 2.70196e-13 2.70196e-13 1.56776e-14 1.56776e-14 1.56776e-14 1.56776e-14 3.82814e-13 3.82814e-13 3.82814e-13 3.82814e-13 2.2539e-13 2.2539e-13 2.2539e-13 2.2539e-13 3.09279e-13 3.09279e-13 3.09279e-13 3.09279e-13 1.33147e-13 1.33147e-13 1.33147e-13 1.33147e-13 6.49503e-13 6.49503e-13 6.49503e-13 6.49503e-13 6.95237e-14 6.95237e-14 6.95237e-14 6.95237e-14 3.00478e-13 3.00478e-13 3.00478e-13 3.00478e-13 3.60802e-14 3.60802e-14 3.60802e-14 3.60802e-14 2.01644e-13 2.01644e-13 2.01644e-13 2.01644e-13 1.82858e-13 1.82858e-13 1.82858e-13 1.82858e-13 1.35593e-12 1.35593e-12 1.35593e-12 1.35593e-12 1.4477e-12 1.4477e-12 1.4477e-12 1.4477e-12 3.76371e-14 3.76371e-14 3.76371e-14 3.76371e-14 1.36647e-12 1.36647e-12 1.36647e-12 1.36647e-12 8.98624e-13 8.98624e-13 8.98624e-13 8.98624e-13 8.66194e-13 8.66194e-13 8.66194e-13 8.66194e-13 5.85732e-13 5.85732e-13 5.85732e-13 5.85732e-13 1.21472e-12 1.21472e-12 1.21472e-12 1.21472e-12 1.768e-13 1.768e-13 1.768e-13 1.768e-13 7.38906e-13 7.38906e-13 7.38906e-13 7.38906e-13 2.12254e-13 2.12254e-13 2.12254e-13 2.12254e-13 6.88235e-13 6.88235e-13 6.88235e-13 6.88235e-13 4.09518e-13 4.09518e-13 4.09518e-13 4.09518e-13 1.22801e-13 1.22801e-13 1.22801e-13 1.22801e-13 6.36114e-14 6.36114e-14 6.36114e-14 6.36114e-14 1.82345e-13 1.82345e-13 1.82345e-13 1.82345e-13 1.18663e-13 1.18663e-13 1.18663e-13 1.18663e-13 8.5573e-13 8.5573e-13 8.5573e-13 8.5573e-13 2.8726e-13 2.8726e-13 2.8726e-13 2.8726e-13 1.50097e-13 1.50097e-13 1.50097e-13 1.50097e-13 8.15177e-13 8.15177e-13 8.15177e-13 8.15177e-13 6.64631e-13 6.64631e-13 6.64631e-13 6.64631e-13 6.06767e-13 6.06767e-13 6.06767e-13 6.06767e-13 3.90039e-13 3.90039e-13 3.90039e-13 3.90039e-13 9.66983e-14 9.66983e-14 9.66983e-14 9.66983e-14 2.20162e-13 2.20162e-13 2.20162e-13 2.20162e-13 1.4078e-13 1.4078e-13 1.4078e-13 1.4078e-13 5.86027e-13 5.86027e-13 5.86027e-13 5.86027e-13 1.16639e-13 1.16639e-13 1.16639e-13 1.16639e-13 2.54873e-13 2.54873e-13 2.54873e-13 2.54873e-13 7.72948e-14 7.72948e-14 7.72948e-14 7.72948e-14 5.73309e-14 5.73309e-14 5.73309e-14 5.73309e-14 9.62066e-14 9.62066e-14 9.62066e-14 9.62066e-14 1.62035e-12 1.62035e-12 1.62035e-12 1.62035e-12 1.90849e-13 1.90849e-13 1.90849e-13 1.90849e-13 1.09515e-13 1.09515e-13 1.09515e-13 1.09515e-13 8.36567e-13 8.36567e-13 8.36567e-13 8.36567e-13 1.24111e-13 1.24111e-13 1.24111e-13 1.24111e-13 5.47053e-13 5.47053e-13 5.47053e-13 5.47053e-13 4.45847e-13 4.45847e-13 4.45847e-13 4.45847e-13 4.88185e-14 4.88185e-14 4.88185e-14 4.88185e-14 4.17313e-13 4.17313e-13 4.17313e-13 4.17313e-13 2.1248e-13 2.1248e-13 2.1248e-13 2.1248e-13 7.20607e-13 7.20607e-13 7.20607e-13 7.20607e-13 8.03075e-13 8.03075e-13 8.03075e-13 8.03075e-13 4.21062e-13 4.21062e-13 4.21062e-13 4.21062e-13 5.18743e-13 5.18743e-13 5.18743e-13 5.18743e-13 6.02527e-13 6.02527e-13 6.02527e-13 6.02527e-13 7.12056e-13 7.12056e-13 7.12056e-13 7.12056e-13 5.06128e-14 5.06128e-14 5.06128e-14 5.06128e-14 7.44782e-13 7.44782e-13 7.44782e-13 7.44782e-13 1.325e-12 1.325e-12 1.325e-12 1.325e-12 4.87361e-13 4.87361e-13 4.87361e-13 4.87361e-13 9.33107e-13 9.33107e-13 9.33107e-13 9.33107e-13 1.93045e-13 1.93045e-13 1.93045e-13 1.93045e-13 3.61776e-13 3.61776e-13 3.61776e-13 3.61776e-13 1.26556e-13 1.26556e-13 1.26556e-13 1.26556e-13 4.43574e-14 4.43574e-14 4.43574e-14 4.43574e-14 1.4802e-13 1.4802e-13 1.4802e-13 1.4802e-13 4.45912e-13 4.45912e-13 4.45912e-13 4.45912e-13 9.57241e-13 9.57241e-13 9.57241e-13 9.57241e-13 3.74637e-14 3.74637e-14 3.74637e-14 3.74637e-14 1.55753e-12 1.55753e-12 1.55753e-12 1.55753e-12 8.27862e-13 8.27862e-13 8.27862e-13 8.27862e-13 1.20556e-12 1.20556e-12 1.20556e-12 1.20556e-12 7.96653e-13 7.96653e-13 7.96653e-13 7.96653e-13 1.85859e-13 1.85859e-13 1.85859e-13 1.85859e-13 7.03917e-13 7.03917e-13 7.03917e-13 7.03917e-13 6.84478e-13 6.84478e-13 6.84478e-13 6.84478e-13 1.79413e-12 1.79413e-12 1.79413e-12 1.79413e-12 4.85871e-13 4.85871e-13 4.85871e-13 4.85871e-13 9.58842e-14 9.58842e-14 9.58842e-14 9.58842e-14 8.48652e-13 8.48652e-13 8.48652e-13 8.48652e-13 6.01244e-13 6.01244e-13 6.01244e-13 6.01244e-13 5.13781e-13 5.13781e-13 5.13781e-13 5.13781e-13 3.4321e-13 3.4321e-13 3.4321e-13 3.4321e-13 8.77837e-13 8.77837e-13 8.77837e-13 8.77837e-13 5.12772e-13 5.12772e-13 5.12772e-13 5.12772e-13 5.17214e-13 5.17214e-13 5.17214e-13 5.17214e-13 8.5778e-14 8.5778e-14 8.5778e-14 8.5778e-14 8.60607e-13 8.60607e-13 8.60607e-13 8.60607e-13 1.56391e-12 1.56391e-12 1.56391e-12 1.56391e-12 1.48019e-12 1.48019e-12 1.48019e-12 1.48019e-12 4.08408e-13 4.08408e-13 4.08408e-13 4.08408e-13 2.88775e-13 2.88775e-13 2.88775e-13 2.88775e-13 6.42093e-13 6.42093e-13 6.42093e-13 6.42093e-13 5.40987e-13 5.40987e-13 5.40987e-13 5.40987e-13 2.65439e-13 2.65439e-13 2.65439e-13 2.65439e-13 1.23147e-13 1.23147e-13 1.23147e-13 1.23147e-13 4.62945e-13 4.62945e-13 4.62945e-13 4.62945e-13 8.02974e-13 8.02974e-13 8.02974e-13 8.02974e-13 4.60216e-13 4.60216e-13 4.60216e-13 4.60216e-13 2.7772e-13 2.7772e-13 2.7772e-13 2.7772e-13 2.52668e-13 2.52668e-13 2.52668e-13 2.52668e-13 4.77178e-13 4.77178e-13 4.77178e-13 4.77178e-13 2.67786e-13 2.67786e-13 2.67786e-13 2.67786e-13 3.3614e-13 3.3614e-13 3.3614e-13 3.3614e-13 3.33156e-13 3.33156e-13 3.33156e-13 3.33156e-13 4.31779e-13 4.31779e-13 4.31779e-13 4.31779e-13 6.9089e-14 6.9089e-14 6.9089e-14 6.9089e-14 6.72802e-13 6.72802e-13 6.72802e-13 6.72802e-13 9.25521e-13 9.25521e-13 9.25521e-13 9.25521e-13 2.65015e-13 2.65015e-13 2.65015e-13 2.65015e-13 5.3013e-13 5.3013e-13 5.3013e-13 5.3013e-13 6.49157e-13 6.49157e-13 6.49157e-13 6.49157e-13 4.59281e-13 4.59281e-13 4.59281e-13 4.59281e-13 4.59213e-13 4.59213e-13 4.59213e-13 4.59213e-13 2.87329e-13 2.87329e-13 2.87329e-13 2.87329e-13 6.39027e-13 6.39027e-13 6.39027e-13 6.39027e-13 2.02312e-13 2.02312e-13 2.02312e-13 2.02312e-13 7.54308e-13 7.54308e-13 7.54308e-13 7.54308e-13 7.33138e-14 7.33138e-14 7.33138e-14 7.33138e-14 6.85648e-13 6.85648e-13 6.85648e-13 6.85648e-13 1.96022e-13 1.96022e-13 1.96022e-13 1.96022e-13 8.54128e-14 8.54128e-14 8.54128e-14 8.54128e-14 3.65887e-13 3.65887e-13 3.65887e-13 3.65887e-13 8.13172e-13 8.13172e-13 8.13172e-13 8.13172e-13 5.61864e-13 5.61864e-13 5.61864e-13 5.61864e-13 5.95625e-13 5.95625e-13 5.95625e-13 5.95625e-13 7.11838e-14 7.11838e-14 7.11838e-14 7.11838e-14 4.33432e-13 4.33432e-13 4.33432e-13 4.33432e-13 5.13149e-13 5.13149e-13 5.13149e-13 5.13149e-13 3.6669e-13 3.6669e-13 3.6669e-13 3.6669e-13 8.04291e-14 8.04291e-14 8.04291e-14 8.04291e-14 7.64692e-14 7.64692e-14 7.64692e-14 7.64692e-14 2.60662e-13 2.60662e-13 2.60662e-13 2.60662e-13 1.87166e-13 1.87166e-13 1.87166e-13 1.87166e-13 9.96565e-13 9.96565e-13 9.96565e-13 9.96565e-13 4.59405e-13 4.59405e-13 4.59405e-13 4.59405e-13 5.22138e-13 5.22138e-13 5.22138e-13 5.22138e-13 4.89109e-13 4.89109e-13 4.89109e-13 4.89109e-13 1.03421e-12 1.03421e-12 1.03421e-12 1.03421e-12 3.07517e-13 3.07517e-13 3.07517e-13 3.07517e-13 1.14905e-13 1.14905e-13 1.14905e-13 1.14905e-13 5.53929e-13 5.53929e-13 5.53929e-13 5.53929e-13 1.18255e-13 1.18255e-13 1.18255e-13 1.18255e-13 1.39613e-13 1.39613e-13 1.39613e-13 1.39613e-13 4.69558e-13 4.69558e-13 4.69558e-13 4.69558e-13 1.43409e-12 1.43409e-12 1.43409e-12 1.43409e-12 1.25068e-12 1.25068e-12 1.25068e-12 1.25068e-12 1.3281e-13 1.3281e-13 1.3281e-13 1.3281e-13 6.67893e-14 6.67893e-14 6.67893e-14 6.67893e-14 7.53832e-13 7.53832e-13 7.53832e-13 7.53832e-13 7.57416e-13 7.57416e-13 7.57416e-13 7.57416e-13 5.23952e-13 5.23952e-13 5.23952e-13 5.23952e-13 4.40832e-13 4.40832e-13 4.40832e-13 4.40832e-13 4.44194e-13 4.44194e-13 4.44194e-13 4.44194e-13 1.10052e-12 1.10052e-12 1.10052e-12 1.10052e-12 5.11935e-13 5.11935e-13 5.11935e-13 5.11935e-13 4.17349e-13 4.17349e-13 4.17349e-13 4.17349e-13 5.43854e-13 5.43854e-13 5.43854e-13 5.43854e-13 5.39816e-14 5.39816e-14 5.39816e-14 5.39816e-14 1.74324e-13 1.74324e-13 1.74324e-13 1.74324e-13 1.33173e-13 1.33173e-13 1.33173e-13 1.33173e-13 1.24418e-13 1.24418e-13 1.24418e-13 1.24418e-13 6.4339e-13 6.4339e-13 6.4339e-13 6.4339e-13 2.61339e-13 2.61339e-13 2.61339e-13 2.61339e-13 4.56553e-13 4.56553e-13 4.56553e-13 4.56553e-13 9.57362e-13 9.57362e-13 9.57362e-13 9.57362e-13 6.75506e-14 6.75506e-14 6.75506e-14 6.75506e-14 1.15689e-12 1.15689e-12 1.15689e-12 1.15689e-12 9.86799e-14 9.86799e-14 9.86799e-14 9.86799e-14 2.15539e-13 2.15539e-13 2.15539e-13 2.15539e-13 2.68538e-13 2.68538e-13 2.68538e-13 2.68538e-13 3.91726e-13 3.91726e-13 3.91726e-13 3.91726e-13 1.38718e-12 1.38718e-12 1.38718e-12 1.38718e-12 1.51611e-12 1.51611e-12 1.51611e-12 1.51611e-12 4.16782e-13 4.16782e-13 4.16782e-13 4.16782e-13 7.7159e-13 7.7159e-13 7.7159e-13 7.7159e-13 4.41145e-13 4.41145e-13 4.41145e-13 4.41145e-13 2.21814e-13 2.21814e-13 2.21814e-13 2.21814e-13 6.88956e-13 6.88956e-13 6.88956e-13 6.88956e-13 2.36803e-12 2.36803e-12 2.36803e-12 2.36803e-12 4.19426e-13 4.19426e-13 4.19426e-13 4.19426e-13 1.92569e-13 1.92569e-13 1.92569e-13 1.92569e-13 6.62815e-13 6.62815e-13 6.62815e-13 6.62815e-13 3.73864e-14 3.73864e-14 3.73864e-14 3.73864e-14 1.08774e-12 1.08774e-12 1.08774e-12 1.08774e-12 9.94481e-14 9.94481e-14 9.94481e-14 9.94481e-14 2.00716e-13 2.00716e-13 2.00716e-13 2.00716e-13 2.69416e-13 2.69416e-13 2.69416e-13 2.69416e-13 8.13537e-13 8.13537e-13 8.13537e-13 8.13537e-13 3.93452e-13 3.93452e-13 3.93452e-13 3.93452e-13 3.56451e-14 3.56451e-14 3.56451e-14 3.56451e-14 6.29214e-13 6.29214e-13 6.29214e-13 6.29214e-13 6.88892e-14 6.88892e-14 6.88892e-14 6.88892e-14 2.63222e-13 2.63222e-13 2.63222e-13 2.63222e-13 1.51869e-13 1.51869e-13 1.51869e-13 1.51869e-13 4.23967e-13 4.23967e-13 4.23967e-13 4.23967e-13 2.41947e-13 2.41947e-13 2.41947e-13 2.41947e-13 6.15074e-13 6.15074e-13 6.15074e-13 6.15074e-13 4.19636e-13 4.19636e-13 4.19636e-13 4.19636e-13 6.59769e-13 6.59769e-13 6.59769e-13 6.59769e-13 2.03876e-13 2.03876e-13 2.03876e-13 2.03876e-13 9.97543e-13 9.97543e-13 9.97543e-13 9.97543e-13 5.11009e-14 5.11009e-14 5.11009e-14 5.11009e-14 7.63037e-14 7.63037e-14 7.63037e-14 7.63037e-14 9.40534e-13 9.40534e-13 9.40534e-13 9.40534e-13 7.70958e-13 7.70958e-13 7.70958e-13 7.70958e-13 2.18405e-14 2.18405e-14 2.18405e-14 2.18405e-14 1.09102e-12 1.09102e-12 1.09102e-12 1.09102e-12 1.21379e-13 1.21379e-13 1.21379e-13 1.21379e-13 5.25736e-13 5.25736e-13 5.25736e-13 5.25736e-13 9.21053e-14 9.21053e-14 9.21053e-14 9.21053e-14 7.72051e-13 7.72051e-13 7.72051e-13 7.72051e-13 7.65006e-13 7.65006e-13 7.65006e-13 7.65006e-13 1.5082e-13 1.5082e-13 1.5082e-13 1.5082e-13 7.94499e-13 7.94499e-13 7.94499e-13 7.94499e-13 6.4363e-13 6.4363e-13 6.4363e-13 6.4363e-13 1.39232e-12 1.39232e-12 1.39232e-12 1.39232e-12 2.07599e-14 2.07599e-14 2.07599e-14 2.07599e-14 8.67231e-14 8.67231e-14 8.67231e-14 8.67231e-14 8.79098e-14 8.79098e-14 8.79098e-14 8.79098e-14 3.18945e-14 3.18945e-14 3.18945e-14 3.18945e-14 1.46668e-12 1.46668e-12 1.46668e-12 1.46668e-12 1.59041e-13 1.59041e-13 1.59041e-13 1.59041e-13 7.15583e-13 7.15583e-13 7.15583e-13 7.15583e-13 1.19323e-12 1.19323e-12 1.19323e-12 1.19323e-12 1.64572e-13 1.64572e-13 1.64572e-13 1.64572e-13 9.78788e-13 9.78788e-13 9.78788e-13 9.78788e-13 7.95946e-13 7.95946e-13 7.95946e-13 7.95946e-13 1.86251e-13 1.86251e-13 1.86251e-13 1.86251e-13 2.34668e-13 2.34668e-13 2.34668e-13 2.34668e-13 9.46338e-14 9.46338e-14 9.46338e-14 9.46338e-14 2.05157e-13 2.05157e-13 2.05157e-13 2.05157e-13 9.74566e-13 9.74566e-13 9.74566e-13 9.74566e-13 1.79272e-13 1.79272e-13 1.79272e-13 1.79272e-13 9.40984e-13 9.40984e-13 9.40984e-13 9.40984e-13 6.99457e-13 6.99457e-13 6.99457e-13 6.99457e-13 3.86379e-13 3.86379e-13 3.86379e-13 3.86379e-13 4.82781e-13 4.82781e-13 4.82781e-13 4.82781e-13 3.61631e-13 3.61631e-13 3.61631e-13 3.61631e-13 2.80598e-13 2.80598e-13 2.80598e-13 2.80598e-13 6.8319e-14 6.8319e-14 6.8319e-14 6.8319e-14 2.89893e-13 2.89893e-13 2.89893e-13 2.89893e-13 1.8193e-13 1.8193e-13 1.8193e-13 1.8193e-13 3.51401e-13 3.51401e-13 3.51401e-13 3.51401e-13 3.1646e-13 3.1646e-13 3.1646e-13 3.1646e-13 2.10922e-13 2.10922e-13 2.10922e-13 2.10922e-13 1.68499e-14 1.68499e-14 1.68499e-14 1.68499e-14 0.000170788 0.000170788 0.000170788 0.000170788 7.72346e-14 7.72346e-14 7.72346e-14 7.72346e-14 7.55908e-14 7.55908e-14 7.55908e-14 7.55908e-14 3.44619e-13 3.44619e-13 3.44619e-13 3.44619e-13 1.58341e-13 1.58341e-13 1.58341e-13 1.58341e-13 9.17247e-13 9.17247e-13 9.17247e-13 9.17247e-13 2.7249e-13 2.7249e-13 2.7249e-13 2.7249e-13 9.32134e-13 9.32134e-13 9.32134e-13 9.32134e-13 1.11127e-12 1.11127e-12 1.11127e-12 1.11127e-12 7.699e-13 7.699e-13 7.699e-13 7.699e-13 5.54778e-14 5.54778e-14 5.54778e-14 5.54778e-14 1.45768e-13 1.45768e-13 1.45768e-13 1.45768e-13 1.02793e-12 1.02793e-12 1.02793e-12 1.02793e-12 4.36997e-13 4.36997e-13 4.36997e-13 4.36997e-13 0.000171552 0.000171552 0.000171552 0.000171552 5.4632e-13 5.4632e-13 5.4632e-13 5.4632e-13 3.81739e-13 3.81739e-13 3.81739e-13 3.81739e-13 1.09499e-13 1.09499e-13 1.09499e-13 1.09499e-13 6.18676e-13 6.18676e-13 6.18676e-13 6.18676e-13 1.37499e-12 1.37499e-12 1.37499e-12 1.37499e-12 7.05351e-13 7.05351e-13 7.05351e-13 7.05351e-13 1.74444e-13 1.74444e-13 1.74444e-13 1.74444e-13 8.25638e-14 8.25638e-14 8.25638e-14 8.25638e-14 4.56121e-13 4.56121e-13 4.56121e-13 4.56121e-13 6.04786e-13 6.04786e-13 6.04786e-13 6.04786e-13 6.64336e-14 6.64336e-14 6.64336e-14 6.64336e-14 2.55525e-12 2.55525e-12 2.55525e-12 2.55525e-12 2.70488e-13 2.70488e-13 2.70488e-13 2.70488e-13 7.71661e-13 7.71661e-13 7.71661e-13 7.71661e-13 5.69605e-13 5.69605e-13 5.69605e-13 5.69605e-13 1.04505e-13 1.04505e-13 1.04505e-13 1.04505e-13 9.09217e-13 9.09217e-13 9.09217e-13 9.09217e-13 1.03312e-13 1.03312e-13 1.03312e-13 1.03312e-13 4.79269e-13 4.79269e-13 4.79269e-13 4.79269e-13 2.0659e-13 2.0659e-13 2.0659e-13 2.0659e-13 2.75525e-13 2.75525e-13 2.75525e-13 2.75525e-13 7.0694e-14 7.0694e-14 7.0694e-14 7.0694e-14 2.00918e-13 2.00918e-13 2.00918e-13 2.00918e-13 5.19618e-13 5.19618e-13 5.19618e-13 5.19618e-13 5.59172e-14 5.59172e-14 5.59172e-14 5.59172e-14 8.43501e-13 8.43501e-13 8.43501e-13 8.43501e-13 3.89339e-13 3.89339e-13 3.89339e-13 3.89339e-13 5.81347e-13 5.81347e-13 5.81347e-13 5.81347e-13 1.11316e-12 1.11316e-12 1.11316e-12 1.11316e-12 7.15544e-13 7.15544e-13 7.15544e-13 7.15544e-13 7.52291e-13 7.52291e-13 7.52291e-13 7.52291e-13 9.34857e-07 9.34857e-07 9.34857e-07 9.34857e-07 4.31057e-13 4.31057e-13 4.31057e-13 4.31057e-13 1.12664e-13 1.12664e-13 1.12664e-13 1.12664e-13 5.88787e-13 5.88787e-13 5.88787e-13 5.88787e-13 9.35215e-13 9.35215e-13 9.35215e-13 9.35215e-13 8.65063e-13 8.65063e-13 8.65063e-13 8.65063e-13 1.34609e-12 1.34609e-12 1.34609e-12 1.34609e-12 5.21401e-14 5.21401e-14 5.21401e-14 5.21401e-14 5.34807e-13 5.34807e-13 5.34807e-13 5.34807e-13 9.69726e-13 9.69726e-13 9.69726e-13 9.69726e-13 7.41554 7.41554 7.41554 7.41554 1.87607e-13 1.87607e-13 1.87607e-13 1.87607e-13 9.96135e-13 9.96135e-13 9.96135e-13 9.96135e-13 7.90671e-13 7.90671e-13 7.90671e-13 7.90671e-13 9.8349e-13 9.8349e-13 9.8349e-13 9.8349e-13 6.5806e-13 6.5806e-13 6.5806e-13 6.5806e-13 9.59221e-13 9.59221e-13 9.59221e-13 9.59221e-13 1.31752e-13 1.31752e-13 1.31752e-13 1.31752e-13 4.88558e-14 4.88558e-14 4.88558e-14 4.88558e-14 3.97289e-13 3.97289e-13 3.97289e-13 3.97289e-13 0.00326973 0.00326973 0.00326973 0.00326973 1.24379e-08 1.24379e-08 1.24379e-08 1.24379e-08 3.45854e-13 3.45854e-13 3.45854e-13 3.45854e-13 2.23126e-13 2.23126e-13 2.23126e-13 2.23126e-13 7.93625e-13 7.93625e-13 7.93625e-13 7.93625e-13 9.61978e-13 9.61978e-13 9.61978e-13 9.61978e-13 3.78691e-13 3.78691e-13 3.78691e-13 3.78691e-13 1.04245e-12 1.04245e-12 1.04245e-12 1.04245e-12 1.03774e-12 1.03774e-12 1.03774e-12 1.03774e-12 1.08705e-13 1.08705e-13 1.08705e-13 1.08705e-13 4.30446e-13 4.30446e-13 4.30446e-13 4.30446e-13 2.53527e-12 2.53527e-12 2.53527e-12 2.53527e-12 2.15142e-13 2.15142e-13 2.15142e-13 2.15142e-13 1.78588e-12 1.78588e-12 1.78588e-12 1.78588e-12 6.38953e-13 6.38953e-13 6.38953e-13 6.38953e-13 9.48174e-07 9.48174e-07 9.48174e-07 9.48174e-07 9.29248e-13 9.29248e-13 9.29248e-13 9.29248e-13 1.00076e-12 1.00076e-12 1.00076e-12 1.00076e-12 0.00115042 0.00115042 0.00115042 0.00115042 0.00330829 0.00330829 0.00330829 0.00330829 6.4459e-13 6.4459e-13 6.4459e-13 6.4459e-13 7.49732e-14 7.49732e-14 7.49732e-14 7.49732e-14 4.1671e-14 4.1671e-14 4.1671e-14 4.1671e-14 1.48861e-13 1.48861e-13 1.48861e-13 1.48861e-13 1.19381e-13 1.19381e-13 1.19381e-13 1.19381e-13 0.00294878 0.00294878 0.00294878 0.00294878 5.863e-13 5.863e-13 5.863e-13 5.863e-13 7.49255e-13 7.49255e-13 7.49255e-13 7.49255e-13 5.92233e-13 5.92233e-13 5.92233e-13 5.92233e-13 1.11388e-12 1.11388e-12 1.11388e-12 1.11388e-12 7.42935 7.42935 7.42935 7.42935 3.60236e-14 3.60236e-14 3.60236e-14 3.60236e-14 2.57147e-13 2.57147e-13 2.57147e-13 2.57147e-13 1.80339e-12 1.80339e-12 1.80339e-12 1.80339e-12 2.32084e-13 2.32084e-13 2.32084e-13 2.32084e-13 4.3344e-13 4.3344e-13 4.3344e-13 4.3344e-13 1.09513e-12 1.09513e-12 1.09513e-12 1.09513e-12 1.4226e-13 1.4226e-13 1.4226e-13 1.4226e-13 5.70682e-13 5.70682e-13 5.70682e-13 5.70682e-13 2.87478e-13 2.87478e-13 2.87478e-13 2.87478e-13 0.00293548 0.00293548 0.00293548 0.00293548 5.27236e-13 5.27236e-13 5.27236e-13 5.27236e-13 4.72222e-13 4.72222e-13 4.72222e-13 4.72222e-13 7.46277 7.46277 7.46277 7.46277 3.04872e-13 3.04872e-13 3.04872e-13 3.04872e-13 7.5541 7.5541 7.5541 7.5541 5.72585e-13 5.72585e-13 5.72585e-13 5.72585e-13 2.45289e-13 2.45289e-13 2.45289e-13 2.45289e-13 7.73638 7.73638 7.73638 7.73638 6.2673e-13 6.2673e-13 6.2673e-13 6.2673e-13 9.82553e-14 9.82553e-14 9.82553e-14 9.82553e-14 1.97584e-13 1.97584e-13 1.97584e-13 1.97584e-13 1.39636e-12 1.39636e-12 1.39636e-12 1.39636e-12 2.17352e-13 2.17352e-13 2.17352e-13 2.17352e-13 9.40136 9.40136 9.40136 9.40136 0.0029896 0.0029896 0.0029896 0.0029896 8.48448e-13 8.48448e-13 8.48448e-13 8.48448e-13 7.98051e-14 7.98051e-14 7.98051e-14 7.98051e-14 0.00302493 0.00302493 0.00302493 0.00302493 1.23185e-12 1.23185e-12 1.23185e-12 1.23185e-12 2.89317e-13 2.89317e-13 2.89317e-13 2.89317e-13 6.26612e-13 6.26612e-13 6.26612e-13 6.26612e-13 1.26949e-08 1.26949e-08 1.26949e-08 1.26949e-08 7.4589 7.4589 7.4589 7.4589 6.42127e-13 6.42127e-13 6.42127e-13 6.42127e-13 9.19611 9.19611 9.19611 9.19611 9.10644 9.10644 9.10644 9.10644 8.68196e-14 8.68196e-14 8.68196e-14 8.68196e-14 9.99291e-13 9.99291e-13 9.99291e-13 9.99291e-13 1.49401e-12 1.49401e-12 1.49401e-12 1.49401e-12 4.39437e-13 4.39437e-13 4.39437e-13 4.39437e-13 2.88193e-13 2.88193e-13 2.88193e-13 2.88193e-13 7.45715 7.45715 7.45715 7.45715 2.42377e-12 2.42377e-12 2.42377e-12 2.42377e-12 6.31896e-13 6.31896e-13 6.31896e-13 6.31896e-13 3.16955e-13 3.16955e-13 3.16955e-13 3.16955e-13 1.44144e-12 1.44144e-12 1.44144e-12 1.44144e-12 1.38992e-13 1.38992e-13 1.38992e-13 1.38992e-13 8.15565e-13 8.15565e-13 8.15565e-13 8.15565e-13 4.86091e-13 4.86091e-13 4.86091e-13 4.86091e-13 1.09427e-12 1.09427e-12 1.09427e-12 1.09427e-12 1.95275e-13 1.95275e-13 1.95275e-13 1.95275e-13 0.00118085 0.00118085 0.00118085 0.00118085 2.27782e-14 2.27782e-14 2.27782e-14 2.27782e-14 8.26142e-13 8.26142e-13 8.26142e-13 8.26142e-13 7.08551 7.08551 7.08551 7.08551 4.70027e-13 4.70027e-13 4.70027e-13 4.70027e-13 9.73308e-13 9.73308e-13 9.73308e-13 9.73308e-13 0.00279112 0.00279112 0.00279112 0.00279112 1.22791e-12 1.22791e-12 1.22791e-12 1.22791e-12 7.94084 7.94084 7.94084 7.94084 6.90153e-13 6.90153e-13 6.90153e-13 6.90153e-13 7.10454e-13 7.10454e-13 7.10454e-13 7.10454e-13 5.03524e-13 5.03524e-13 5.03524e-13 5.03524e-13 6.71916e-14 6.71916e-14 6.71916e-14 6.71916e-14 7.0694 7.0694 7.0694 7.0694 7.57619e-13 7.57619e-13 7.57619e-13 7.57619e-13 7.44469 7.44469 7.44469 7.44469 3.83811e-13 3.83811e-13 3.83811e-13 3.83811e-13 4.92721e-13 4.92721e-13 4.92721e-13 4.92721e-13 7.45571 7.45571 7.45571 7.45571 4.93377e-13 4.93377e-13 4.93377e-13 4.93377e-13 7.32761 7.32761 7.32761 7.32761 1.05059e-13 1.05059e-13 1.05059e-13 1.05059e-13 5.89549e-13 5.89549e-13 5.89549e-13 5.89549e-13 4.84611e-14 4.84611e-14 4.84611e-14 4.84611e-14 1.97907e-13 1.97907e-13 1.97907e-13 1.97907e-13 4.37235e-13 4.37235e-13 4.37235e-13 4.37235e-13 7.25845e-13 7.25845e-13 7.25845e-13 7.25845e-13 7.91854 7.91854 7.91854 7.91854 8.2887e-13 8.2887e-13 8.2887e-13 8.2887e-13 8.85798e-14 8.85798e-14 8.85798e-14 8.85798e-14 3.58858e-14 3.58858e-14 3.58858e-14 3.58858e-14 7.56264e-14 7.56264e-14 7.56264e-14 7.56264e-14 1.82676e-13 1.82676e-13 1.82676e-13 1.82676e-13 6.73896e-14 6.73896e-14 6.73896e-14 6.73896e-14 6.96119e-13 6.96119e-13 6.96119e-13 6.96119e-13 2.01226e-13 2.01226e-13 2.01226e-13 2.01226e-13 4.3833e-13 4.3833e-13 4.3833e-13 4.3833e-13 1.04793e-13 1.04793e-13 1.04793e-13 1.04793e-13 8.10294 8.10294 8.10294 8.10294 7.96506 7.96506 7.96506 7.96506 0.000678986 0.000678986 0.000678986 0.000678986 1.02549e-13 1.02549e-13 1.02549e-13 1.02549e-13 2.8183e-13 2.8183e-13 2.8183e-13 2.8183e-13 2.32228e-13 2.32228e-13 2.32228e-13 2.32228e-13 1.14725e-13 1.14725e-13 1.14725e-13 1.14725e-13 0.000626951 0.000626951 0.000626951 0.000626951 1.05043e-13 1.05043e-13 1.05043e-13 1.05043e-13 0.00278405 0.00278405 0.00278405 0.00278405 0.000584477 0.000584477 0.000584477 0.000584477 7.34966 7.34966 7.34966 7.34966 7.90546 7.90546 7.90546 7.90546 6.39236e-13 6.39236e-13 6.39236e-13 6.39236e-13 7.99572e-13 7.99572e-13 7.99572e-13 7.99572e-13 7.60548e-13 7.60548e-13 7.60548e-13 7.60548e-13 2.20623e-13 2.20623e-13 2.20623e-13 2.20623e-13 2.67258e-13 2.67258e-13 2.67258e-13 2.67258e-13 1.99762e-13 1.99762e-13 1.99762e-13 1.99762e-13 9.00979e-14 9.00979e-14 9.00979e-14 9.00979e-14 0.000111581 0.000111581 0.000111581 0.000111581 4.78985e-13 4.78985e-13 4.78985e-13 4.78985e-13 7.6062 7.6062 7.6062 7.6062 1.07691e-13 1.07691e-13 1.07691e-13 1.07691e-13 7.34601 7.34601 7.34601 7.34601 7.44544 7.44544 7.44544 7.44544 4.1621e-13 4.1621e-13 4.1621e-13 4.1621e-13 5.44423e-14 5.44423e-14 5.44423e-14 5.44423e-14 1.45176e-13 1.45176e-13 1.45176e-13 1.45176e-13 7.41953e-13 7.41953e-13 7.41953e-13 7.41953e-13 8.19169e-14 8.19169e-14 8.19169e-14 8.19169e-14 7.85394 7.85394 7.85394 7.85394 7.91222 7.91222 7.91222 7.91222 0.00130111 0.00130111 0.00130111 0.00130111 1.40337e-13 1.40337e-13 1.40337e-13 1.40337e-13 8.69636e-14 8.69636e-14 8.69636e-14 8.69636e-14 0.000581152 0.000581152 0.000581152 0.000581152 7.1594 7.1594 7.1594 7.1594 7.97367e-13 7.97367e-13 7.97367e-13 7.97367e-13 1.64231e-13 1.64231e-13 1.64231e-13 1.64231e-13 0.000158744 0.000158744 0.000158744 0.000158744 0.00108913 0.00108913 0.00108913 0.00108913 0.000147466 0.000147466 0.000147466 0.000147466 0.0041662 0.0041662 0.0041662 0.0041662 6.00857e-14 6.00857e-14 6.00857e-14 6.00857e-14 14.0081 14.0081 14.0081 14.0081 7.72077 7.72077 7.72077 7.72077 7.99905 7.99905 7.99905 7.99905 1.75396e-13 1.75396e-13 1.75396e-13 1.75396e-13 8.36766 8.36766 8.36766 8.36766 5.36567e-13 5.36567e-13 5.36567e-13 5.36567e-13 7.83474 7.83474 7.83474 7.83474 14.0938 14.0938 14.0938 14.0938 1.33327e-13 1.33327e-13 1.33327e-13 1.33327e-13 0.00459254 0.00459254 0.00459254 0.00459254 1.54817e-13 1.54817e-13 1.54817e-13 1.54817e-13 7.05198e-13 7.05198e-13 7.05198e-13 7.05198e-13 7.49033e-14 7.49033e-14 7.49033e-14 7.49033e-14 9.43115 9.43115 9.43115 9.43115 5.32437e-13 5.32437e-13 5.32437e-13 5.32437e-13 1.03838e-06 1.03838e-06 1.03838e-06 1.03838e-06 4.09664e-14 4.09664e-14 4.09664e-14 4.09664e-14 5.01181e-13 5.01181e-13 5.01181e-13 5.01181e-13 3.03319e-13 3.03319e-13 3.03319e-13 3.03319e-13 9.33732 9.33732 9.33732 9.33732 6.90726 6.90726 6.90726 6.90726 3.75628e-13 3.75628e-13 3.75628e-13 3.75628e-13 0.000110338 0.000110338 0.000110338 0.000110338 8.43415e-13 8.43415e-13 8.43415e-13 8.43415e-13 1.98263e-12 1.98263e-12 1.98263e-12 1.98263e-12 8.66264 8.66264 8.66264 8.66264 7.15417e-13 7.15417e-13 7.15417e-13 7.15417e-13 7.46603 7.46603 7.46603 7.46603 3.05592e-13 3.05592e-13 3.05592e-13 3.05592e-13 8.20253e-13 8.20253e-13 8.20253e-13 8.20253e-13 3.81949e-13 3.81949e-13 3.81949e-13 3.81949e-13 0.00120175 0.00120175 0.00120175 0.00120175 7.46334 7.46334 7.46334 7.46334 9.9133e-14 9.9133e-14 9.9133e-14 9.9133e-14 1.01644e-06 1.01644e-06 1.01644e-06 1.01644e-06 10.0633 10.0633 10.0633 10.0633 0.00379117 0.00379117 0.00379117 0.00379117 9.56296 9.56296 9.56296 9.56296 8.51672e-13 8.51672e-13 8.51672e-13 8.51672e-13 1.19244e-12 1.19244e-12 1.19244e-12 1.19244e-12 7.69111 7.69111 7.69111 7.69111 9.28264 9.28264 9.28264 9.28264 13.6428 13.6428 13.6428 13.6428 6.50692e-13 6.50692e-13 6.50692e-13 6.50692e-13 8.72461 8.72461 8.72461 8.72461 8.61678 8.61678 8.61678 8.61678 5.95383e-13 5.95383e-13 5.95383e-13 5.95383e-13 0.000169723 0.000169723 0.000169723 0.000169723 9.85115 9.85115 9.85115 9.85115 7.30663e-13 7.30663e-13 7.30663e-13 7.30663e-13 1.48165e-12 1.48165e-12 1.48165e-12 1.48165e-12 0.0040018 0.0040018 0.0040018 0.0040018 6.07791e-13 6.07791e-13 6.07791e-13 6.07791e-13 2.37413e-13 2.37413e-13 2.37413e-13 2.37413e-13 6.65582e-13 6.65582e-13 6.65582e-13 6.65582e-13 8.13345 8.13345 8.13345 8.13345 0.000696156 0.000696156 0.000696156 0.000696156 7.92519e-14 7.92519e-14 7.92519e-14 7.92519e-14 5.79378e-13 5.79378e-13 5.79378e-13 5.79378e-13 9.71743e-14 9.71743e-14 9.71743e-14 9.71743e-14 1.68669e-13 1.68669e-13 1.68669e-13 1.68669e-13 14.3955 14.3955 14.3955 14.3955 14.6094 14.6094 14.6094 14.6094 7.91533 7.91533 7.91533 7.91533 10.3486 10.3486 10.3486 10.3486 1.3664e-12 1.3664e-12 1.3664e-12 1.3664e-12 0.000171451 0.000171451 0.000171451 0.000171451 0.000734851 0.000734851 0.000734851 0.000734851 4.43037e-13 4.43037e-13 4.43037e-13 4.43037e-13 7.97888 7.97888 7.97888 7.97888 7.35694e-13 7.35694e-13 7.35694e-13 7.35694e-13 9.42526 9.42526 9.42526 9.42526 0.00143184 0.00143184 0.00143184 0.00143184 9.09306 9.09306 9.09306 9.09306 14.0066 14.0066 14.0066 14.0066 9.72609 9.72609 9.72609 9.72609 1.58266e-12 1.58266e-12 1.58266e-12 1.58266e-12 2.89351e-13 2.89351e-13 2.89351e-13 2.89351e-13 1.11492e-12 1.11492e-12 1.11492e-12 1.11492e-12 3.68863e-13 3.68863e-13 3.68863e-13 3.68863e-13 8.86678 8.86678 8.86678 8.86678 1.01927e-12 1.01927e-12 1.01927e-12 1.01927e-12 2.95918e-13 2.95918e-13 2.95918e-13 2.95918e-13 8.62313 8.62313 8.62313 8.62313 8.29135e-13 8.29135e-13 8.29135e-13 8.29135e-13 5.01155e-13 5.01155e-13 5.01155e-13 5.01155e-13 7.17882e-13 7.17882e-13 7.17882e-13 7.17882e-13 5.67602e-13 5.67602e-13 5.67602e-13 5.67602e-13 8.60717 8.60717 8.60717 8.60717 4.63078e-13 4.63078e-13 4.63078e-13 4.63078e-13 8.85397e-08 8.85397e-08 8.85397e-08 8.85397e-08 7.0893e-13 7.0893e-13 7.0893e-13 7.0893e-13 1.36753e-13 1.36753e-13 1.36753e-13 1.36753e-13 3.21088e-13 3.21088e-13 3.21088e-13 3.21088e-13 3.34242e-13 3.34242e-13 3.34242e-13 3.34242e-13 14.2563 14.2563 14.2563 14.2563 1.57593e-13 1.57593e-13 1.57593e-13 1.57593e-13 0.000170702 0.000170702 0.000170702 0.000170702 5.31116e-13 5.31116e-13 5.31116e-13 5.31116e-13 6.56468e-13 6.56468e-13 6.56468e-13 6.56468e-13 4.80346e-13 4.80346e-13 4.80346e-13 4.80346e-13 14.1536 14.1536 14.1536 14.1536 4.9029e-13 4.9029e-13 4.9029e-13 4.9029e-13 14.3723 14.3723 14.3723 14.3723 3.13814e-13 3.13814e-13 3.13814e-13 3.13814e-13 7.86646e-13 7.86646e-13 7.86646e-13 7.86646e-13 9.00062e-14 9.00062e-14 9.00062e-14 9.00062e-14 1.54536e-13 1.54536e-13 1.54536e-13 1.54536e-13 7.16872e-13 7.16872e-13 7.16872e-13 7.16872e-13 2.92912e-13 2.92912e-13 2.92912e-13 2.92912e-13 3.33659e-13 3.33659e-13 3.33659e-13 3.33659e-13 4.28178e-13 4.28178e-13 4.28178e-13 4.28178e-13 7.34329e-13 7.34329e-13 7.34329e-13 7.34329e-13 1.7531e-13 1.7531e-13 1.7531e-13 1.7531e-13 4.78953e-13 4.78953e-13 4.78953e-13 4.78953e-13 4.64976e-13 4.64976e-13 4.64976e-13 4.64976e-13 4.22462e-13 4.22462e-13 4.22462e-13 4.22462e-13 1.55561e-13 1.55561e-13 1.55561e-13 1.55561e-13 4.46138e-13 4.46138e-13 4.46138e-13 4.46138e-13 1.02253e-12 1.02253e-12 1.02253e-12 1.02253e-12 6.93066e-13 6.93066e-13 6.93066e-13 6.93066e-13 6.47365e-13 6.47365e-13 6.47365e-13 6.47365e-13 7.69836e-13 7.69836e-13 7.69836e-13 7.69836e-13 6.97263e-13 6.97263e-13 6.97263e-13 6.97263e-13 2.93722e-13 2.93722e-13 2.93722e-13 2.93722e-13 6.45211e-13 6.45211e-13 6.45211e-13 6.45211e-13 3.91008e-13 3.91008e-13 3.91008e-13 3.91008e-13 3.87496e-13 3.87496e-13 3.87496e-13 3.87496e-13 2.17014e-13 2.17014e-13 2.17014e-13 2.17014e-13 3.86908e-13 3.86908e-13 3.86908e-13 3.86908e-13 9.97004e-08 9.97004e-08 9.97004e-08 9.97004e-08 1.72716e-13 1.72716e-13 1.72716e-13 1.72716e-13 5.98901e-13 5.98901e-13 5.98901e-13 5.98901e-13 1.31472e-12 1.31472e-12 1.31472e-12 1.31472e-12 3.60465e-13 3.60465e-13 3.60465e-13 3.60465e-13 14.9534 14.9534 14.9534 14.9534 2.1239e-13 2.1239e-13 2.1239e-13 2.1239e-13 2.68904e-13 2.68904e-13 2.68904e-13 2.68904e-13 6.18054e-13 6.18054e-13 6.18054e-13 6.18054e-13 1.81982e-13 1.81982e-13 1.81982e-13 1.81982e-13 14.7115 14.7115 14.7115 14.7115 2.57415e-13 2.57415e-13 2.57415e-13 2.57415e-13 2.06063e-13 2.06063e-13 2.06063e-13 2.06063e-13 1.38709e-13 1.38709e-13 1.38709e-13 1.38709e-13 4.1015e-13 4.1015e-13 4.1015e-13 4.1015e-13 11.3433 11.3433 11.3433 11.3433 2.02279e-13 2.02279e-13 2.02279e-13 2.02279e-13 15.1152 15.1152 15.1152 15.1152 11.6948 11.6948 11.6948 11.6948 2.65367e-13 2.65367e-13 2.65367e-13 2.65367e-13 6.3922e-14 6.3922e-14 6.3922e-14 6.3922e-14 5.16692e-13 5.16692e-13 5.16692e-13 5.16692e-13 7.44321e-13 7.44321e-13 7.44321e-13 7.44321e-13 7.5718e-13 7.5718e-13 7.5718e-13 7.5718e-13 6.10652e-13 6.10652e-13 6.10652e-13 6.10652e-13 5.62058e-13 5.62058e-13 5.62058e-13 5.62058e-13 4.38462e-13 4.38462e-13 4.38462e-13 4.38462e-13 7.3023e-13 7.3023e-13 7.3023e-13 7.3023e-13 0.00208466 0.00208466 0.00208466 0.00208466 7.48209 7.48209 7.48209 7.48209 1.34092e-13 1.34092e-13 1.34092e-13 1.34092e-13 9.9958e-05 9.9958e-05 9.9958e-05 9.9958e-05 11.8975 11.8975 11.8975 11.8975 0.00289521 0.00289521 0.00289521 0.00289521 4.97871e-13 4.97871e-13 4.97871e-13 4.97871e-13 7.12831 7.12831 7.12831 7.12831 0.00230835 0.00230835 0.00230835 0.00230835 9.45822e-13 9.45822e-13 9.45822e-13 9.45822e-13 12.0758 12.0758 12.0758 12.0758 5.54013e-08 5.54013e-08 5.54013e-08 5.54013e-08 7.43842 7.43842 7.43842 7.43842 0.000117109 0.000117109 0.000117109 0.000117109 7.81875e-13 7.81875e-13 7.81875e-13 7.81875e-13 4.72781e-13 4.72781e-13 4.72781e-13 4.72781e-13 11.9026 11.9026 11.9026 11.9026 8.53524e-09 8.53524e-09 8.53524e-09 8.53524e-09 7.47942 7.47942 7.47942 7.47942 7.51317 7.51317 7.51317 7.51317 8.48293 8.48293 8.48293 8.48293 1.5691e-13 1.5691e-13 1.5691e-13 1.5691e-13 0.00273418 0.00273418 0.00273418 0.00273418 0.000932429 0.000932429 0.000932429 0.000932429 4.61427e-13 4.61427e-13 4.61427e-13 4.61427e-13 0.000384796 0.000384796 0.000384796 0.000384796 0.000411058 0.000411058 0.000411058 0.000411058 0.00213969 0.00213969 0.00213969 0.00213969 8.64182 8.64182 8.64182 8.64182 8.2961 8.2961 8.2961 8.2961 3.1484e-13 3.1484e-13 3.1484e-13 3.1484e-13 7.28849 7.28849 7.28849 7.28849 7.3572 7.3572 7.3572 7.3572 6.47947e-07 6.47947e-07 6.47947e-07 6.47947e-07 7.47796 7.47796 7.47796 7.47796 0.000805072 0.000805072 0.000805072 0.000805072 8.66897 8.66897 8.66897 8.66897 4.20148e-13 4.20148e-13 4.20148e-13 4.20148e-13 0.000783121 0.000783121 0.000783121 0.000783121 12.6135 12.6135 12.6135 12.6135 0.00199506 0.00199506 0.00199506 0.00199506 12.8592 12.8592 12.8592 12.8592 4.50617e-13 4.50617e-13 4.50617e-13 4.50617e-13 3.76592e-13 3.76592e-13 3.76592e-13 3.76592e-13 3.44507e-13 3.44507e-13 3.44507e-13 3.44507e-13 6.1296e-13 6.1296e-13 6.1296e-13 6.1296e-13 0.00282041 0.00282041 0.00282041 0.00282041 8.56857e-07 8.56857e-07 8.56857e-07 8.56857e-07 0.000515543 0.000515543 0.000515543 0.000515543 7.79011 7.79011 7.79011 7.79011 9.02179 9.02179 9.02179 9.02179 12.385 12.385 12.385 12.385 7.93824 7.93824 7.93824 7.93824 9.17945 9.17945 9.17945 9.17945 8.85921 8.85921 8.85921 8.85921 4.95455e-13 4.95455e-13 4.95455e-13 4.95455e-13 9.03262 9.03262 9.03262 9.03262 6.66673e-07 6.66673e-07 6.66673e-07 6.66673e-07 0.00264649 0.00264649 0.00264649 0.00264649 7.95942 7.95942 7.95942 7.95942 7.81244 7.81244 7.81244 7.81244 0.000876841 0.000876841 0.000876841 0.000876841 8.56711 8.56711 8.56711 8.56711 0.00295903 0.00295903 0.00295903 0.00295903 7.97542 7.97542 7.97542 7.97542 7.97568 7.97568 7.97568 7.97568 0.000766028 0.000766028 0.000766028 0.000766028 8.4793 8.4793 8.4793 8.4793 1.4559e-13 1.4559e-13 1.4559e-13 1.4559e-13 8.49956e-13 8.49956e-13 8.49956e-13 8.49956e-13 4.98957e-13 4.98957e-13 4.98957e-13 4.98957e-13 8.98489e-13 8.98489e-13 8.98489e-13 8.98489e-13 1.2223e-13 1.2223e-13 1.2223e-13 1.2223e-13 1.72424e-13 1.72424e-13 1.72424e-13 1.72424e-13 4.35945e-13 4.35945e-13 4.35945e-13 4.35945e-13 8.63828e-13 8.63828e-13 8.63828e-13 8.63828e-13 8.16838e-13 8.16838e-13 8.16838e-13 8.16838e-13 7.67606e-13 7.67606e-13 7.67606e-13 7.67606e-13 3.62179e-13 3.62179e-13 3.62179e-13 3.62179e-13 5.67145e-13 5.67145e-13 5.67145e-13 5.67145e-13 1.5761e-13 1.5761e-13 1.5761e-13 1.5761e-13 8.46233e-13 8.46233e-13 8.46233e-13 8.46233e-13 1.54597e-13 1.54597e-13 1.54597e-13 1.54597e-13 3.4256e-13 3.4256e-13 3.4256e-13 3.4256e-13 6.02684e-13 6.02684e-13 6.02684e-13 6.02684e-13 2.52863e-13 2.52863e-13 2.52863e-13 2.52863e-13 7.54684e-13 7.54684e-13 7.54684e-13 7.54684e-13 4.99705e-13 4.99705e-13 4.99705e-13 4.99705e-13 2.00713e-12 2.00713e-12 2.00713e-12 2.00713e-12 1.76457e-13 1.76457e-13 1.76457e-13 1.76457e-13 1.51255e-12 1.51255e-12 1.51255e-12 1.51255e-12 9.04234e-14 9.04234e-14 9.04234e-14 9.04234e-14 4.48789e-13 4.48789e-13 4.48789e-13 4.48789e-13 2.55808e-13 2.55808e-13 2.55808e-13 2.55808e-13 4.59134e-13 4.59134e-13 4.59134e-13 4.59134e-13 9.24028e-14 9.24028e-14 9.24028e-14 9.24028e-14 5.63872e-13 5.63872e-13 5.63872e-13 5.63872e-13 4.69033e-13 4.69033e-13 4.69033e-13 4.69033e-13 4.60831e-13 4.60831e-13 4.60831e-13 4.60831e-13 8.16405e-14 8.16405e-14 8.16405e-14 8.16405e-14 7.97034e-13 7.97034e-13 7.97034e-13 7.97034e-13 8.78997e-14 8.78997e-14 8.78997e-14 8.78997e-14 2.28042e-13 2.28042e-13 2.28042e-13 2.28042e-13 9.204e-14 9.204e-14 9.204e-14 9.204e-14 5.09005e-13 5.09005e-13 5.09005e-13 5.09005e-13 1.6119e-13 1.6119e-13 1.6119e-13 1.6119e-13 2.39489e-13 2.39489e-13 2.39489e-13 2.39489e-13 6.90612e-13 6.90612e-13 6.90612e-13 6.90612e-13 8.06279e-13 8.06279e-13 8.06279e-13 8.06279e-13 8.52988 8.52988 8.52988 8.52988 8.95105 8.95105 8.95105 8.95105 8.50448e-14 8.50448e-14 8.50448e-14 8.50448e-14 2.51869e-13 2.51869e-13 2.51869e-13 2.51869e-13 7.1294e-14 7.1294e-14 7.1294e-14 7.1294e-14 1.00747e-13 1.00747e-13 1.00747e-13 1.00747e-13 4.91659e-13 4.91659e-13 4.91659e-13 4.91659e-13 4.20334e-13 4.20334e-13 4.20334e-13 4.20334e-13 4.97533e-13 4.97533e-13 4.97533e-13 4.97533e-13 4.28232e-13 4.28232e-13 4.28232e-13 4.28232e-13 4.30305e-13 4.30305e-13 4.30305e-13 4.30305e-13 4.15874e-13 4.15874e-13 4.15874e-13 4.15874e-13 6.11819e-13 6.11819e-13 6.11819e-13 6.11819e-13 8.64328e-13 8.64328e-13 8.64328e-13 8.64328e-13 1.07159e-12 1.07159e-12 1.07159e-12 1.07159e-12 5.80867e-14 5.80867e-14 5.80867e-14 5.80867e-14 1.17632e-13 1.17632e-13 1.17632e-13 1.17632e-13 7.3277e-13 7.3277e-13 7.3277e-13 7.3277e-13 2.12495e-13 2.12495e-13 2.12495e-13 2.12495e-13 6.5524e-13 6.5524e-13 6.5524e-13 6.5524e-13 1.16878e-12 1.16878e-12 1.16878e-12 1.16878e-12 1.10048e-12 1.10048e-12 1.10048e-12 1.10048e-12 1.01141e-12 1.01141e-12 1.01141e-12 1.01141e-12 1.77856e-13 1.77856e-13 1.77856e-13 1.77856e-13 1.15809e-13 1.15809e-13 1.15809e-13 1.15809e-13 1.05156e-12 1.05156e-12 1.05156e-12 1.05156e-12 1.97061e-12 1.97061e-12 1.97061e-12 1.97061e-12 3.64479e-13 3.64479e-13 3.64479e-13 3.64479e-13 2.60844e-12 2.60844e-12 2.60844e-12 2.60844e-12 4.25711e-13 4.25711e-13 4.25711e-13 4.25711e-13 4.32199e-13 4.32199e-13 4.32199e-13 4.32199e-13 6.43956e-13 6.43956e-13 6.43956e-13 6.43956e-13 4.58193e-13 4.58193e-13 4.58193e-13 4.58193e-13 6.87671e-13 6.87671e-13 6.87671e-13 6.87671e-13 7.81137e-13 7.81137e-13 7.81137e-13 7.81137e-13 5.72403e-13 5.72403e-13 5.72403e-13 5.72403e-13 7.34151e-13 7.34151e-13 7.34151e-13 7.34151e-13 1.66391e-12 1.66391e-12 1.66391e-12 1.66391e-12 8.92216e-13 8.92216e-13 8.92216e-13 8.92216e-13 2.32827e-12 2.32827e-12 2.32827e-12 2.32827e-12 3.49329e-13 3.49329e-13 3.49329e-13 3.49329e-13 1.09228e-13 1.09228e-13 1.09228e-13 1.09228e-13 8.81427e-13 8.81427e-13 8.81427e-13 8.81427e-13 5.78974e-13 5.78974e-13 5.78974e-13 5.78974e-13 4.89684e-13 4.89684e-13 4.89684e-13 4.89684e-13 1.09039e-13 1.09039e-13 1.09039e-13 1.09039e-13 3.31879e-13 3.31879e-13 3.31879e-13 3.31879e-13 1.3172e-12 1.3172e-12 1.3172e-12 1.3172e-12 6.02381e-13 6.02381e-13 6.02381e-13 6.02381e-13 4.86873e-13 4.86873e-13 4.86873e-13 4.86873e-13 1.12849e-13 1.12849e-13 1.12849e-13 1.12849e-13 1.52407e-12 1.52407e-12 1.52407e-12 1.52407e-12 5.53697e-13 5.53697e-13 5.53697e-13 5.53697e-13 1.14826e-12 1.14826e-12 1.14826e-12 1.14826e-12 2.2782e-13 2.2782e-13 2.2782e-13 2.2782e-13 1.74223e-12 1.74223e-12 1.74223e-12 1.74223e-12 9.33756e-13 9.33756e-13 9.33756e-13 9.33756e-13 1.20086e-13 1.20086e-13 1.20086e-13 1.20086e-13 5.36555e-13 5.36555e-13 5.36555e-13 5.36555e-13 2.72617e-12 2.72617e-12 2.72617e-12 2.72617e-12 1.98888e-12 1.98888e-12 1.98888e-12 1.98888e-12 7.79977e-13 7.79977e-13 7.79977e-13 7.79977e-13 1.75202e-12 1.75202e-12 1.75202e-12 1.75202e-12 3.18767e-13 3.18767e-13 3.18767e-13 3.18767e-13 3.66784e-12 3.66784e-12 3.66784e-12 3.66784e-12 2.91567e-13 2.91567e-13 2.91567e-13 2.91567e-13 1.26136e-12 1.26136e-12 1.26136e-12 1.26136e-12 1.47579e-13 1.47579e-13 1.47579e-13 1.47579e-13 2.59408e-13 2.59408e-13 2.59408e-13 2.59408e-13 9.11922e-14 9.11922e-14 9.11922e-14 9.11922e-14 1.42603e-13 1.42603e-13 1.42603e-13 1.42603e-13 2.80969e-13 2.80969e-13 2.80969e-13 2.80969e-13 1.58153e-13 1.58153e-13 1.58153e-13 1.58153e-13 5.59807e-13 5.59807e-13 5.59807e-13 5.59807e-13 1.98854e-13 1.98854e-13 1.98854e-13 1.98854e-13 2.46926e-12 2.46926e-12 2.46926e-12 2.46926e-12 7.07429e-13 7.07429e-13 7.07429e-13 7.07429e-13 2.6401e-13 2.6401e-13 2.6401e-13 2.6401e-13 9.54116e-13 9.54116e-13 9.54116e-13 9.54116e-13 2.21849e-12 2.21849e-12 2.21849e-12 2.21849e-12 7.06564e-14 7.06564e-14 7.06564e-14 7.06564e-14 2.80493e-13 2.80493e-13 2.80493e-13 2.80493e-13 1.35791e-12 1.35791e-12 1.35791e-12 1.35791e-12 3.94345e-13 3.94345e-13 3.94345e-13 3.94345e-13 2.66229e-13 2.66229e-13 2.66229e-13 2.66229e-13 3.88622e-13 3.88622e-13 3.88622e-13 3.88622e-13 3.68249e-13 3.68249e-13 3.68249e-13 3.68249e-13 9.65825e-13 9.65825e-13 9.65825e-13 9.65825e-13 7.19207e-13 7.19207e-13 7.19207e-13 7.19207e-13 8.29267e-14 8.29267e-14 8.29267e-14 8.29267e-14 2.95196e-13 2.95196e-13 2.95196e-13 2.95196e-13 1.91501e-12 1.91501e-12 1.91501e-12 1.91501e-12 3.35089e-12 3.35089e-12 3.35089e-12 3.35089e-12 4.49026e-13 4.49026e-13 4.49026e-13 4.49026e-13 8.13482e-14 8.13482e-14 8.13482e-14 8.13482e-14 8.22577e-13 8.22577e-13 8.22577e-13 8.22577e-13 4.12989e-13 4.12989e-13 4.12989e-13 4.12989e-13 1.062e-12 1.062e-12 1.062e-12 1.062e-12 8.36918e-13 8.36918e-13 8.36918e-13 8.36918e-13 5.84097e-13 5.84097e-13 5.84097e-13 5.84097e-13 1.87298e-12 1.87298e-12 1.87298e-12 1.87298e-12 2.56521e-12 2.56521e-12 2.56521e-12 2.56521e-12 2.59703e-13 2.59703e-13 2.59703e-13 2.59703e-13 6.22104e-13 6.22104e-13 6.22104e-13 6.22104e-13 5.76459e-13 5.76459e-13 5.76459e-13 5.76459e-13 4.57461e-14 4.57461e-14 4.57461e-14 4.57461e-14 5.45171e-13 5.45171e-13 5.45171e-13 5.45171e-13 3.27361e-13 3.27361e-13 3.27361e-13 3.27361e-13 1.08946e-12 1.08946e-12 1.08946e-12 1.08946e-12 9.1968e-13 9.1968e-13 9.1968e-13 9.1968e-13 9.80032e-13 9.80032e-13 9.80032e-13 9.80032e-13 3.47641e-13 3.47641e-13 3.47641e-13 3.47641e-13 7.38103e-13 7.38103e-13 7.38103e-13 7.38103e-13 4.56856e-13 4.56856e-13 4.56856e-13 4.56856e-13 7.39467e-13 7.39467e-13 7.39467e-13 7.39467e-13 6.64503e-13 6.64503e-13 6.64503e-13 6.64503e-13 2.0068e-12 2.0068e-12 2.0068e-12 2.0068e-12 5.33049e-13 5.33049e-13 5.33049e-13 5.33049e-13 2.73352e-12 2.73352e-12 2.73352e-12 2.73352e-12 3.45211e-13 3.45211e-13 3.45211e-13 3.45211e-13 1.11836e-13 1.11836e-13 1.11836e-13 1.11836e-13 1.39321e-12 1.39321e-12 1.39321e-12 1.39321e-12 8.07569e-13 8.07569e-13 8.07569e-13 8.07569e-13 4.00624e-13 4.00624e-13 4.00624e-13 4.00624e-13 5.13605e-13 5.13605e-13 5.13605e-13 5.13605e-13 7.17951e-13 7.17951e-13 7.17951e-13 7.17951e-13 4.2263e-13 4.2263e-13 4.2263e-13 4.2263e-13 1.57465e-13 1.57465e-13 1.57465e-13 1.57465e-13 4.45005e-13 4.45005e-13 4.45005e-13 4.45005e-13 1.05989e-12 1.05989e-12 1.05989e-12 1.05989e-12 5.96543e-13 5.96543e-13 5.96543e-13 5.96543e-13 5.45929e-13 5.45929e-13 5.45929e-13 5.45929e-13 1.3386e-13 1.3386e-13 1.3386e-13 1.3386e-13 1.43618e-12 1.43618e-12 1.43618e-12 1.43618e-12 1.15585e-12 1.15585e-12 1.15585e-12 1.15585e-12 2.05525e-12 2.05525e-12 2.05525e-12 2.05525e-12 3.60379e-14 3.60379e-14 3.60379e-14 3.60379e-14 9.8755e-13 9.8755e-13 9.8755e-13 9.8755e-13 1.84983e-12 1.84983e-12 1.84983e-12 1.84983e-12 2.6759e-13 2.6759e-13 2.6759e-13 2.6759e-13 3.13162e-12 3.13162e-12 3.13162e-12 3.13162e-12 1.87446e-12 1.87446e-12 1.87446e-12 1.87446e-12 2.04145e-13 2.04145e-13 2.04145e-13 2.04145e-13 8.63211e-13 8.63211e-13 8.63211e-13 8.63211e-13 1.63541e-12 1.63541e-12 1.63541e-12 1.63541e-12 7.71228e-13 7.71228e-13 7.71228e-13 7.71228e-13 4.3967e-13 4.3967e-13 4.3967e-13 4.3967e-13 3.9117e-13 3.9117e-13 3.9117e-13 3.9117e-13 3.79403e-14 3.79403e-14 3.79403e-14 3.79403e-14 4.41642e-13 4.41642e-13 4.41642e-13 4.41642e-13 1.07021e-12 1.07021e-12 1.07021e-12 1.07021e-12 1.78751e-12 1.78751e-12 1.78751e-12 1.78751e-12 8.46596e-14 8.46596e-14 8.46596e-14 8.46596e-14 6.99427e-13 6.99427e-13 6.99427e-13 6.99427e-13 3.55722e-13 3.55722e-13 3.55722e-13 3.55722e-13 9.1541e-13 9.1541e-13 9.1541e-13 9.1541e-13 7.10466e-13 7.10466e-13 7.10466e-13 7.10466e-13 1.38971e-12 1.38971e-12 1.38971e-12 1.38971e-12 5.20659e-13 5.20659e-13 5.20659e-13 5.20659e-13 1.30175e-12 1.30175e-12 1.30175e-12 1.30175e-12 5.04215e-13 5.04215e-13 5.04215e-13 5.04215e-13 3.34729e-14 3.34729e-14 3.34729e-14 3.34729e-14 2.09687e-13 2.09687e-13 2.09687e-13 2.09687e-13 1.106e-12 1.106e-12 1.106e-12 1.106e-12 5.41901e-13 5.41901e-13 5.41901e-13 5.41901e-13 4.05726e-13 4.05726e-13 4.05726e-13 4.05726e-13 1.47606e-12 1.47606e-12 1.47606e-12 1.47606e-12 5.61478e-13 5.61478e-13 5.61478e-13 5.61478e-13 3.60235e-13 3.60235e-13 3.60235e-13 3.60235e-13 2.39884e-13 2.39884e-13 2.39884e-13 2.39884e-13 1.91759e-13 1.91759e-13 1.91759e-13 1.91759e-13 9.55513e-13 9.55513e-13 9.55513e-13 9.55513e-13 5.48101e-13 5.48101e-13 5.48101e-13 5.48101e-13 4.52499e-13 4.52499e-13 4.52499e-13 4.52499e-13 2.90116e-13 2.90116e-13 2.90116e-13 2.90116e-13 1.38644e-12 1.38644e-12 1.38644e-12 1.38644e-12 1.73383e-12 1.73383e-12 1.73383e-12 1.73383e-12 4.94103e-13 4.94103e-13 4.94103e-13 4.94103e-13 2.46805e-13 2.46805e-13 2.46805e-13 2.46805e-13 2.19829e-13 2.19829e-13 2.19829e-13 2.19829e-13 3.41325e-13 3.41325e-13 3.41325e-13 3.41325e-13 3.83455e-13 3.83455e-13 3.83455e-13 3.83455e-13 2.54674e-12 2.54674e-12 2.54674e-12 2.54674e-12 3.32873e-13 3.32873e-13 3.32873e-13 3.32873e-13 2.94105e-13 2.94105e-13 2.94105e-13 2.94105e-13 1.0648e-12 1.0648e-12 1.0648e-12 1.0648e-12 2.28319e-12 2.28319e-12 2.28319e-12 2.28319e-12 6.61796e-13 6.61796e-13 6.61796e-13 6.61796e-13 6.79015e-13 6.79015e-13 6.79015e-13 6.79015e-13 8.38767e-14 8.38767e-14 8.38767e-14 8.38767e-14 1.52386e-13 1.52386e-13 1.52386e-13 1.52386e-13 8.83249e-14 8.83249e-14 8.83249e-14 8.83249e-14 1.60874e-12 1.60874e-12 1.60874e-12 1.60874e-12 7.06745e-13 7.06745e-13 7.06745e-13 7.06745e-13 2.57053e-13 2.57053e-13 2.57053e-13 2.57053e-13 1.54496e-12 1.54496e-12 1.54496e-12 1.54496e-12 5.44748e-13 5.44748e-13 5.44748e-13 5.44748e-13 2.04014e-12 2.04014e-12 2.04014e-12 2.04014e-12 2.81915e-13 2.81915e-13 2.81915e-13 2.81915e-13 7.29534e-13 7.29534e-13 7.29534e-13 7.29534e-13 1.43508e-13 1.43508e-13 1.43508e-13 1.43508e-13 1.03001e-12 1.03001e-12 1.03001e-12 1.03001e-12 6.85905e-13 6.85905e-13 6.85905e-13 6.85905e-13 1.58306e-12 1.58306e-12 1.58306e-12 1.58306e-12 7.27374e-13 7.27374e-13 7.27374e-13 7.27374e-13 5.79038e-13 5.79038e-13 5.79038e-13 5.79038e-13 7.5383e-13 7.5383e-13 7.5383e-13 7.5383e-13 6.03548e-13 6.03548e-13 6.03548e-13 6.03548e-13 2.53961e-13 2.53961e-13 2.53961e-13 2.53961e-13 7.60995e-13 7.60995e-13 7.60995e-13 7.60995e-13 8.52157e-13 8.52157e-13 8.52157e-13 8.52157e-13 1.83338e-13 1.83338e-13 1.83338e-13 1.83338e-13 6.26858e-13 6.26858e-13 6.26858e-13 6.26858e-13 1.7341e-12 1.7341e-12 1.7341e-12 1.7341e-12 2.20938e-13 2.20938e-13 2.20938e-13 2.20938e-13 4.08704e-13 4.08704e-13 4.08704e-13 4.08704e-13 2.59158e-13 2.59158e-13 2.59158e-13 2.59158e-13 1.42255e-12 1.42255e-12 1.42255e-12 1.42255e-12 3.85045e-13 3.85045e-13 3.85045e-13 3.85045e-13 6.57964e-13 6.57964e-13 6.57964e-13 6.57964e-13 3.3016e-13 3.3016e-13 3.3016e-13 3.3016e-13 4.97041e-13 4.97041e-13 4.97041e-13 4.97041e-13 1.34612e-12 1.34612e-12 1.34612e-12 1.34612e-12 1.06337e-12 1.06337e-12 1.06337e-12 1.06337e-12 2.09392e-13 2.09392e-13 2.09392e-13 2.09392e-13 3.8288e-13 3.8288e-13 3.8288e-13 3.8288e-13 4.7537e-13 4.7537e-13 4.7537e-13 4.7537e-13 5.01873e-13 5.01873e-13 5.01873e-13 5.01873e-13 7.42113e-13 7.42113e-13 7.42113e-13 7.42113e-13 1.32789e-12 1.32789e-12 1.32789e-12 1.32789e-12 1.74655e-13 1.74655e-13 1.74655e-13 1.74655e-13 1.877e-12 1.877e-12 1.877e-12 1.877e-12 4.35166e-13 4.35166e-13 4.35166e-13 4.35166e-13 5.08858e-13 5.08858e-13 5.08858e-13 5.08858e-13 2.58922e-12 2.58922e-12 2.58922e-12 2.58922e-12 4.17319e-13 4.17319e-13 4.17319e-13 4.17319e-13 7.48609e-13 7.48609e-13 7.48609e-13 7.48609e-13 2.89086e-13 2.89086e-13 2.89086e-13 2.89086e-13 7.69285e-13 7.69285e-13 7.69285e-13 7.69285e-13 1.73165e-12 1.73165e-12 1.73165e-12 1.73165e-12 1.72673e-12 1.72673e-12 1.72673e-12 1.72673e-12 3.48343e-13 3.48343e-13 3.48343e-13 3.48343e-13 7.81525e-13 7.81525e-13 7.81525e-13 7.81525e-13 6.94333e-13 6.94333e-13 6.94333e-13 6.94333e-13 2.65719e-13 2.65719e-13 2.65719e-13 2.65719e-13 3.42424e-13 3.42424e-13 3.42424e-13 3.42424e-13 5.60501e-13 5.60501e-13 5.60501e-13 5.60501e-13 1.77194e-12 1.77194e-12 1.77194e-12 1.77194e-12 4.814e-13 4.814e-13 4.814e-13 4.814e-13 1.07349e-12 1.07349e-12 1.07349e-12 1.07349e-12 4.14341e-13 4.14341e-13 4.14341e-13 4.14341e-13 1.38777e-13 1.38777e-13 1.38777e-13 1.38777e-13 1.68026e-12 1.68026e-12 1.68026e-12 1.68026e-12 2.42863e-13 2.42863e-13 2.42863e-13 2.42863e-13 1.00457e-13 1.00457e-13 1.00457e-13 1.00457e-13 1.34621e-13 1.34621e-13 1.34621e-13 1.34621e-13 2.36792e-13 2.36792e-13 2.36792e-13 2.36792e-13 6.74599e-13 6.74599e-13 6.74599e-13 6.74599e-13 4.47309e-13 4.47309e-13 4.47309e-13 4.47309e-13 1.0813e-14 1.0813e-14 1.0813e-14 1.0813e-14 1.32438e-12 1.32438e-12 1.32438e-12 1.32438e-12 1.15767e-12 1.15767e-12 1.15767e-12 1.15767e-12 2.07752e-12 2.07752e-12 2.07752e-12 2.07752e-12 5.20618e-14 5.20618e-14 5.20618e-14 5.20618e-14 1.1452e-13 1.1452e-13 1.1452e-13 1.1452e-13 8.82887e-13 8.82887e-13 8.82887e-13 8.82887e-13 4.69144e-13 4.69144e-13 4.69144e-13 4.69144e-13 9.30297e-13 9.30297e-13 9.30297e-13 9.30297e-13 2.96598e-13 2.96598e-13 2.96598e-13 2.96598e-13 7.69808e-13 7.69808e-13 7.69808e-13 7.69808e-13 1.52596e-13 1.52596e-13 1.52596e-13 1.52596e-13 5.98023e-13 5.98023e-13 5.98023e-13 5.98023e-13 8.42595e-13 8.42595e-13 8.42595e-13 8.42595e-13 1.57878e-12 1.57878e-12 1.57878e-12 1.57878e-12 3.52178e-13 3.52178e-13 3.52178e-13 3.52178e-13 2.8768e-13 2.8768e-13 2.8768e-13 2.8768e-13 6.33642e-13 6.33642e-13 6.33642e-13 6.33642e-13 1.42044e-12 1.42044e-12 1.42044e-12 1.42044e-12 1.88333e-13 1.88333e-13 1.88333e-13 1.88333e-13 2.81694e-13 2.81694e-13 2.81694e-13 2.81694e-13 8.39442e-13 8.39442e-13 8.39442e-13 8.39442e-13 2.45039e-13 2.45039e-13 2.45039e-13 2.45039e-13 8.84964e-13 8.84964e-13 8.84964e-13 8.84964e-13 1.4007e-13 1.4007e-13 1.4007e-13 1.4007e-13 7.19726e-13 7.19726e-13 7.19726e-13 7.19726e-13 1.00482e-12 1.00482e-12 1.00482e-12 1.00482e-12 6.68825e-13 6.68825e-13 6.68825e-13 6.68825e-13 2.00677e-13 2.00677e-13 2.00677e-13 2.00677e-13 2.37066e-13 2.37066e-13 2.37066e-13 2.37066e-13 3.68754e-13 3.68754e-13 3.68754e-13 3.68754e-13 7.86936e-13 7.86936e-13 7.86936e-13 7.86936e-13 4.39141e-13 4.39141e-13 4.39141e-13 4.39141e-13 4.47811e-13 4.47811e-13 4.47811e-13 4.47811e-13 4.0082e-13 4.0082e-13 4.0082e-13 4.0082e-13 3.70439e-13 3.70439e-13 3.70439e-13 3.70439e-13 6.28089e-13 6.28089e-13 6.28089e-13 6.28089e-13 6.23994e-13 6.23994e-13 6.23994e-13 6.23994e-13 1.02845e-12 1.02845e-12 1.02845e-12 1.02845e-12 5.79219e-13 5.79219e-13 5.79219e-13 5.79219e-13 2.22558e-13 2.22558e-13 2.22558e-13 2.22558e-13 3.02533e-13 3.02533e-13 3.02533e-13 3.02533e-13 8.85616e-14 8.85616e-14 8.85616e-14 8.85616e-14 2.19285e-13 2.19285e-13 2.19285e-13 2.19285e-13 1.29976e-13 1.29976e-13 1.29976e-13 1.29976e-13 1.14467e-12 1.14467e-12 1.14467e-12 1.14467e-12 5.3622e-13 5.3622e-13 5.3622e-13 5.3622e-13 2.04433e-13 2.04433e-13 2.04433e-13 2.04433e-13 1.20928e-12 1.20928e-12 1.20928e-12 1.20928e-12 5.10125e-13 5.10125e-13 5.10125e-13 5.10125e-13 1.10871e-12 1.10871e-12 1.10871e-12 1.10871e-12 2.75767e-13 2.75767e-13 2.75767e-13 2.75767e-13 8.75868e-13 8.75868e-13 8.75868e-13 8.75868e-13 7.22475e-14 7.22475e-14 7.22475e-14 7.22475e-14 4.2615e-13 4.2615e-13 4.2615e-13 4.2615e-13 1.46408e-12 1.46408e-12 1.46408e-12 1.46408e-12 5.96132e-13 5.96132e-13 5.96132e-13 5.96132e-13 3.09326e-13 3.09326e-13 3.09326e-13 3.09326e-13 1.76438e-12 1.76438e-12 1.76438e-12 1.76438e-12 1.43687e-12 1.43687e-12 1.43687e-12 1.43687e-12 2.97593e-13 2.97593e-13 2.97593e-13 2.97593e-13 2.22869e-13 2.22869e-13 2.22869e-13 2.22869e-13 6.40055e-14 6.40055e-14 6.40055e-14 6.40055e-14 1.6918e-13 1.6918e-13 1.6918e-13 1.6918e-13 5.5408e-13 5.5408e-13 5.5408e-13 5.5408e-13 6.30996e-13 6.30996e-13 6.30996e-13 6.30996e-13 2.51256e-13 2.51256e-13 2.51256e-13 2.51256e-13 9.53043e-13 9.53043e-13 9.53043e-13 9.53043e-13 5.14531e-13 5.14531e-13 5.14531e-13 5.14531e-13 5.47112e-13 5.47112e-13 5.47112e-13 5.47112e-13 7.93446e-13 7.93446e-13 7.93446e-13 7.93446e-13 3.12305e-13 3.12305e-13 3.12305e-13 3.12305e-13 9.43331e-13 9.43331e-13 9.43331e-13 9.43331e-13 1.09708e-12 1.09708e-12 1.09708e-12 1.09708e-12 2.37443e-12 2.37443e-12 2.37443e-12 2.37443e-12 1.37275e-12 1.37275e-12 1.37275e-12 1.37275e-12 8.73274e-13 8.73274e-13 8.73274e-13 8.73274e-13 2.54811e-13 2.54811e-13 2.54811e-13 2.54811e-13 9.36282e-13 9.36282e-13 9.36282e-13 9.36282e-13 8.36108e-13 8.36108e-13 8.36108e-13 8.36108e-13 1.99851e-13 1.99851e-13 1.99851e-13 1.99851e-13 6.48838e-14 6.48838e-14 6.48838e-14 6.48838e-14 2.09506e-12 2.09506e-12 2.09506e-12 2.09506e-12 2.08337e-13 2.08337e-13 2.08337e-13 2.08337e-13 2.10898e-13 2.10898e-13 2.10898e-13 2.10898e-13 2.73216e-13 2.73216e-13 2.73216e-13 2.73216e-13 4.12302e-14 4.12302e-14 4.12302e-14 4.12302e-14 1.53985e-13 1.53985e-13 1.53985e-13 1.53985e-13 9.13048e-14 9.13048e-14 9.13048e-14 9.13048e-14 7.69565e-13 7.69565e-13 7.69565e-13 7.69565e-13 1.12321e-12 1.12321e-12 1.12321e-12 1.12321e-12 5.52682e-13 5.52682e-13 5.52682e-13 5.52682e-13 1.36787e-12 1.36787e-12 1.36787e-12 1.36787e-12 2.16355e-12 2.16355e-12 2.16355e-12 2.16355e-12 4.6011e-14 4.6011e-14 4.6011e-14 4.6011e-14 5.96868e-14 5.96868e-14 5.96868e-14 5.96868e-14 8.27852e-13 8.27852e-13 8.27852e-13 8.27852e-13 8.95657e-14 8.95657e-14 8.95657e-14 8.95657e-14 3.0197e-13 3.0197e-13 3.0197e-13 3.0197e-13 2.2311e-13 2.2311e-13 2.2311e-13 2.2311e-13 3.40812e-13 3.40812e-13 3.40812e-13 3.40812e-13 1.88554e-13 1.88554e-13 1.88554e-13 1.88554e-13 2.14019e-13 2.14019e-13 2.14019e-13 2.14019e-13 1.78318e-13 1.78318e-13 1.78318e-13 1.78318e-13 4.49017e-13 4.49017e-13 4.49017e-13 4.49017e-13 1.86483e-12 1.86483e-12 1.86483e-12 1.86483e-12 4.74837e-13 4.74837e-13 4.74837e-13 4.74837e-13 8.52435e-13 8.52435e-13 8.52435e-13 8.52435e-13 2.4202e-12 2.4202e-12 2.4202e-12 2.4202e-12 8.92476e-13 8.92476e-13 8.92476e-13 8.92476e-13 1.4962e-13 1.4962e-13 1.4962e-13 1.4962e-13 1.20884e-12 1.20884e-12 1.20884e-12 1.20884e-12 1.14963e-12 1.14963e-12 1.14963e-12 1.14963e-12 6.26521e-13 6.26521e-13 6.26521e-13 6.26521e-13 3.4208e-13 3.4208e-13 3.4208e-13 3.4208e-13 2.0243e-13 2.0243e-13 2.0243e-13 2.0243e-13 6.33505e-13 6.33505e-13 6.33505e-13 6.33505e-13 5.37034e-13 5.37034e-13 5.37034e-13 5.37034e-13 1.35877e-12 1.35877e-12 1.35877e-12 1.35877e-12 8.30544e-13 8.30544e-13 8.30544e-13 8.30544e-13 4.37942e-13 4.37942e-13 4.37942e-13 4.37942e-13 9.443e-14 9.443e-14 9.443e-14 9.443e-14 1.29889e-12 1.29889e-12 1.29889e-12 1.29889e-12 1.07574e-12 1.07574e-12 1.07574e-12 1.07574e-12 3.71012e-13 3.71012e-13 3.71012e-13 3.71012e-13 6.31735e-13 6.31735e-13 6.31735e-13 6.31735e-13 1.13731e-12 1.13731e-12 1.13731e-12 1.13731e-12 3.27553e-13 3.27553e-13 3.27553e-13 3.27553e-13 7.54347e-13 7.54347e-13 7.54347e-13 7.54347e-13 3.00799e-13 3.00799e-13 3.00799e-13 3.00799e-13 2.31356e-13 2.31356e-13 2.31356e-13 2.31356e-13 4.81258e-13 4.81258e-13 4.81258e-13 4.81258e-13 7.68064e-13 7.68064e-13 7.68064e-13 7.68064e-13 3.38002e-13 3.38002e-13 3.38002e-13 3.38002e-13 2.01061e-12 2.01061e-12 2.01061e-12 2.01061e-12 5.82481e-13 5.82481e-13 5.82481e-13 5.82481e-13 1.96383e-12 1.96383e-12 1.96383e-12 1.96383e-12 6.91622e-13 6.91622e-13 6.91622e-13 6.91622e-13 7.68915e-14 7.68915e-14 7.68915e-14 7.68915e-14 5.39118e-13 5.39118e-13 5.39118e-13 5.39118e-13 9.32792e-13 9.32792e-13 9.32792e-13 9.32792e-13 1.50884e-12 1.50884e-12 1.50884e-12 1.50884e-12 1.86097e-13 1.86097e-13 1.86097e-13 1.86097e-13 7.23213e-13 7.23213e-13 7.23213e-13 7.23213e-13 1.41294e-13 1.41294e-13 1.41294e-13 1.41294e-13 1.95099e-13 1.95099e-13 1.95099e-13 1.95099e-13 4.5677e-13 4.5677e-13 4.5677e-13 4.5677e-13 2.20928e-14 2.20928e-14 2.20928e-14 2.20928e-14 5.2329e-13 5.2329e-13 5.2329e-13 5.2329e-13 3.97287e-13 3.97287e-13 3.97287e-13 3.97287e-13 8.0869e-13 8.0869e-13 8.0869e-13 8.0869e-13 8.03754e-13 8.03754e-13 8.03754e-13 8.03754e-13 3.92565e-13 3.92565e-13 3.92565e-13 3.92565e-13 5.38518e-13 5.38518e-13 5.38518e-13 5.38518e-13 2.36405e-12 2.36405e-12 2.36405e-12 2.36405e-12 1.25826e-12 1.25826e-12 1.25826e-12 1.25826e-12 8.13846e-14 8.13846e-14 8.13846e-14 8.13846e-14 3.02618e-13 3.02618e-13 3.02618e-13 3.02618e-13 6.08131e-13 6.08131e-13 6.08131e-13 6.08131e-13 1.33633e-12 1.33633e-12 1.33633e-12 1.33633e-12 4.50187e-13 4.50187e-13 4.50187e-13 4.50187e-13 2.86957e-13 2.86957e-13 2.86957e-13 2.86957e-13 9.93904e-13 9.93904e-13 9.93904e-13 9.93904e-13 9.416e-13 9.416e-13 9.416e-13 9.416e-13 2.15414e-13 2.15414e-13 2.15414e-13 2.15414e-13 8.37127e-13 8.37127e-13 8.37127e-13 8.37127e-13 9.05183e-13 9.05183e-13 9.05183e-13 9.05183e-13 6.86661e-13 6.86661e-13 6.86661e-13 6.86661e-13 7.58338e-13 7.58338e-13 7.58338e-13 7.58338e-13 6.55405e-13 6.55405e-13 6.55405e-13 6.55405e-13 6.10188e-13 6.10188e-13 6.10188e-13 6.10188e-13 1.28864e-13 1.28864e-13 1.28864e-13 1.28864e-13 6.14834e-13 6.14834e-13 6.14834e-13 6.14834e-13 7.9529e-13 7.9529e-13 7.9529e-13 7.9529e-13 1.1289e-12 1.1289e-12 1.1289e-12 1.1289e-12 5.5613e-13 5.5613e-13 5.5613e-13 5.5613e-13 6.30251e-13 6.30251e-13 6.30251e-13 6.30251e-13 2.72367e-13 2.72367e-13 2.72367e-13 2.72367e-13 7.57617e-13 7.57617e-13 7.57617e-13 7.57617e-13 1.06375e-13 1.06375e-13 1.06375e-13 1.06375e-13 1.36362e-12 1.36362e-12 1.36362e-12 1.36362e-12 8.00241e-13 8.00241e-13 8.00241e-13 8.00241e-13 7.88744e-13 7.88744e-13 7.88744e-13 7.88744e-13 7.17914e-13 7.17914e-13 7.17914e-13 7.17914e-13 4.36527e-13 4.36527e-13 4.36527e-13 4.36527e-13 2.82166e-13 2.82166e-13 2.82166e-13 2.82166e-13 1.21246e-12 1.21246e-12 1.21246e-12 1.21246e-12 4.98474e-13 4.98474e-13 4.98474e-13 4.98474e-13 6.52618e-13 6.52618e-13 6.52618e-13 6.52618e-13 1.11547e-12 1.11547e-12 1.11547e-12 1.11547e-12 8.06915e-13 8.06915e-13 8.06915e-13 8.06915e-13 9.03955e-13 9.03955e-13 9.03955e-13 9.03955e-13 6.86454e-15 6.86454e-15 6.86454e-15 6.86454e-15 9.7571e-14 9.7571e-14 9.7571e-14 9.7571e-14 1.35545e-12 1.35545e-12 1.35545e-12 1.35545e-12 1.37583e-12 1.37583e-12 1.37583e-12 1.37583e-12 1.21016e-13 1.21016e-13 1.21016e-13 1.21016e-13 4.28081e-13 4.28081e-13 4.28081e-13 4.28081e-13 1.1704e-13 1.1704e-13 1.1704e-13 1.1704e-13 4.90158e-13 4.90158e-13 4.90158e-13 4.90158e-13 4.40899e-13 4.40899e-13 4.40899e-13 4.40899e-13 1.1707e-12 1.1707e-12 1.1707e-12 1.1707e-12 8.40886e-13 8.40886e-13 8.40886e-13 8.40886e-13 7.96476e-13 7.96476e-13 7.96476e-13 7.96476e-13 7.37249e-13 7.37249e-13 7.37249e-13 7.37249e-13 4.93351e-13 4.93351e-13 4.93351e-13 4.93351e-13 1.06364e-13 1.06364e-13 1.06364e-13 1.06364e-13 3.07324e-13 3.07324e-13 3.07324e-13 3.07324e-13 1.42451e-13 1.42451e-13 1.42451e-13 1.42451e-13 1.93648e-13 1.93648e-13 1.93648e-13 1.93648e-13 9.10557e-13 9.10557e-13 9.10557e-13 9.10557e-13 1.33634e-12 1.33634e-12 1.33634e-12 1.33634e-12 1.48865e-12 1.48865e-12 1.48865e-12 1.48865e-12 6.89169e-14 6.89169e-14 6.89169e-14 6.89169e-14 1.42674e-13 1.42674e-13 1.42674e-13 1.42674e-13 9.33519e-13 9.33519e-13 9.33519e-13 9.33519e-13 8.96782e-13 8.96782e-13 8.96782e-13 8.96782e-13 1.29772e-13 1.29772e-13 1.29772e-13 1.29772e-13 8.91423e-14 8.91423e-14 8.91423e-14 8.91423e-14 1.30321e-14 1.30321e-14 1.30321e-14 1.30321e-14 4.83148e-13 4.83148e-13 4.83148e-13 4.83148e-13 1.00263e-12 1.00263e-12 1.00263e-12 1.00263e-12 6.69151e-13 6.69151e-13 6.69151e-13 6.69151e-13 4.44776e-13 4.44776e-13 4.44776e-13 4.44776e-13 1.20491e-12 1.20491e-12 1.20491e-12 1.20491e-12 1.33466e-12 1.33466e-12 1.33466e-12 1.33466e-12 4.86623e-13 4.86623e-13 4.86623e-13 4.86623e-13 2.61717e-13 2.61717e-13 2.61717e-13 2.61717e-13 4.24902e-13 4.24902e-13 4.24902e-13 4.24902e-13 6.38552e-13 6.38552e-13 6.38552e-13 6.38552e-13 7.58347e-13 7.58347e-13 7.58347e-13 7.58347e-13 2.61513e-13 2.61513e-13 2.61513e-13 2.61513e-13 1.87938e-13 1.87938e-13 1.87938e-13 1.87938e-13 8.83798e-13 8.83798e-13 8.83798e-13 8.83798e-13 1.289e-12 1.289e-12 1.289e-12 1.289e-12 7.83883e-13 7.83883e-13 7.83883e-13 7.83883e-13 1.85705e-13 1.85705e-13 1.85705e-13 1.85705e-13 9.84544e-14 9.84544e-14 9.84544e-14 9.84544e-14 8.82614e-13 8.82614e-13 8.82614e-13 8.82614e-13 1.01235e-12 1.01235e-12 1.01235e-12 1.01235e-12 1.12664e-12 1.12664e-12 1.12664e-12 1.12664e-12 1.75085e-12 1.75085e-12 1.75085e-12 1.75085e-12 3.38005e-13 3.38005e-13 3.38005e-13 3.38005e-13 4.89154e-13 4.89154e-13 4.89154e-13 4.89154e-13 1.03269e-12 1.03269e-12 1.03269e-12 1.03269e-12 1.17222e-12 1.17222e-12 1.17222e-12 1.17222e-12 5.70629e-13 5.70629e-13 5.70629e-13 5.70629e-13 5.59416e-13 5.59416e-13 5.59416e-13 5.59416e-13 1.467e-12 1.467e-12 1.467e-12 1.467e-12 1.26201e-13 1.26201e-13 1.26201e-13 1.26201e-13 9.13583e-13 9.13583e-13 9.13583e-13 9.13583e-13 4.08422e-13 4.08422e-13 4.08422e-13 4.08422e-13 1.21831e-13 1.21831e-13 1.21831e-13 1.21831e-13 1.08729e-12 1.08729e-12 1.08729e-12 1.08729e-12 4.69554e-13 4.69554e-13 4.69554e-13 4.69554e-13 3.4908e-13 3.4908e-13 3.4908e-13 3.4908e-13 5.27807e-13 5.27807e-13 5.27807e-13 5.27807e-13 3.16973e-13 3.16973e-13 3.16973e-13 3.16973e-13 3.21825e-13 3.21825e-13 3.21825e-13 3.21825e-13 3.87759e-13 3.87759e-13 3.87759e-13 3.87759e-13 4.42308e-13 4.42308e-13 4.42308e-13 4.42308e-13 4.64508e-13 4.64508e-13 4.64508e-13 4.64508e-13 1.07765e-12 1.07765e-12 1.07765e-12 1.07765e-12 6.02941e-13 6.02941e-13 6.02941e-13 6.02941e-13 4.84953e-13 4.84953e-13 4.84953e-13 4.84953e-13 4.57189e-13 4.57189e-13 4.57189e-13 4.57189e-13 4.75185e-13 4.75185e-13 4.75185e-13 4.75185e-13 5.78889e-13 5.78889e-13 5.78889e-13 5.78889e-13 6.76732e-13 6.76732e-13 6.76732e-13 6.76732e-13 2.84833e-13 2.84833e-13 2.84833e-13 2.84833e-13 1.48807e-12 1.48807e-12 1.48807e-12 1.48807e-12 1.2035e-12 1.2035e-12 1.2035e-12 1.2035e-12 1.00655e-13 1.00655e-13 1.00655e-13 1.00655e-13 9.17417e-13 9.17417e-13 9.17417e-13 9.17417e-13 2.49921e-13 2.49921e-13 2.49921e-13 2.49921e-13 4.90285e-13 4.90285e-13 4.90285e-13 4.90285e-13 1.84564e-13 1.84564e-13 1.84564e-13 1.84564e-13 1.08663e-12 1.08663e-12 1.08663e-12 1.08663e-12 9.26168e-13 9.26168e-13 9.26168e-13 9.26168e-13 3.31179e-13 3.31179e-13 3.31179e-13 3.31179e-13 1.37586e-12 1.37586e-12 1.37586e-12 1.37586e-12 9.42434e-13 9.42434e-13 9.42434e-13 9.42434e-13 1.42648e-12 1.42648e-12 1.42648e-12 1.42648e-12 4.65574e-13 4.65574e-13 4.65574e-13 4.65574e-13 1.31741e-13 1.31741e-13 1.31741e-13 1.31741e-13 2.63293e-13 2.63293e-13 2.63293e-13 2.63293e-13 7.80517e-13 7.80517e-13 7.80517e-13 7.80517e-13 1.89236e-12 1.89236e-12 1.89236e-12 1.89236e-12 2.0858e-13 2.0858e-13 2.0858e-13 2.0858e-13 5.28252e-13 5.28252e-13 5.28252e-13 5.28252e-13 8.61514e-13 8.61514e-13 8.61514e-13 8.61514e-13 2.64349e-13 2.64349e-13 2.64349e-13 2.64349e-13 6.60108e-13 6.60108e-13 6.60108e-13 6.60108e-13 1.17865e-13 1.17865e-13 1.17865e-13 1.17865e-13 2.47253e-13 2.47253e-13 2.47253e-13 2.47253e-13 5.0746e-13 5.0746e-13 5.0746e-13 5.0746e-13 1.59285e-12 1.59285e-12 1.59285e-12 1.59285e-12 2.01153e-13 2.01153e-13 2.01153e-13 2.01153e-13 8.92104e-13 8.92104e-13 8.92104e-13 8.92104e-13 1.45908e-12 1.45908e-12 1.45908e-12 1.45908e-12 5.68967e-13 5.68967e-13 5.68967e-13 5.68967e-13 8.42051e-13 8.42051e-13 8.42051e-13 8.42051e-13 6.09863e-13 6.09863e-13 6.09863e-13 6.09863e-13 3.09453e-13 3.09453e-13 3.09453e-13 3.09453e-13 6.18196e-13 6.18196e-13 6.18196e-13 6.18196e-13 6.74122e-13 6.74122e-13 6.74122e-13 6.74122e-13 3.56135e-13 3.56135e-13 3.56135e-13 3.56135e-13 8.10776e-13 8.10776e-13 8.10776e-13 8.10776e-13 3.70573e-13 3.70573e-13 3.70573e-13 3.70573e-13 1.52851e-13 1.52851e-13 1.52851e-13 1.52851e-13 5.65386e-13 5.65386e-13 5.65386e-13 5.65386e-13 3.29028e-13 3.29028e-13 3.29028e-13 3.29028e-13 5.52044e-13 5.52044e-13 5.52044e-13 5.52044e-13 0.000170931 0.000170931 0.000170931 0.000170931 5.73261e-13 5.73261e-13 5.73261e-13 5.73261e-13 2.00373e-13 2.00373e-13 2.00373e-13 2.00373e-13 8.4008e-13 8.4008e-13 8.4008e-13 8.4008e-13 3.75977e-13 3.75977e-13 3.75977e-13 3.75977e-13 6.36887e-13 6.36887e-13 6.36887e-13 6.36887e-13 4.18611e-13 4.18611e-13 4.18611e-13 4.18611e-13 2.25329e-13 2.25329e-13 2.25329e-13 2.25329e-13 9.72502e-13 9.72502e-13 9.72502e-13 9.72502e-13 1.12521e-12 1.12521e-12 1.12521e-12 1.12521e-12 3.9893e-14 3.9893e-14 3.9893e-14 3.9893e-14 8.51286e-13 8.51286e-13 8.51286e-13 8.51286e-13 1.59257e-12 1.59257e-12 1.59257e-12 1.59257e-12 2.72546e-13 2.72546e-13 2.72546e-13 2.72546e-13 0.000171696 0.000171696 0.000171696 0.000171696 9.67019e-13 9.67019e-13 9.67019e-13 9.67019e-13 2.9379e-13 2.9379e-13 2.9379e-13 2.9379e-13 2.17702e-13 2.17702e-13 2.17702e-13 2.17702e-13 9.85189e-13 9.85189e-13 9.85189e-13 9.85189e-13 1.52751e-12 1.52751e-12 1.52751e-12 1.52751e-12 1.07959e-12 1.07959e-12 1.07959e-12 1.07959e-12 6.8366e-13 6.8366e-13 6.8366e-13 6.8366e-13 3.42008e-13 3.42008e-13 3.42008e-13 3.42008e-13 1.66771e-12 1.66771e-12 1.66771e-12 1.66771e-12 8.42925e-13 8.42925e-13 8.42925e-13 8.42925e-13 5.77285e-13 5.77285e-13 5.77285e-13 5.77285e-13 3.08558e-12 3.08558e-12 3.08558e-12 3.08558e-12 1.46928e-12 1.46928e-12 1.46928e-12 1.46928e-12 6.27236e-13 6.27236e-13 6.27236e-13 6.27236e-13 1.22933e-12 1.22933e-12 1.22933e-12 1.22933e-12 5.32095e-13 5.32095e-13 5.32095e-13 5.32095e-13 7.40478e-13 7.40478e-13 7.40478e-13 7.40478e-13 2.02053e-13 2.02053e-13 2.02053e-13 2.02053e-13 1.18147e-12 1.18147e-12 1.18147e-12 1.18147e-12 6.36303e-13 6.36303e-13 6.36303e-13 6.36303e-13 1.15015e-12 1.15015e-12 1.15015e-12 1.15015e-12 3.77333e-13 3.77333e-13 3.77333e-13 3.77333e-13 1.7012e-12 1.7012e-12 1.7012e-12 1.7012e-12 8.03117e-13 8.03117e-13 8.03117e-13 8.03117e-13 2.38788e-13 2.38788e-13 2.38788e-13 2.38788e-13 7.24479e-13 7.24479e-13 7.24479e-13 7.24479e-13 1.00093e-13 1.00093e-13 1.00093e-13 1.00093e-13 5.16149e-13 5.16149e-13 5.16149e-13 5.16149e-13 5.04969e-13 5.04969e-13 5.04969e-13 5.04969e-13 1.01866e-12 1.01866e-12 1.01866e-12 1.01866e-12 5.96083e-13 5.96083e-13 5.96083e-13 5.96083e-13 9.35413e-07 9.35413e-07 9.35413e-07 9.35413e-07 5.68746e-13 5.68746e-13 5.68746e-13 5.68746e-13 1.5177e-12 1.5177e-12 1.5177e-12 1.5177e-12 1.71588e-13 1.71588e-13 1.71588e-13 1.71588e-13 4.5744e-13 4.5744e-13 4.5744e-13 4.5744e-13 8.42616e-13 8.42616e-13 8.42616e-13 8.42616e-13 7.85366e-13 7.85366e-13 7.85366e-13 7.85366e-13 4.88596e-13 4.88596e-13 4.88596e-13 4.88596e-13 2.6168e-13 2.6168e-13 2.6168e-13 2.6168e-13 2.68048e-13 2.68048e-13 2.68048e-13 2.68048e-13 1.0528e-12 1.0528e-12 1.0528e-12 1.0528e-12 2.45846e-13 2.45846e-13 2.45846e-13 2.45846e-13 7.41913 7.41913 7.41913 7.41913 7.79842e-13 7.79842e-13 7.79842e-13 7.79842e-13 5.16675e-13 5.16675e-13 5.16675e-13 5.16675e-13 1.00621e-12 1.00621e-12 1.00621e-12 1.00621e-12 2.58148e-13 2.58148e-13 2.58148e-13 2.58148e-13 4.87696e-13 4.87696e-13 4.87696e-13 4.87696e-13 1.69794e-13 1.69794e-13 1.69794e-13 1.69794e-13 4.77179e-14 4.77179e-14 4.77179e-14 4.77179e-14 0.0032714 0.0032714 0.0032714 0.0032714 5.73022e-13 5.73022e-13 5.73022e-13 5.73022e-13 1.24515e-08 1.24515e-08 1.24515e-08 1.24515e-08 1.80023e-12 1.80023e-12 1.80023e-12 1.80023e-12 1.1952e-12 1.1952e-12 1.1952e-12 1.1952e-12 7.99851e-13 7.99851e-13 7.99851e-13 7.99851e-13 1.92504e-13 1.92504e-13 1.92504e-13 1.92504e-13 1.07968e-12 1.07968e-12 1.07968e-12 1.07968e-12 8.11733e-13 8.11733e-13 8.11733e-13 8.11733e-13 3.60807e-13 3.60807e-13 3.60807e-13 3.60807e-13 4.77235e-13 4.77235e-13 4.77235e-13 4.77235e-13 4.89477e-13 4.89477e-13 4.89477e-13 4.89477e-13 1.07465e-12 1.07465e-12 1.07465e-12 1.07465e-12 2.2215e-12 2.2215e-12 2.2215e-12 2.2215e-12 1.21699e-12 1.21699e-12 1.21699e-12 1.21699e-12 9.48547e-07 9.48547e-07 9.48547e-07 9.48547e-07 1.66588e-12 1.66588e-12 1.66588e-12 1.66588e-12 1.58687e-12 1.58687e-12 1.58687e-12 1.58687e-12 0.00114955 0.00114955 0.00114955 0.00114955 0.00331043 0.00331043 0.00331043 0.00331043 2.72011e-13 2.72011e-13 2.72011e-13 2.72011e-13 7.40372e-13 7.40372e-13 7.40372e-13 7.40372e-13 4.27901e-14 4.27901e-14 4.27901e-14 4.27901e-14 5.35799e-14 5.35799e-14 5.35799e-14 5.35799e-14 6.83763e-13 6.83763e-13 6.83763e-13 6.83763e-13 0.00295039 0.00295039 0.00295039 0.00295039 7.3722e-13 7.3722e-13 7.3722e-13 7.3722e-13 7.2631e-13 7.2631e-13 7.2631e-13 7.2631e-13 1.4193e-12 1.4193e-12 1.4193e-12 1.4193e-12 1.03438e-12 1.03438e-12 1.03438e-12 1.03438e-12 6.49803e-13 6.49803e-13 6.49803e-13 6.49803e-13 7.43303 7.43303 7.43303 7.43303 5.38531e-13 5.38531e-13 5.38531e-13 5.38531e-13 2.30007e-12 2.30007e-12 2.30007e-12 2.30007e-12 4.33689e-13 4.33689e-13 4.33689e-13 4.33689e-13 2.4478e-12 2.4478e-12 2.4478e-12 2.4478e-12 4.63467e-13 4.63467e-13 4.63467e-13 4.63467e-13 7.9708e-13 7.9708e-13 7.9708e-13 7.9708e-13 8.21647e-13 8.21647e-13 8.21647e-13 8.21647e-13 3.51602e-13 3.51602e-13 3.51602e-13 3.51602e-13 0.00293685 0.00293685 0.00293685 0.00293685 3.67187e-13 3.67187e-13 3.67187e-13 3.67187e-13 2.99012e-13 2.99012e-13 2.99012e-13 2.99012e-13 7.4613 7.4613 7.4613 7.4613 7.08805e-13 7.08805e-13 7.08805e-13 7.08805e-13 7.55113 7.55113 7.55113 7.55113 9.04387e-13 9.04387e-13 9.04387e-13 9.04387e-13 5.33108e-13 5.33108e-13 5.33108e-13 5.33108e-13 7.73638 7.73638 7.73638 7.73638 8.62805e-13 8.62805e-13 8.62805e-13 8.62805e-13 7.0736e-14 7.0736e-14 7.0736e-14 7.0736e-14 8.2679e-13 8.2679e-13 8.2679e-13 8.2679e-13 9.39305 9.39305 9.39305 9.39305 1.38764e-12 1.38764e-12 1.38764e-12 1.38764e-12 2.66801e-13 2.66801e-13 2.66801e-13 2.66801e-13 0.0029911 0.0029911 0.0029911 0.0029911 1.06398e-12 1.06398e-12 1.06398e-12 1.06398e-12 7.02662e-14 7.02662e-14 7.02662e-14 7.02662e-14 0.00302618 0.00302618 0.00302618 0.00302618 9.44634e-13 9.44634e-13 9.44634e-13 9.44634e-13 6.08086e-13 6.08086e-13 6.08086e-13 6.08086e-13 9.1453e-13 9.1453e-13 9.1453e-13 9.1453e-13 8.55458e-13 8.55458e-13 8.55458e-13 8.55458e-13 1.27095e-08 1.27095e-08 1.27095e-08 1.27095e-08 7.45919 7.45919 7.45919 7.45919 5.64149e-13 5.64149e-13 5.64149e-13 5.64149e-13 9.19611 9.19611 9.19611 9.19611 9.10644 9.10644 9.10644 9.10644 8.94141e-13 8.94141e-13 8.94141e-13 8.94141e-13 1.14152e-12 1.14152e-12 1.14152e-12 1.14152e-12 1.96051e-12 1.96051e-12 1.96051e-12 1.96051e-12 2.76458e-13 2.76458e-13 2.76458e-13 2.76458e-13 1.27732e-13 1.27732e-13 1.27732e-13 1.27732e-13 7.45534 7.45534 7.45534 7.45534 5.55244e-13 5.55244e-13 5.55244e-13 5.55244e-13 8.47938e-13 8.47938e-13 8.47938e-13 8.47938e-13 5.95115e-13 5.95115e-13 5.95115e-13 5.95115e-13 1.753e-12 1.753e-12 1.753e-12 1.753e-12 3.66206e-13 3.66206e-13 3.66206e-13 3.66206e-13 8.74182e-13 8.74182e-13 8.74182e-13 8.74182e-13 7.94271e-13 7.94271e-13 7.94271e-13 7.94271e-13 7.51306e-14 7.51306e-14 7.51306e-14 7.51306e-14 4.086e-13 4.086e-13 4.086e-13 4.086e-13 0.00118035 0.00118035 0.00118035 0.00118035 1.31023e-12 1.31023e-12 1.31023e-12 1.31023e-12 1.17516e-12 1.17516e-12 1.17516e-12 1.17516e-12 7.08932 7.08932 7.08932 7.08932 8.66628e-14 8.66628e-14 8.66628e-14 8.66628e-14 3.81299e-12 3.81299e-12 3.81299e-12 3.81299e-12 1.48536e-13 1.48536e-13 1.48536e-13 1.48536e-13 0.00279193 0.00279193 0.00279193 0.00279193 9.40769e-13 9.40769e-13 9.40769e-13 9.40769e-13 7.94127 7.94127 7.94127 7.94127 1.80618e-13 1.80618e-13 1.80618e-13 1.80618e-13 2.00648e-13 2.00648e-13 2.00648e-13 2.00648e-13 2.1332e-13 2.1332e-13 2.1332e-13 2.1332e-13 7.06369 7.06369 7.06369 7.06369 7.71403e-13 7.71403e-13 7.71403e-13 7.71403e-13 4.72812e-14 4.72812e-14 4.72812e-14 4.72812e-14 7.43581 7.43581 7.43581 7.43581 6.17081e-13 6.17081e-13 6.17081e-13 6.17081e-13 9.13515e-13 9.13515e-13 9.13515e-13 9.13515e-13 7.44816 7.44816 7.44816 7.44816 7.32436 7.32436 7.32436 7.32436 2.02051e-13 2.02051e-13 2.02051e-13 2.02051e-13 5.3287e-14 5.3287e-14 5.3287e-14 5.3287e-14 8.15169e-13 8.15169e-13 8.15169e-13 8.15169e-13 2.93549e-13 2.93549e-13 2.93549e-13 2.93549e-13 6.16572e-13 6.16572e-13 6.16572e-13 6.16572e-13 1.68013e-12 1.68013e-12 1.68013e-12 1.68013e-12 1.29858e-13 1.29858e-13 1.29858e-13 1.29858e-13 7.91504 7.91504 7.91504 7.91504 7.25488e-13 7.25488e-13 7.25488e-13 7.25488e-13 6.52927e-13 6.52927e-13 6.52927e-13 6.52927e-13 2.86153e-13 2.86153e-13 2.86153e-13 2.86153e-13 4.67782e-13 4.67782e-13 4.67782e-13 4.67782e-13 5.3976e-13 5.3976e-13 5.3976e-13 5.3976e-13 5.87154e-14 5.87154e-14 5.87154e-14 5.87154e-14 5.44292e-13 5.44292e-13 5.44292e-13 5.44292e-13 5.96872e-13 5.96872e-13 5.96872e-13 5.96872e-13 8.0022e-13 8.0022e-13 8.0022e-13 8.0022e-13 7.58235e-13 7.58235e-13 7.58235e-13 7.58235e-13 8.09772 8.09772 8.09772 8.09772 0.000678308 0.000678308 0.000678308 0.000678308 7.96955 7.96955 7.96955 7.96955 1.37017e-13 1.37017e-13 1.37017e-13 1.37017e-13 6.20839e-13 6.20839e-13 6.20839e-13 6.20839e-13 1.96014e-13 1.96014e-13 1.96014e-13 1.96014e-13 5.80593e-13 5.80593e-13 5.80593e-13 5.80593e-13 0.000626526 0.000626526 0.000626526 0.000626526 4.38443e-13 4.38443e-13 4.38443e-13 4.38443e-13 0.00278431 0.00278431 0.00278431 0.00278431 0.0005846 0.0005846 0.0005846 0.0005846 7.90063 7.90063 7.90063 7.90063 7.34869 7.34869 7.34869 7.34869 5.98839e-13 5.98839e-13 5.98839e-13 5.98839e-13 7.16631e-13 7.16631e-13 7.16631e-13 7.16631e-13 1.57176e-12 1.57176e-12 1.57176e-12 1.57176e-12 9.56951e-13 9.56951e-13 9.56951e-13 9.56951e-13 4.4909e-13 4.4909e-13 4.4909e-13 4.4909e-13 7.88318e-13 7.88318e-13 7.88318e-13 7.88318e-13 9.86586e-13 9.86586e-13 9.86586e-13 9.86586e-13 0.000111639 0.000111639 0.000111639 0.000111639 7.59803 7.59803 7.59803 7.59803 3.68949e-13 3.68949e-13 3.68949e-13 3.68949e-13 6.50128e-13 6.50128e-13 6.50128e-13 6.50128e-13 7.34112 7.34112 7.34112 7.34112 7.45073 7.45073 7.45073 7.45073 1.32343e-13 1.32343e-13 1.32343e-13 1.32343e-13 3.51479e-14 3.51479e-14 3.51479e-14 3.51479e-14 4.02656e-13 4.02656e-13 4.02656e-13 4.02656e-13 7.84219 7.84219 7.84219 7.84219 8.4562e-13 8.4562e-13 8.4562e-13 8.4562e-13 3.13035e-13 3.13035e-13 3.13035e-13 3.13035e-13 7.90499 7.90499 7.90499 7.90499 0.00130127 0.00130127 0.00130127 0.00130127 5.58318e-13 5.58318e-13 5.58318e-13 5.58318e-13 6.64521e-13 6.64521e-13 6.64521e-13 6.64521e-13 0.000581354 0.000581354 0.000581354 0.000581354 7.16141 7.16141 7.16141 7.16141 3.6846e-13 3.6846e-13 3.6846e-13 3.6846e-13 1.04026e-13 1.04026e-13 1.04026e-13 1.04026e-13 0.000158587 0.000158587 0.000158587 0.000158587 0.000147367 0.000147367 0.000147367 0.000147367 0.00108881 0.00108881 0.00108881 0.00108881 0.00416767 0.00416767 0.00416767 0.00416767 4.72013e-13 4.72013e-13 4.72013e-13 4.72013e-13 14.0081 14.0081 14.0081 14.0081 7.71863 7.71863 7.71863 7.71863 8.00128 8.00128 8.00128 8.00128 8.35868 8.35868 8.35868 8.35868 1.63406e-12 1.63406e-12 1.63406e-12 1.63406e-12 1.70575e-12 1.70575e-12 1.70575e-12 1.70575e-12 7.83478 7.83478 7.83478 7.83478 14.0938 14.0938 14.0938 14.0938 1.08138e-13 1.08138e-13 1.08138e-13 1.08138e-13 0.004596 0.004596 0.004596 0.004596 4.71129e-13 4.71129e-13 4.71129e-13 4.71129e-13 1.46365e-12 1.46365e-12 1.46365e-12 1.46365e-12 7.29807e-13 7.29807e-13 7.29807e-13 7.29807e-13 9.43115 9.43115 9.43115 9.43115 3.18089e-13 3.18089e-13 3.18089e-13 3.18089e-13 3.93245e-13 3.93245e-13 3.93245e-13 3.93245e-13 1.03934e-06 1.03934e-06 1.03934e-06 1.03934e-06 5.58768e-13 5.58768e-13 5.58768e-13 5.58768e-13 3.90612e-14 3.90612e-14 3.90612e-14 3.90612e-14 6.89862 6.89862 6.89862 6.89862 9.33732 9.33732 9.33732 9.33732 6.87994e-13 6.87994e-13 6.87994e-13 6.87994e-13 0.0001104 0.0001104 0.0001104 0.0001104 9.36204e-13 9.36204e-13 9.36204e-13 9.36204e-13 8.6571 8.6571 8.6571 8.6571 2.70546e-12 2.70546e-12 2.70546e-12 2.70546e-12 2.5118e-12 2.5118e-12 2.5118e-12 2.5118e-12 7.45754 7.45754 7.45754 7.45754 1.80864e-12 1.80864e-12 1.80864e-12 1.80864e-12 3.39489e-13 3.39489e-13 3.39489e-13 3.39489e-13 1.51941e-12 1.51941e-12 1.51941e-12 1.51941e-12 0.00120123 0.00120123 0.00120123 0.00120123 7.45752 7.45752 7.45752 7.45752 7.23874e-13 7.23874e-13 7.23874e-13 7.23874e-13 1.01752e-06 1.01752e-06 1.01752e-06 1.01752e-06 10.0633 10.0633 10.0633 10.0633 0.00379407 0.00379407 0.00379407 0.00379407 9.56296 9.56296 9.56296 9.56296 1.7345e-12 1.7345e-12 1.7345e-12 1.7345e-12 7.68572 7.68572 7.68572 7.68572 1.03225e-12 1.03225e-12 1.03225e-12 1.03225e-12 9.28264 9.28264 9.28264 9.28264 13.6428 13.6428 13.6428 13.6428 1.02176e-12 1.02176e-12 1.02176e-12 1.02176e-12 8.60031 8.60031 8.60031 8.60031 8.72656 8.72656 8.72656 8.72656 8.60346e-14 8.60346e-14 8.60346e-14 8.60346e-14 0.000169723 0.000169723 0.000169723 0.000169723 9.85115 9.85115 9.85115 9.85115 1.10363e-12 1.10363e-12 1.10363e-12 1.10363e-12 1.72115e-12 1.72115e-12 1.72115e-12 1.72115e-12 0.00400457 0.00400457 0.00400457 0.00400457 7.30079e-13 7.30079e-13 7.30079e-13 7.30079e-13 1.86445e-12 1.86445e-12 1.86445e-12 1.86445e-12 3.52878e-13 3.52878e-13 3.52878e-13 3.52878e-13 8.12134 8.12134 8.12134 8.12134 0.000696476 0.000696476 0.000696476 0.000696476 1.54094e-12 1.54094e-12 1.54094e-12 1.54094e-12 2.14657e-12 2.14657e-12 2.14657e-12 2.14657e-12 3.59436e-13 3.59436e-13 3.59436e-13 3.59436e-13 2.54773e-13 2.54773e-13 2.54773e-13 2.54773e-13 14.3955 14.3955 14.3955 14.3955 14.6096 14.6096 14.6096 14.6096 7.91184 7.91184 7.91184 7.91184 10.3332 10.3332 10.3332 10.3332 2.52691e-12 2.52691e-12 2.52691e-12 2.52691e-12 0.000171451 0.000171451 0.000171451 0.000171451 0.000735255 0.000735255 0.000735255 0.000735255 7.36418e-13 7.36418e-13 7.36418e-13 7.36418e-13 5.44287e-13 5.44287e-13 5.44287e-13 5.44287e-13 7.98725 7.98725 7.98725 7.98725 9.42951 9.42951 9.42951 9.42951 0.00143184 0.00143184 0.00143184 0.00143184 9.09335 9.09335 9.09335 9.09335 14.0066 14.0066 14.0066 14.0066 9.72787 9.72787 9.72787 9.72787 1.26443e-13 1.26443e-13 1.26443e-13 1.26443e-13 1.55702e-13 1.55702e-13 1.55702e-13 1.55702e-13 1.19849e-12 1.19849e-12 1.19849e-12 1.19849e-12 8.79306e-13 8.79306e-13 8.79306e-13 8.79306e-13 8.86649 8.86649 8.86649 8.86649 1.42656e-12 1.42656e-12 1.42656e-12 1.42656e-12 1.83636e-12 1.83636e-12 1.83636e-12 1.83636e-12 8.61129 8.61129 8.61129 8.61129 9.61587e-13 9.61587e-13 9.61587e-13 9.61587e-13 2.4343e-12 2.4343e-12 2.4343e-12 2.4343e-12 3.66322e-12 3.66322e-12 3.66322e-12 3.66322e-12 8.02354e-13 8.02354e-13 8.02354e-13 8.02354e-13 8.59918 8.59918 8.59918 8.59918 1.47605e-12 1.47605e-12 1.47605e-12 1.47605e-12 8.8627e-08 8.8627e-08 8.8627e-08 8.8627e-08 1.15805e-12 1.15805e-12 1.15805e-12 1.15805e-12 2.22517e-12 2.22517e-12 2.22517e-12 2.22517e-12 2.26635e-13 2.26635e-13 2.26635e-13 2.26635e-13 3.67345e-13 3.67345e-13 3.67345e-13 3.67345e-13 14.2563 14.2563 14.2563 14.2563 1.45823e-12 1.45823e-12 1.45823e-12 1.45823e-12 0.000170698 0.000170698 0.000170698 0.000170698 8.39469e-13 8.39469e-13 8.39469e-13 8.39469e-13 2.29295e-12 2.29295e-12 2.29295e-12 2.29295e-12 1.03981e-12 1.03981e-12 1.03981e-12 1.03981e-12 14.153 14.153 14.153 14.153 1.41528e-12 1.41528e-12 1.41528e-12 1.41528e-12 14.3725 14.3725 14.3725 14.3725 7.52332e-13 7.52332e-13 7.52332e-13 7.52332e-13 3.66006e-13 3.66006e-13 3.66006e-13 3.66006e-13 5.5717e-14 5.5717e-14 5.5717e-14 5.5717e-14 2.64135e-13 2.64135e-13 2.64135e-13 2.64135e-13 1.31326e-12 1.31326e-12 1.31326e-12 1.31326e-12 2.05184e-13 2.05184e-13 2.05184e-13 2.05184e-13 2.66485e-12 2.66485e-12 2.66485e-12 2.66485e-12 4.2184e-13 4.2184e-13 4.2184e-13 4.2184e-13 3.78476e-13 3.78476e-13 3.78476e-13 3.78476e-13 3.07888e-12 3.07888e-12 3.07888e-12 3.07888e-12 1.42583e-13 1.42583e-13 1.42583e-13 1.42583e-13 4.66093e-13 4.66093e-13 4.66093e-13 4.66093e-13 2.8412e-12 2.8412e-12 2.8412e-12 2.8412e-12 7.13921e-13 7.13921e-13 7.13921e-13 7.13921e-13 1.42273e-12 1.42273e-12 1.42273e-12 1.42273e-12 8.83876e-13 8.83876e-13 8.83876e-13 8.83876e-13 6.78479e-13 6.78479e-13 6.78479e-13 6.78479e-13 5.55317e-13 5.55317e-13 5.55317e-13 5.55317e-13 2.56347e-12 2.56347e-12 2.56347e-12 2.56347e-12 8.99077e-13 8.99077e-13 8.99077e-13 8.99077e-13 1.53489e-12 1.53489e-12 1.53489e-12 1.53489e-12 6.67728e-13 6.67728e-13 6.67728e-13 6.67728e-13 3.19982e-13 3.19982e-13 3.19982e-13 3.19982e-13 6.92164e-13 6.92164e-13 6.92164e-13 6.92164e-13 2.57325e-12 2.57325e-12 2.57325e-12 2.57325e-12 2.6337e-12 2.6337e-12 2.6337e-12 2.6337e-12 1.96576e-12 1.96576e-12 1.96576e-12 1.96576e-12 9.98144e-08 9.98144e-08 9.98144e-08 9.98144e-08 6.50147e-13 6.50147e-13 6.50147e-13 6.50147e-13 9.47364e-13 9.47364e-13 9.47364e-13 9.47364e-13 2.81684e-12 2.81684e-12 2.81684e-12 2.81684e-12 14.9544 14.9544 14.9544 14.9544 5.2761e-13 5.2761e-13 5.2761e-13 5.2761e-13 2.61797e-12 2.61797e-12 2.61797e-12 2.61797e-12 1.41821e-12 1.41821e-12 1.41821e-12 1.41821e-12 1.46755e-12 1.46755e-12 1.46755e-12 1.46755e-12 14.7124 14.7124 14.7124 14.7124 8.97713e-13 8.97713e-13 8.97713e-13 8.97713e-13 1.33083e-13 1.33083e-13 1.33083e-13 1.33083e-13 1.04437e-12 1.04437e-12 1.04437e-12 1.04437e-12 5.94123e-13 5.94123e-13 5.94123e-13 5.94123e-13 11.3433 11.3433 11.3433 11.3433 2.29826e-12 2.29826e-12 2.29826e-12 2.29826e-12 15.1158 15.1158 15.1158 15.1158 11.6948 11.6948 11.6948 11.6948 1.99532e-12 1.99532e-12 1.99532e-12 1.99532e-12 1.85251e-12 1.85251e-12 1.85251e-12 1.85251e-12 8.0389e-13 8.0389e-13 8.0389e-13 8.0389e-13 2.8151e-12 2.8151e-12 2.8151e-12 2.8151e-12 1.06964e-13 1.06964e-13 1.06964e-13 1.06964e-13 1.68925e-12 1.68925e-12 1.68925e-12 1.68925e-12 6.36063e-13 6.36063e-13 6.36063e-13 6.36063e-13 4.3781e-13 4.3781e-13 4.3781e-13 4.3781e-13 7.92047e-13 7.92047e-13 7.92047e-13 7.92047e-13 0.00208477 0.00208477 0.00208477 0.00208477 7.48125 7.48125 7.48125 7.48125 3.62119e-13 3.62119e-13 3.62119e-13 3.62119e-13 9.9958e-05 9.9958e-05 9.9958e-05 9.9958e-05 11.8995 11.8995 11.8995 11.8995 0.0028951 0.0028951 0.0028951 0.0028951 7.11997 7.11997 7.11997 7.11997 9.66615e-13 9.66615e-13 9.66615e-13 9.66615e-13 0.0023096 0.0023096 0.0023096 0.0023096 3.14435e-12 3.14435e-12 3.14435e-12 3.14435e-12 12.0759 12.0759 12.0759 12.0759 5.54292e-08 5.54292e-08 5.54292e-08 5.54292e-08 7.43881 7.43881 7.43881 7.43881 0.000117168 0.000117168 0.000117168 0.000117168 1.49382e-12 1.49382e-12 1.49382e-12 1.49382e-12 5.52953e-13 5.52953e-13 5.52953e-13 5.52953e-13 11.9026 11.9026 11.9026 11.9026 8.5405e-09 8.5405e-09 8.5405e-09 8.5405e-09 7.47458 7.47458 7.47458 7.47458 7.50888 7.50888 7.50888 7.50888 8.46915 8.46915 8.46915 8.46915 2.92413e-12 2.92413e-12 2.92413e-12 2.92413e-12 0.000932419 0.000932419 0.000932419 0.000932419 0.00273413 0.00273413 0.00273413 0.00273413 7.68218e-13 7.68218e-13 7.68218e-13 7.68218e-13 0.00038466 0.00038466 0.00038466 0.00038466 0.000411058 0.000411058 0.000411058 0.000411058 0.00214021 0.00214021 0.00214021 0.00214021 8.64182 8.64182 8.64182 8.64182 8.28379 8.28379 8.28379 8.28379 9.58644e-13 9.58644e-13 9.58644e-13 9.58644e-13 7.28673 7.28673 7.28673 7.28673 7.36031 7.36031 7.36031 7.36031 6.47946e-07 6.47946e-07 6.47946e-07 6.47946e-07 0.000805072 0.000805072 0.000805072 0.000805072 7.48545 7.48545 7.48545 7.48545 8.66324 8.66324 8.66324 8.66324 1.56362e-12 1.56362e-12 1.56362e-12 1.56362e-12 0.000782466 0.000782466 0.000782466 0.000782466 12.6116 12.6116 12.6116 12.6116 0.00199556 0.00199556 0.00199556 0.00199556 12.86 12.86 12.86 12.86 1.45335e-13 1.45335e-13 1.45335e-13 1.45335e-13 1.15972e-12 1.15972e-12 1.15972e-12 1.15972e-12 1.60251e-12 1.60251e-12 1.60251e-12 1.60251e-12 1.12591e-12 1.12591e-12 1.12591e-12 1.12591e-12 0.00282035 0.00282035 0.00282035 0.00282035 8.56859e-07 8.56859e-07 8.56859e-07 8.56859e-07 0.000515674 0.000515674 0.000515674 0.000515674 7.78174 7.78174 7.78174 7.78174 9.02241 9.02241 9.02241 9.02241 12.383 12.383 12.383 12.383 7.9409 7.9409 7.9409 7.9409 9.17945 9.17945 9.17945 9.17945 8.85951 8.85951 8.85951 8.85951 7.82821e-13 7.82821e-13 7.82821e-13 7.82821e-13 9.04356 9.04356 9.04356 9.04356 6.67099e-07 6.67099e-07 6.67099e-07 6.67099e-07 0.00264837 0.00264837 0.00264837 0.00264837 7.95157 7.95157 7.95157 7.95157 7.80762 7.80762 7.80762 7.80762 0.000876909 0.000876909 0.000876909 0.000876909 8.55887 8.55887 8.55887 8.55887 0.00295845 0.00295845 0.00295845 0.00295845 7.9713 7.9713 7.9713 7.9713 7.96953 7.96953 7.96953 7.96953 0.000765892 0.000765892 0.000765892 0.000765892 8.47395 8.47395 8.47395 8.47395 8.49606e-13 8.49606e-13 8.49606e-13 8.49606e-13 5.44123e-13 5.44123e-13 5.44123e-13 5.44123e-13 8.44886e-14 8.44886e-14 8.44886e-14 8.44886e-14 3.94698e-13 3.94698e-13 3.94698e-13 3.94698e-13 2.8098e-13 2.8098e-13 2.8098e-13 2.8098e-13 2.32879e-13 2.32879e-13 2.32879e-13 2.32879e-13 4.25712e-13 4.25712e-13 4.25712e-13 4.25712e-13 1.96763e-13 1.96763e-13 1.96763e-13 1.96763e-13 1.37185e-12 1.37185e-12 1.37185e-12 1.37185e-12 3.9915e-12 3.9915e-12 3.9915e-12 3.9915e-12 3.57302e-12 3.57302e-12 3.57302e-12 3.57302e-12 1.26638e-12 1.26638e-12 1.26638e-12 1.26638e-12 3.11111e-14 3.11111e-14 3.11111e-14 3.11111e-14 9.76644e-13 9.76644e-13 9.76644e-13 9.76644e-13 4.34487e-13 4.34487e-13 4.34487e-13 4.34487e-13 5.56334e-13 5.56334e-13 5.56334e-13 5.56334e-13 2.32908e-13 2.32908e-13 2.32908e-13 2.32908e-13 4.41847e-14 4.41847e-14 4.41847e-14 4.41847e-14 1.81367e-12 1.81367e-12 1.81367e-12 1.81367e-12 9.12401e-13 9.12401e-13 9.12401e-13 9.12401e-13 2.65744e-12 2.65744e-12 2.65744e-12 2.65744e-12 2.85948e-14 2.85948e-14 2.85948e-14 2.85948e-14 1.34865e-12 1.34865e-12 1.34865e-12 1.34865e-12 7.68603e-14 7.68603e-14 7.68603e-14 7.68603e-14 3.04008e-13 3.04008e-13 3.04008e-13 3.04008e-13 4.76688e-13 4.76688e-13 4.76688e-13 4.76688e-13 2.17386e-13 2.17386e-13 2.17386e-13 2.17386e-13 1.11198e-12 1.11198e-12 1.11198e-12 1.11198e-12 5.2182e-13 5.2182e-13 5.2182e-13 5.2182e-13 4.80444e-13 4.80444e-13 4.80444e-13 4.80444e-13 6.10985e-13 6.10985e-13 6.10985e-13 6.10985e-13 1.15488e-12 1.15488e-12 1.15488e-12 1.15488e-12 1.35502e-12 1.35502e-12 1.35502e-12 1.35502e-12 7.51723e-13 7.51723e-13 7.51723e-13 7.51723e-13 1.465e-12 1.465e-12 1.465e-12 1.465e-12 1.08293e-12 1.08293e-12 1.08293e-12 1.08293e-12 3.24826e-13 3.24826e-13 3.24826e-13 3.24826e-13 9.65998e-14 9.65998e-14 9.65998e-14 9.65998e-14 3.44665e-12 3.44665e-12 3.44665e-12 3.44665e-12 9.73741e-13 9.73741e-13 9.73741e-13 9.73741e-13 6.88847e-13 6.88847e-13 6.88847e-13 6.88847e-13 8.94592 8.94592 8.94592 8.94592 8.52848 8.52848 8.52848 8.52848 9.09277e-14 9.09277e-14 9.09277e-14 9.09277e-14 5.02471e-13 5.02471e-13 5.02471e-13 5.02471e-13 3.21749e-13 3.21749e-13 3.21749e-13 3.21749e-13 3.46735e-13 3.46735e-13 3.46735e-13 3.46735e-13 1.35411e-12 1.35411e-12 1.35411e-12 1.35411e-12 9.71053e-13 9.71053e-13 9.71053e-13 9.71053e-13 2.62919e-13 2.62919e-13 2.62919e-13 2.62919e-13 1.29256e-13 1.29256e-13 1.29256e-13 1.29256e-13 1.47144e-12 1.47144e-12 1.47144e-12 1.47144e-12 2.78348e-13 2.78348e-13 2.78348e-13 2.78348e-13 7.26238e-13 7.26238e-13 7.26238e-13 7.26238e-13 6.46923e-13 6.46923e-13 6.46923e-13 6.46923e-13 1.66581e-12 1.66581e-12 1.66581e-12 1.66581e-12 3.21457e-13 3.21457e-13 3.21457e-13 3.21457e-13 1.01295e-12 1.01295e-12 1.01295e-12 1.01295e-12 2.40411e-13 2.40411e-13 2.40411e-13 2.40411e-13 7.55221e-13 7.55221e-13 7.55221e-13 7.55221e-13 2.9755e-13 2.9755e-13 2.9755e-13 2.9755e-13 
VECTORS Strain float 
1.7843e-14 -8.53752e-15 -1.55778e-14 
1.7843e-14 -8.53752e-15 -1.55778e-14 
1.7843e-14 -8.53752e-15 -1.55778e-14 
1.7843e-14 -8.53752e-15 -1.55778e-14 
6.44308e-15 7.08617e-15 -6.09431e-15 
6.44308e-15 7.08617e-15 -6.09431e-15 
6.44308e-15 7.08617e-15 -6.09431e-15 
6.44308e-15 7.08617e-15 -6.09431e-15 
9.65627e-15 -8.85525e-15 3.14358e-15 
9.65627e-15 -8.85525e-15 3.14358e-15 
9.65627e-15 -8.85525e-15 3.14358e-15 
9.65627e-15 -8.85525e-15 3.14358e-15 
-5.66887e-15 1.21669e-14 -5.03312e-15 
-5.66887e-15 1.21669e-14 -5.03312e-15 
-5.66887e-15 1.21669e-14 -5.03312e-15 
-5.66887e-15 1.21669e-14 -5.03312e-15 
1.04422e-15 9.53959e-17 -4.63511e-15 
1.04422e-15 9.53959e-17 -4.63511e-15 
1.04422e-15 9.53959e-17 -4.63511e-15 
1.04422e-15 9.53959e-17 -4.63511e-15 
9.43465e-15 -1.22074e-14 -1.44766e-14 
9.43465e-15 -1.22074e-14 -1.44766e-14 
9.43465e-15 -1.22074e-14 -1.44766e-14 
9.43465e-15 -1.22074e-14 -1.44766e-14 
-2.32392e-16 -1.58228e-14 -6.184e-15 
-2.32392e-16 -1.58228e-14 -6.184e-15 
-2.32392e-16 -1.58228e-14 -6.184e-15 
-2.32392e-16 -1.58228e-14 -6.184e-15 
-3.37465e-15 2.05005e-15 2.07611e-15 
-3.37465e-15 2.05005e-15 2.07611e-15 
-3.37465e-15 2.05005e-15 2.07611e-15 
-3.37465e-15 2.05005e-15 2.07611e-15 
1.017e-14 -8.07084e-15 -4.1238e-15 
1.017e-14 -8.07084e-15 -4.1238e-15 
1.017e-14 -8.07084e-15 -4.1238e-15 
1.017e-14 -8.07084e-15 -4.1238e-15 
1.32595e-14 1.29401e-15 -4.60046e-15 
1.32595e-14 1.29401e-15 -4.60046e-15 
1.32595e-14 1.29401e-15 -4.60046e-15 
1.32595e-14 1.29401e-15 -4.60046e-15 
1.69011e-14 -4.78274e-15 8.12695e-15 
1.69011e-14 -4.78274e-15 8.12695e-15 
1.69011e-14 -4.78274e-15 8.12695e-15 
1.69011e-14 -4.78274e-15 8.12695e-15 
1.33976e-14 2.05629e-14 -8.82043e-15 
1.33976e-14 2.05629e-14 -8.82043e-15 
1.33976e-14 2.05629e-14 -8.82043e-15 
1.33976e-14 2.05629e-14 -8.82043e-15 
-4.52421e-15 4.00213e-15 -2.48603e-15 
-4.52421e-15 4.00213e-15 -2.48603e-15 
-4.52421e-15 4.00213e-15 -2.48603e-15 
-4.52421e-15 4.00213e-15 -2.48603e-15 
9.91327e-15 -7.77915e-15 -4.49142e-15 
9.91327e-15 -7.77915e-15 -4.49142e-15 
9.91327e-15 -7.77915e-15 -4.49142e-15 
9.91327e-15 -7.77915e-15 -4.49142e-15 
-4.3905e-15 1.83807e-15 2.49201e-15 
-4.3905e-15 1.83807e-15 2.49201e-15 
-4.3905e-15 1.83807e-15 2.49201e-15 
-4.3905e-15 1.83807e-15 2.49201e-15 
-1.22871e-14 3.37598e-15 -2.89332e-15 
-1.22871e-14 3.37598e-15 -2.89332e-15 
-1.22871e-14 3.37598e-15 -2.89332e-15 
-1.22871e-14 3.37598e-15 -2.89332e-15 
1.13126e-14 -7.70232e-15 5.07853e-15 
1.13126e-14 -7.70232e-15 5.07853e-15 
1.13126e-14 -7.70232e-15 5.07853e-15 
1.13126e-14 -7.70232e-15 5.07853e-15 
-2.43933e-15 1.21389e-16 3.93871e-15 
-2.43933e-15 1.21389e-16 3.93871e-15 
-2.43933e-15 1.21389e-16 3.93871e-15 
-2.43933e-15 1.21389e-16 3.93871e-15 
-9.57563e-15 -6.81642e-15 -3.87558e-15 
-9.57563e-15 -6.81642e-15 -3.87558e-15 
-9.57563e-15 -6.81642e-15 -3.87558e-15 
-9.57563e-15 -6.81642e-15 -3.87558e-15 
-1.08202e-14 4.85638e-15 9.59333e-15 
-1.08202e-14 4.85638e-15 9.59333e-15 
-1.08202e-14 4.85638e-15 9.59333e-15 
-1.08202e-14 4.85638e-15 9.59333e-15 
2.82807e-15 -3.63201e-15 7.6394e-15 
2.82807e-15 -3.63201e-15 7.6394e-15 
2.82807e-15 -3.63201e-15 7.6394e-15 
2.82807e-15 -3.63201e-15 7.6394e-15 
-1.6022e-15 1.18961e-15 2.85789e-15 
-1.6022e-15 1.18961e-15 2.85789e-15 
-1.6022e-15 1.18961e-15 2.85789e-15 
-1.6022e-15 1.18961e-15 2.85789e-15 
-7.62764e-16 -5.44794e-15 -3.56104e-15 
-7.62764e-16 -5.44794e-15 -3.56104e-15 
-7.62764e-16 -5.44794e-15 -3.56104e-15 
-7.62764e-16 -5.44794e-15 -3.56104e-15 
5.5615e-15 1.83191e-15 -2.32172e-15 
5.5615e-15 1.83191e-15 -2.32172e-15 
5.5615e-15 1.83191e-15 -2.32172e-15 
5.5615e-15 1.83191e-15 -2.32172e-15 
5.15492e-15 6.54352e-15 9.56114e-16 
5.15492e-15 6.54352e-15 9.56114e-16 
5.15492e-15 6.54352e-15 9.56114e-16 
5.15492e-15 6.54352e-15 9.56114e-16 
-5.13119e-16 -2.13578e-15 8.63251e-15 
-5.13119e-16 -2.13578e-15 8.63251e-15 
-5.13119e-16 -2.13578e-15 8.63251e-15 
-5.13119e-16 -2.13578e-15 8.63251e-15 
-1.73947e-15 -5.51573e-15 8.91551e-15 
-1.73947e-15 -5.51573e-15 8.91551e-15 
-1.73947e-15 -5.51573e-15 8.91551e-15 
-1.73947e-15 -5.51573e-15 8.91551e-15 
3.52174e-15 1.16759e-14 -6.5913e-15 
3.52174e-15 1.16759e-14 -6.5913e-15 
3.52174e-15 1.16759e-14 -6.5913e-15 
3.52174e-15 1.16759e-14 -6.5913e-15 
9.79672e-15 6.61831e-15 7.35332e-16 
9.79672e-15 6.61831e-15 7.35332e-16 
9.79672e-15 6.61831e-15 7.35332e-16 
9.79672e-15 6.61831e-15 7.35332e-16 
-2.91557e-15 3.39583e-15 2.43731e-15 
-2.91557e-15 3.39583e-15 2.43731e-15 
-2.91557e-15 3.39583e-15 2.43731e-15 
-2.91557e-15 3.39583e-15 2.43731e-15 
2.18165e-15 2.53743e-15 1.47148e-14 
2.18165e-15 2.53743e-15 1.47148e-14 
2.18165e-15 2.53743e-15 1.47148e-14 
2.18165e-15 2.53743e-15 1.47148e-14 
4.96269e-15 5.46046e-15 4.12486e-15 
4.96269e-15 5.46046e-15 4.12486e-15 
4.96269e-15 5.46046e-15 4.12486e-15 
4.96269e-15 5.46046e-15 4.12486e-15 
3.06489e-15 -2.77074e-15 -1.34833e-16 
3.06489e-15 -2.77074e-15 -1.34833e-16 
3.06489e-15 -2.77074e-15 -1.34833e-16 
3.06489e-15 -2.77074e-15 -1.34833e-16 
-9.34068e-16 1.86055e-15 3.99239e-15 
-9.34068e-16 1.86055e-15 3.99239e-15 
-9.34068e-16 1.86055e-15 3.99239e-15 
-9.34068e-16 1.86055e-15 3.99239e-15 
-2.94114e-15 4.51907e-16 9.24622e-16 
-2.94114e-15 4.51907e-16 9.24622e-16 
-2.94114e-15 4.51907e-16 9.24622e-16 
-2.94114e-15 4.51907e-16 9.24622e-16 
9.43752e-16 3.72896e-16 2.99933e-15 
9.43752e-16 3.72896e-16 2.99933e-15 
9.43752e-16 3.72896e-16 2.99933e-15 
9.43752e-16 3.72896e-16 2.99933e-15 
5.47792e-15 6.36735e-15 -1.51672e-15 
5.47792e-15 6.36735e-15 -1.51672e-15 
5.47792e-15 6.36735e-15 -1.51672e-15 
5.47792e-15 6.36735e-15 -1.51672e-15 
1.94945e-16 2.01853e-16 -2.57056e-15 
1.94945e-16 2.01853e-16 -2.57056e-15 
1.94945e-16 2.01853e-16 -2.57056e-15 
1.94945e-16 2.01853e-16 -2.57056e-15 
1.03843e-15 4.23828e-15 -1.48461e-15 
1.03843e-15 4.23828e-15 -1.48461e-15 
1.03843e-15 4.23828e-15 -1.48461e-15 
1.03843e-15 4.23828e-15 -1.48461e-15 
7.66291e-15 -1.04942e-14 -4.73347e-15 
7.66291e-15 -1.04942e-14 -4.73347e-15 
7.66291e-15 -1.04942e-14 -4.73347e-15 
7.66291e-15 -1.04942e-14 -4.73347e-15 
-2.18589e-15 -8.26623e-15 2.30668e-15 
-2.18589e-15 -8.26623e-15 2.30668e-15 
-2.18589e-15 -8.26623e-15 2.30668e-15 
-2.18589e-15 -8.26623e-15 2.30668e-15 
-1.22308e-14 9.82369e-15 1.21558e-14 
-1.22308e-14 9.82369e-15 1.21558e-14 
-1.22308e-14 9.82369e-15 1.21558e-14 
-1.22308e-14 9.82369e-15 1.21558e-14 
-4.33674e-15 6.73885e-16 9.8768e-17 
-4.33674e-15 6.73885e-16 9.8768e-17 
-4.33674e-15 6.73885e-16 9.8768e-17 
-4.33674e-15 6.73885e-16 9.8768e-17 
-2.21775e-14 -3.51948e-15 1.77236e-14 
-2.21775e-14 -3.51948e-15 1.77236e-14 
-2.21775e-14 -3.51948e-15 1.77236e-14 
-2.21775e-14 -3.51948e-15 1.77236e-14 
3.01556e-15 -3.03954e-15 1.38345e-15 
3.01556e-15 -3.03954e-15 1.38345e-15 
3.01556e-15 -3.03954e-15 1.38345e-15 
3.01556e-15 -3.03954e-15 1.38345e-15 
2.68032e-15 -3.59906e-15 -4.79768e-15 
2.68032e-15 -3.59906e-15 -4.79768e-15 
2.68032e-15 -3.59906e-15 -4.79768e-15 
2.68032e-15 -3.59906e-15 -4.79768e-15 
1.82106e-15 -5.26733e-15 4.48651e-15 
1.82106e-15 -5.26733e-15 4.48651e-15 
1.82106e-15 -5.26733e-15 4.48651e-15 
1.82106e-15 -5.26733e-15 4.48651e-15 
-1.6074e-15 -5.56567e-15 -3.06363e-15 
-1.6074e-15 -5.56567e-15 -3.06363e-15 
-1.6074e-15 -5.56567e-15 -3.06363e-15 
-1.6074e-15 -5.56567e-15 -3.06363e-15 
9.69642e-15 -1.50161e-14 -9.67725e-15 
9.69642e-15 -1.50161e-14 -9.67725e-15 
9.69642e-15 -1.50161e-14 -9.67725e-15 
9.69642e-15 -1.50161e-14 -9.67725e-15 
-2.56537e-15 -3.20003e-15 8.56271e-15 
-2.56537e-15 -3.20003e-15 8.56271e-15 
-2.56537e-15 -3.20003e-15 8.56271e-15 
-2.56537e-15 -3.20003e-15 8.56271e-15 
1.19812e-14 3.23384e-15 4.58265e-16 
1.19812e-14 3.23384e-15 4.58265e-16 
1.19812e-14 3.23384e-15 4.58265e-16 
1.19812e-14 3.23384e-15 4.58265e-16 
-2.75341e-15 -6.71945e-15 9.22557e-15 
-2.75341e-15 -6.71945e-15 9.22557e-15 
-2.75341e-15 -6.71945e-15 9.22557e-15 
-2.75341e-15 -6.71945e-15 9.22557e-15 
1.03765e-15 1.12129e-16 -4.15739e-15 
1.03765e-15 1.12129e-16 -4.15739e-15 
1.03765e-15 1.12129e-16 -4.15739e-15 
1.03765e-15 1.12129e-16 -4.15739e-15 
-2.43097e-15 -3.20376e-15 8.55819e-15 
-2.43097e-15 -3.20376e-15 8.55819e-15 
-2.43097e-15 -3.20376e-15 8.55819e-15 
-2.43097e-15 -3.20376e-15 8.55819e-15 
6.85792e-15 2.18779e-15 6.91305e-15 
6.85792e-15 2.18779e-15 6.91305e-15 
6.85792e-15 2.18779e-15 6.91305e-15 
6.85792e-15 2.18779e-15 6.91305e-15 
-3.3302e-15 -2.20423e-15 -2.21043e-15 
-3.3302e-15 -2.20423e-15 -2.21043e-15 
-3.3302e-15 -2.20423e-15 -2.21043e-15 
-3.3302e-15 -2.20423e-15 -2.21043e-15 
4.80231e-15 2.29832e-15 -3.2999e-15 
4.80231e-15 2.29832e-15 -3.2999e-15 
4.80231e-15 2.29832e-15 -3.2999e-15 
4.80231e-15 2.29832e-15 -3.2999e-15 
-5.54302e-15 1.94817e-15 -1.99788e-15 
-5.54302e-15 1.94817e-15 -1.99788e-15 
-5.54302e-15 1.94817e-15 -1.99788e-15 
-5.54302e-15 1.94817e-15 -1.99788e-15 
-6.75664e-15 1.01064e-15 3.19752e-15 
-6.75664e-15 1.01064e-15 3.19752e-15 
-6.75664e-15 1.01064e-15 3.19752e-15 
-6.75664e-15 1.01064e-15 3.19752e-15 
-1.20524e-14 2.91529e-15 8.85196e-15 
-1.20524e-14 2.91529e-15 8.85196e-15 
-1.20524e-14 2.91529e-15 8.85196e-15 
-1.20524e-14 2.91529e-15 8.85196e-15 
-6.65175e-15 8.78252e-15 -2.17874e-16 
-6.65175e-15 8.78252e-15 -2.17874e-16 
-6.65175e-15 8.78252e-15 -2.17874e-16 
-6.65175e-15 8.78252e-15 -2.17874e-16 
-3.02127e-15 -4.01095e-15 8.73166e-15 
-3.02127e-15 -4.01095e-15 8.73166e-15 
-3.02127e-15 -4.01095e-15 8.73166e-15 
-3.02127e-15 -4.01095e-15 8.73166e-15 
6.51577e-15 6.23693e-15 -6.78235e-15 
6.51577e-15 6.23693e-15 -6.78235e-15 
6.51577e-15 6.23693e-15 -6.78235e-15 
6.51577e-15 6.23693e-15 -6.78235e-15 
-5.67807e-15 -1.52596e-15 6.51328e-15 
-5.67807e-15 -1.52596e-15 6.51328e-15 
-5.67807e-15 -1.52596e-15 6.51328e-15 
-5.67807e-15 -1.52596e-15 6.51328e-15 
-1.65138e-15 -1.7854e-15 -6.70365e-15 
-1.65138e-15 -1.7854e-15 -6.70365e-15 
-1.65138e-15 -1.7854e-15 -6.70365e-15 
-1.65138e-15 -1.7854e-15 -6.70365e-15 
-5.47874e-15 -6.02752e-15 2.0601e-15 
-5.47874e-15 -6.02752e-15 2.0601e-15 
-5.47874e-15 -6.02752e-15 2.0601e-15 
-5.47874e-15 -6.02752e-15 2.0601e-15 
-3.74694e-15 -6.90097e-15 5.12917e-16 
-3.74694e-15 -6.90097e-15 5.12917e-16 
-3.74694e-15 -6.90097e-15 5.12917e-16 
-3.74694e-15 -6.90097e-15 5.12917e-16 
-1.85736e-15 4.33129e-15 4.12967e-15 
-1.85736e-15 4.33129e-15 4.12967e-15 
-1.85736e-15 4.33129e-15 4.12967e-15 
-1.85736e-15 4.33129e-15 4.12967e-15 
3.13759e-15 -6.11759e-15 -4.59046e-15 
3.13759e-15 -6.11759e-15 -4.59046e-15 
3.13759e-15 -6.11759e-15 -4.59046e-15 
3.13759e-15 -6.11759e-15 -4.59046e-15 
-2.54611e-15 1.46463e-15 2.7925e-15 
-2.54611e-15 1.46463e-15 2.7925e-15 
-2.54611e-15 1.46463e-15 2.7925e-15 
-2.54611e-15 1.46463e-15 2.7925e-15 
-4.75373e-15 6.5418e-16 -3.65212e-15 
-4.75373e-15 6.5418e-16 -3.65212e-15 
-4.75373e-15 6.5418e-16 -3.65212e-15 
-4.75373e-15 6.5418e-16 -3.65212e-15 
3.93338e-16 2.67294e-16 -4.50026e-15 
3.93338e-16 2.67294e-16 -4.50026e-15 
3.93338e-16 2.67294e-16 -4.50026e-15 
3.93338e-16 2.67294e-16 -4.50026e-15 
-9.39312e-15 8.01902e-16 -4.06236e-15 
-9.39312e-15 8.01902e-16 -4.06236e-15 
-9.39312e-15 8.01902e-16 -4.06236e-15 
-9.39312e-15 8.01902e-16 -4.06236e-15 
-6.70803e-15 -1.35481e-14 -1.20568e-14 
-6.70803e-15 -1.35481e-14 -1.20568e-14 
-6.70803e-15 -1.35481e-14 -1.20568e-14 
-6.70803e-15 -1.35481e-14 -1.20568e-14 
7.52833e-17 -5.24131e-15 -8.23311e-16 
7.52833e-17 -5.24131e-15 -8.23311e-16 
7.52833e-17 -5.24131e-15 -8.23311e-16 
7.52833e-17 -5.24131e-15 -8.23311e-16 
-2.26566e-15 -6.8334e-15 9.21174e-15 
-2.26566e-15 -6.8334e-15 9.21174e-15 
-2.26566e-15 -6.8334e-15 9.21174e-15 
-2.26566e-15 -6.8334e-15 9.21174e-15 
-6.73399e-15 -3.75061e-15 -3.39253e-15 
-6.73399e-15 -3.75061e-15 -3.39253e-15 
-6.73399e-15 -3.75061e-15 -3.39253e-15 
-6.73399e-15 -3.75061e-15 -3.39253e-15 
9.09473e-15 6.35037e-15 -4.65054e-15 
9.09473e-15 6.35037e-15 -4.65054e-15 
9.09473e-15 6.35037e-15 -4.65054e-15 
9.09473e-15 6.35037e-15 -4.65054e-15 
-3.65917e-16 -3.51184e-16 -4.8513e-15 
-3.65917e-16 -3.51184e-16 -4.8513e-15 
-3.65917e-16 -3.51184e-16 -4.8513e-15 
-3.65917e-16 -3.51184e-16 -4.8513e-15 
-4.95406e-15 4.00583e-16 -4.57599e-15 
-4.95406e-15 4.00583e-16 -4.57599e-15 
-4.95406e-15 4.00583e-16 -4.57599e-15 
-4.95406e-15 4.00583e-16 -4.57599e-15 
3.865e-15 1.08358e-14 1.13104e-14 
3.865e-15 1.08358e-14 1.13104e-14 
3.865e-15 1.08358e-14 1.13104e-14 
3.865e-15 1.08358e-14 1.13104e-14 
5.79546e-15 -1.33461e-14 -8.13068e-15 
5.79546e-15 -1.33461e-14 -8.13068e-15 
5.79546e-15 -1.33461e-14 -8.13068e-15 
5.79546e-15 -1.33461e-14 -8.13068e-15 
3.89885e-15 1.13173e-14 -2.56468e-15 
3.89885e-15 1.13173e-14 -2.56468e-15 
3.89885e-15 1.13173e-14 -2.56468e-15 
3.89885e-15 1.13173e-14 -2.56468e-15 
1.26381e-14 1.09979e-14 -1.99797e-14 
1.26381e-14 1.09979e-14 -1.99797e-14 
1.26381e-14 1.09979e-14 -1.99797e-14 
1.26381e-14 1.09979e-14 -1.99797e-14 
-3.57361e-15 1.73867e-14 7.06543e-15 
-3.57361e-15 1.73867e-14 7.06543e-15 
-3.57361e-15 1.73867e-14 7.06543e-15 
-3.57361e-15 1.73867e-14 7.06543e-15 
8.3352e-15 -1.44536e-15 7.27057e-15 
8.3352e-15 -1.44536e-15 7.27057e-15 
8.3352e-15 -1.44536e-15 7.27057e-15 
8.3352e-15 -1.44536e-15 7.27057e-15 
-2.04705e-15 -4.89058e-16 3.73035e-15 
-2.04705e-15 -4.89058e-16 3.73035e-15 
-2.04705e-15 -4.89058e-16 3.73035e-15 
-2.04705e-15 -4.89058e-16 3.73035e-15 
-9.51109e-15 -1.68757e-16 5.28771e-15 
-9.51109e-15 -1.68757e-16 5.28771e-15 
-9.51109e-15 -1.68757e-16 5.28771e-15 
-9.51109e-15 -1.68757e-16 5.28771e-15 
1.45762e-15 1.89412e-15 1.06793e-15 
1.45762e-15 1.89412e-15 1.06793e-15 
1.45762e-15 1.89412e-15 1.06793e-15 
1.45762e-15 1.89412e-15 1.06793e-15 
-2.606e-15 3.58908e-15 1.44691e-15 
-2.606e-15 3.58908e-15 1.44691e-15 
-2.606e-15 3.58908e-15 1.44691e-15 
-2.606e-15 3.58908e-15 1.44691e-15 
1.01358e-14 -4.95263e-15 4.07455e-16 
1.01358e-14 -4.95263e-15 4.07455e-16 
1.01358e-14 -4.95263e-15 4.07455e-16 
1.01358e-14 -4.95263e-15 4.07455e-16 
-1.19723e-14 2.97588e-15 -2.30058e-15 
-1.19723e-14 2.97588e-15 -2.30058e-15 
-1.19723e-14 2.97588e-15 -2.30058e-15 
-1.19723e-14 2.97588e-15 -2.30058e-15 
-6.58658e-15 5.41519e-15 5.94481e-15 
-6.58658e-15 5.41519e-15 5.94481e-15 
-6.58658e-15 5.41519e-15 5.94481e-15 
-6.58658e-15 5.41519e-15 5.94481e-15 
1.00581e-14 -1.93501e-14 4.98226e-15 
1.00581e-14 -1.93501e-14 4.98226e-15 
1.00581e-14 -1.93501e-14 4.98226e-15 
1.00581e-14 -1.93501e-14 4.98226e-15 
6.30001e-15 1.29285e-15 -7.37806e-15 
6.30001e-15 1.29285e-15 -7.37806e-15 
6.30001e-15 1.29285e-15 -7.37806e-15 
6.30001e-15 1.29285e-15 -7.37806e-15 
1.00331e-16 3.01996e-15 -1.33216e-15 
1.00331e-16 3.01996e-15 -1.33216e-15 
1.00331e-16 3.01996e-15 -1.33216e-15 
1.00331e-16 3.01996e-15 -1.33216e-15 
-1.52901e-15 -1.00411e-15 -1.18354e-15 
-1.52901e-15 -1.00411e-15 -1.18354e-15 
-1.52901e-15 -1.00411e-15 -1.18354e-15 
-1.52901e-15 -1.00411e-15 -1.18354e-15 
-2.43464e-15 9.55584e-17 -7.99102e-15 
-2.43464e-15 9.55584e-17 -7.99102e-15 
-2.43464e-15 9.55584e-17 -7.99102e-15 
-2.43464e-15 9.55584e-17 -7.99102e-15 
1.41301e-14 -1.29714e-14 -2.00636e-14 
1.41301e-14 -1.29714e-14 -2.00636e-14 
1.41301e-14 -1.29714e-14 -2.00636e-14 
1.41301e-14 -1.29714e-14 -2.00636e-14 
1.08332e-15 1.62826e-16 3.03973e-15 
1.08332e-15 1.62826e-16 3.03973e-15 
1.08332e-15 1.62826e-16 3.03973e-15 
1.08332e-15 1.62826e-16 3.03973e-15 
-1.22081e-14 4.05771e-15 -2.28961e-14 
-1.22081e-14 4.05771e-15 -2.28961e-14 
-1.22081e-14 4.05771e-15 -2.28961e-14 
-1.22081e-14 4.05771e-15 -2.28961e-14 
-3.41739e-15 -7.65242e-15 -7.07031e-15 
-3.41739e-15 -7.65242e-15 -7.07031e-15 
-3.41739e-15 -7.65242e-15 -7.07031e-15 
-3.41739e-15 -7.65242e-15 -7.07031e-15 
4.65404e-15 -6.21789e-15 1.43903e-15 
4.65404e-15 -6.21789e-15 1.43903e-15 
4.65404e-15 -6.21789e-15 1.43903e-15 
4.65404e-15 -6.21789e-15 1.43903e-15 
-1.80825e-15 3.52677e-15 -1.26279e-16 
-1.80825e-15 3.52677e-15 -1.26279e-16 
-1.80825e-15 3.52677e-15 -1.26279e-16 
-1.80825e-15 3.52677e-15 -1.26279e-16 
-1.38106e-16 1.61342e-15 -9.89122e-16 
-1.38106e-16 1.61342e-15 -9.89122e-16 
-1.38106e-16 1.61342e-15 -9.89122e-16 
-1.38106e-16 1.61342e-15 -9.89122e-16 
6.80519e-15 -4.46069e-15 -2.73103e-15 
6.80519e-15 -4.46069e-15 -2.73103e-15 
6.80519e-15 -4.46069e-15 -2.73103e-15 
6.80519e-15 -4.46069e-15 -2.73103e-15 
3.60734e-15 -4.62115e-15 1.47936e-15 
3.60734e-15 -4.62115e-15 1.47936e-15 
3.60734e-15 -4.62115e-15 1.47936e-15 
3.60734e-15 -4.62115e-15 1.47936e-15 
-5.20349e-16 -6.55551e-16 4.55035e-16 
-5.20349e-16 -6.55551e-16 4.55035e-16 
-5.20349e-16 -6.55551e-16 4.55035e-16 
-5.20349e-16 -6.55551e-16 4.55035e-16 
-1.73422e-16 -6.03547e-16 -4.97501e-16 
-1.73422e-16 -6.03547e-16 -4.97501e-16 
-1.73422e-16 -6.03547e-16 -4.97501e-16 
-1.73422e-16 -6.03547e-16 -4.97501e-16 
7.78747e-15 1.06299e-16 7.84293e-15 
7.78747e-15 1.06299e-16 7.84293e-15 
7.78747e-15 1.06299e-16 7.84293e-15 
7.78747e-15 1.06299e-16 7.84293e-15 
2.43898e-15 3.90645e-15 -3.64822e-15 
2.43898e-15 3.90645e-15 -3.64822e-15 
2.43898e-15 3.90645e-15 -3.64822e-15 
2.43898e-15 3.90645e-15 -3.64822e-15 
-1.38042e-15 4.25886e-15 6.534e-15 
-1.38042e-15 4.25886e-15 6.534e-15 
-1.38042e-15 4.25886e-15 6.534e-15 
-1.38042e-15 4.25886e-15 6.534e-15 
-2.57437e-16 1.8602e-15 3.79834e-15 
-2.57437e-16 1.8602e-15 3.79834e-15 
-2.57437e-16 1.8602e-15 3.79834e-15 
-2.57437e-16 1.8602e-15 3.79834e-15 
-1.64869e-15 2.1112e-15 1.81701e-15 
-1.64869e-15 2.1112e-15 1.81701e-15 
-1.64869e-15 2.1112e-15 1.81701e-15 
-1.64869e-15 2.1112e-15 1.81701e-15 
7.24397e-15 9.37779e-16 8.28213e-16 
7.24397e-15 9.37779e-16 8.28213e-16 
7.24397e-15 9.37779e-16 8.28213e-16 
7.24397e-15 9.37779e-16 8.28213e-16 
4.79881e-16 -7.51063e-16 2.98871e-15 
4.79881e-16 -7.51063e-16 2.98871e-15 
4.79881e-16 -7.51063e-16 2.98871e-15 
4.79881e-16 -7.51063e-16 2.98871e-15 
3.25689e-15 -6.50798e-15 -9.28922e-15 
3.25689e-15 -6.50798e-15 -9.28922e-15 
3.25689e-15 -6.50798e-15 -9.28922e-15 
3.25689e-15 -6.50798e-15 -9.28922e-15 
1.39196e-15 3.42253e-15 -1.4062e-16 
1.39196e-15 3.42253e-15 -1.4062e-16 
1.39196e-15 3.42253e-15 -1.4062e-16 
1.39196e-15 3.42253e-15 -1.4062e-16 
1.278e-14 -4.45359e-15 -6.6964e-15 
1.278e-14 -4.45359e-15 -6.6964e-15 
1.278e-14 -4.45359e-15 -6.6964e-15 
1.278e-14 -4.45359e-15 -6.6964e-15 
-4.97415e-15 -5.6884e-15 -1.67013e-14 
-4.97415e-15 -5.6884e-15 -1.67013e-14 
-4.97415e-15 -5.6884e-15 -1.67013e-14 
-4.97415e-15 -5.6884e-15 -1.67013e-14 
-8.69446e-16 2.9908e-16 3.78938e-16 
-8.69446e-16 2.9908e-16 3.78938e-16 
-8.69446e-16 2.9908e-16 3.78938e-16 
-8.69446e-16 2.9908e-16 3.78938e-16 
4.31564e-16 1.258e-15 5.1427e-16 
4.31564e-16 1.258e-15 5.1427e-16 
4.31564e-16 1.258e-15 5.1427e-16 
4.31564e-16 1.258e-15 5.1427e-16 
-1.8325e-14 -1.01734e-14 1.40702e-14 
-1.8325e-14 -1.01734e-14 1.40702e-14 
-1.8325e-14 -1.01734e-14 1.40702e-14 
-1.8325e-14 -1.01734e-14 1.40702e-14 
5.86099e-16 -3.81662e-15 1.25442e-15 
5.86099e-16 -3.81662e-15 1.25442e-15 
5.86099e-16 -3.81662e-15 1.25442e-15 
5.86099e-16 -3.81662e-15 1.25442e-15 
-6.24003e-15 -8.50528e-16 -8.74937e-15 
-6.24003e-15 -8.50528e-16 -8.74937e-15 
-6.24003e-15 -8.50528e-16 -8.74937e-15 
-6.24003e-15 -8.50528e-16 -8.74937e-15 
-3.22586e-15 4.19204e-15 2.70616e-15 
-3.22586e-15 4.19204e-15 2.70616e-15 
-3.22586e-15 4.19204e-15 2.70616e-15 
-3.22586e-15 4.19204e-15 2.70616e-15 
6.16596e-15 -3.20572e-16 7.87931e-15 
6.16596e-15 -3.20572e-16 7.87931e-15 
6.16596e-15 -3.20572e-16 7.87931e-15 
6.16596e-15 -3.20572e-16 7.87931e-15 
-4.39846e-15 1.57311e-15 3.47071e-16 
-4.39846e-15 1.57311e-15 3.47071e-16 
-4.39846e-15 1.57311e-15 3.47071e-16 
-4.39846e-15 1.57311e-15 3.47071e-16 
2.01573e-15 4.13708e-15 -8.67265e-16 
2.01573e-15 4.13708e-15 -8.67265e-16 
2.01573e-15 4.13708e-15 -8.67265e-16 
2.01573e-15 4.13708e-15 -8.67265e-16 
-4.16148e-15 6.41656e-15 1.34368e-15 
-4.16148e-15 6.41656e-15 1.34368e-15 
-4.16148e-15 6.41656e-15 1.34368e-15 
-4.16148e-15 6.41656e-15 1.34368e-15 
2.23122e-15 2.73643e-15 8.31666e-15 
2.23122e-15 2.73643e-15 8.31666e-15 
2.23122e-15 2.73643e-15 8.31666e-15 
2.23122e-15 2.73643e-15 8.31666e-15 
1.45741e-14 5.58579e-15 4.64225e-15 
1.45741e-14 5.58579e-15 4.64225e-15 
1.45741e-14 5.58579e-15 4.64225e-15 
1.45741e-14 5.58579e-15 4.64225e-15 
5.10471e-15 -4.66061e-15 -2.754e-15 
5.10471e-15 -4.66061e-15 -2.754e-15 
5.10471e-15 -4.66061e-15 -2.754e-15 
5.10471e-15 -4.66061e-15 -2.754e-15 
-2.50227e-15 7.03683e-15 3.03321e-16 
-2.50227e-15 7.03683e-15 3.03321e-16 
-2.50227e-15 7.03683e-15 3.03321e-16 
-2.50227e-15 7.03683e-15 3.03321e-16 
-1.13957e-15 -6.57093e-15 5.14668e-15 
-1.13957e-15 -6.57093e-15 5.14668e-15 
-1.13957e-15 -6.57093e-15 5.14668e-15 
-1.13957e-15 -6.57093e-15 5.14668e-15 
-4.45418e-15 1.56427e-15 1.77179e-16 
-4.45418e-15 1.56427e-15 1.77179e-16 
-4.45418e-15 1.56427e-15 1.77179e-16 
-4.45418e-15 1.56427e-15 1.77179e-16 
-4.34206e-16 9.23513e-16 1.45598e-15 
-4.34206e-16 9.23513e-16 1.45598e-15 
-4.34206e-16 9.23513e-16 1.45598e-15 
-4.34206e-16 9.23513e-16 1.45598e-15 
-1.82531e-15 -7.95784e-16 6.23558e-15 
-1.82531e-15 -7.95784e-16 6.23558e-15 
-1.82531e-15 -7.95784e-16 6.23558e-15 
-1.82531e-15 -7.95784e-16 6.23558e-15 
3.64464e-15 1.08682e-15 -4.54231e-15 
3.64464e-15 1.08682e-15 -4.54231e-15 
3.64464e-15 1.08682e-15 -4.54231e-15 
3.64464e-15 1.08682e-15 -4.54231e-15 
2.33483e-15 1.80355e-15 -3.18637e-15 
2.33483e-15 1.80355e-15 -3.18637e-15 
2.33483e-15 1.80355e-15 -3.18637e-15 
2.33483e-15 1.80355e-15 -3.18637e-15 
-2.21112e-15 3.27888e-15 -5.8202e-15 
-2.21112e-15 3.27888e-15 -5.8202e-15 
-2.21112e-15 3.27888e-15 -5.8202e-15 
-2.21112e-15 3.27888e-15 -5.8202e-15 
-3.51217e-15 6.37653e-15 1.85529e-15 
-3.51217e-15 6.37653e-15 1.85529e-15 
-3.51217e-15 6.37653e-15 1.85529e-15 
-3.51217e-15 6.37653e-15 1.85529e-15 
-5.92166e-16 6.16393e-15 -1.36574e-14 
-5.92166e-16 6.16393e-15 -1.36574e-14 
-5.92166e-16 6.16393e-15 -1.36574e-14 
-5.92166e-16 6.16393e-15 -1.36574e-14 
7.40768e-15 7.46733e-16 8.20572e-16 
7.40768e-15 7.46733e-16 8.20572e-16 
7.40768e-15 7.46733e-16 8.20572e-16 
7.40768e-15 7.46733e-16 8.20572e-16 
6.28591e-15 7.46677e-15 -6.02993e-16 
6.28591e-15 7.46677e-15 -6.02993e-16 
6.28591e-15 7.46677e-15 -6.02993e-16 
6.28591e-15 7.46677e-15 -6.02993e-16 
9.48515e-16 -2.26716e-15 -9.14306e-16 
9.48515e-16 -2.26716e-15 -9.14306e-16 
9.48515e-16 -2.26716e-15 -9.14306e-16 
9.48515e-16 -2.26716e-15 -9.14306e-16 
-3.73709e-15 5.19217e-15 -5.95326e-17 
-3.73709e-15 5.19217e-15 -5.95326e-17 
-3.73709e-15 5.19217e-15 -5.95326e-17 
-3.73709e-15 5.19217e-15 -5.95326e-17 
5.74652e-15 1.39667e-14 -1.60478e-15 
5.74652e-15 1.39667e-14 -1.60478e-15 
5.74652e-15 1.39667e-14 -1.60478e-15 
5.74652e-15 1.39667e-14 -1.60478e-15 
4.25487e-15 1.0412e-15 1.2582e-14 
4.25487e-15 1.0412e-15 1.2582e-14 
4.25487e-15 1.0412e-15 1.2582e-14 
4.25487e-15 1.0412e-15 1.2582e-14 
1.82866e-15 -3.08652e-15 2.47643e-15 
1.82866e-15 -3.08652e-15 2.47643e-15 
1.82866e-15 -3.08652e-15 2.47643e-15 
1.82866e-15 -3.08652e-15 2.47643e-15 
-1.08635e-15 5.13173e-15 -8.30856e-15 
-1.08635e-15 5.13173e-15 -8.30856e-15 
-1.08635e-15 5.13173e-15 -8.30856e-15 
-1.08635e-15 5.13173e-15 -8.30856e-15 
1.72246e-14 -3.3601e-15 -1.12541e-14 
1.72246e-14 -3.3601e-15 -1.12541e-14 
1.72246e-14 -3.3601e-15 -1.12541e-14 
1.72246e-14 -3.3601e-15 -1.12541e-14 
-3.33473e-15 4.36455e-15 -1.00147e-15 
-3.33473e-15 4.36455e-15 -1.00147e-15 
-3.33473e-15 4.36455e-15 -1.00147e-15 
-3.33473e-15 4.36455e-15 -1.00147e-15 
1.69844e-16 6.01494e-16 1.23044e-15 
1.69844e-16 6.01494e-16 1.23044e-15 
1.69844e-16 6.01494e-16 1.23044e-15 
1.69844e-16 6.01494e-16 1.23044e-15 
1.71579e-15 1.92918e-14 -6.53746e-15 
1.71579e-15 1.92918e-14 -6.53746e-15 
1.71579e-15 1.92918e-14 -6.53746e-15 
1.71579e-15 1.92918e-14 -6.53746e-15 
-3.41936e-15 -7.68127e-15 -1.95315e-15 
-3.41936e-15 -7.68127e-15 -1.95315e-15 
-3.41936e-15 -7.68127e-15 -1.95315e-15 
-3.41936e-15 -7.68127e-15 -1.95315e-15 
8.18499e-15 -1.05859e-15 -1.16788e-15 
8.18499e-15 -1.05859e-15 -1.16788e-15 
8.18499e-15 -1.05859e-15 -1.16788e-15 
8.18499e-15 -1.05859e-15 -1.16788e-15 
-1.63846e-15 -1.66766e-15 -9.73606e-16 
-1.63846e-15 -1.66766e-15 -9.73606e-16 
-1.63846e-15 -1.66766e-15 -9.73606e-16 
-1.63846e-15 -1.66766e-15 -9.73606e-16 
4.33742e-15 -5.89954e-15 1.62677e-15 
4.33742e-15 -5.89954e-15 1.62677e-15 
4.33742e-15 -5.89954e-15 1.62677e-15 
4.33742e-15 -5.89954e-15 1.62677e-15 
-2.84716e-15 2.47629e-15 6.40406e-16 
-2.84716e-15 2.47629e-15 6.40406e-16 
-2.84716e-15 2.47629e-15 6.40406e-16 
-2.84716e-15 2.47629e-15 6.40406e-16 
-9.64693e-15 -6.61096e-15 1.64599e-15 
-9.64693e-15 -6.61096e-15 1.64599e-15 
-9.64693e-15 -6.61096e-15 1.64599e-15 
-9.64693e-15 -6.61096e-15 1.64599e-15 
-1.77848e-15 5.47946e-15 -1.13771e-14 
-1.77848e-15 5.47946e-15 -1.13771e-14 
-1.77848e-15 5.47946e-15 -1.13771e-14 
-1.77848e-15 5.47946e-15 -1.13771e-14 
-9.31745e-16 4.50173e-15 4.74745e-15 
-9.31745e-16 4.50173e-15 4.74745e-15 
-9.31745e-16 4.50173e-15 4.74745e-15 
-9.31745e-16 4.50173e-15 4.74745e-15 
-7.69887e-15 -6.41699e-15 1.18412e-15 
-7.69887e-15 -6.41699e-15 1.18412e-15 
-7.69887e-15 -6.41699e-15 1.18412e-15 
-7.69887e-15 -6.41699e-15 1.18412e-15 
-9.97063e-17 2.68534e-16 0 
-9.97063e-17 2.68534e-16 0 
-9.97063e-17 2.68534e-16 0 
-9.97063e-17 2.68534e-16 0 
-1.62385e-15 6.64803e-16 -4.96521e-16 
-1.62385e-15 6.64803e-16 -4.96521e-16 
-1.62385e-15 6.64803e-16 -4.96521e-16 
-1.62385e-15 6.64803e-16 -4.96521e-16 
3.29849e-16 -1.19936e-15 8.98502e-15 
3.29849e-16 -1.19936e-15 8.98502e-15 
3.29849e-16 -1.19936e-15 8.98502e-15 
3.29849e-16 -1.19936e-15 8.98502e-15 
9.78016e-16 7.16611e-15 4.65478e-15 
9.78016e-16 7.16611e-15 4.65478e-15 
9.78016e-16 7.16611e-15 4.65478e-15 
9.78016e-16 7.16611e-15 4.65478e-15 
-4.44861e-15 -9.99094e-15 4.09302e-15 
-4.44861e-15 -9.99094e-15 4.09302e-15 
-4.44861e-15 -9.99094e-15 4.09302e-15 
-4.44861e-15 -9.99094e-15 4.09302e-15 
-6.88672e-15 8.74768e-15 6.43138e-16 
-6.88672e-15 8.74768e-15 6.43138e-16 
-6.88672e-15 8.74768e-15 6.43138e-16 
-6.88672e-15 8.74768e-15 6.43138e-16 
-2.12881e-15 -2.72888e-15 -3.9355e-16 
-2.12881e-15 -2.72888e-15 -3.9355e-16 
-2.12881e-15 -2.72888e-15 -3.9355e-16 
-2.12881e-15 -2.72888e-15 -3.9355e-16 
-7.42923e-15 -1.03174e-14 1.2741e-14 
-7.42923e-15 -1.03174e-14 1.2741e-14 
-7.42923e-15 -1.03174e-14 1.2741e-14 
-7.42923e-15 -1.03174e-14 1.2741e-14 
-7.28095e-16 2.25341e-15 3.29164e-15 
-7.28095e-16 2.25341e-15 3.29164e-15 
-7.28095e-16 2.25341e-15 3.29164e-15 
-7.28095e-16 2.25341e-15 3.29164e-15 
-4.06391e-15 7.27673e-15 1.63177e-15 
-4.06391e-15 7.27673e-15 1.63177e-15 
-4.06391e-15 7.27673e-15 1.63177e-15 
-4.06391e-15 7.27673e-15 1.63177e-15 
-5.14294e-15 -1.70074e-15 -2.4485e-15 
-5.14294e-15 -1.70074e-15 -2.4485e-15 
-5.14294e-15 -1.70074e-15 -2.4485e-15 
-5.14294e-15 -1.70074e-15 -2.4485e-15 
-4.83156e-15 -4.88406e-15 6.3269e-15 
-4.83156e-15 -4.88406e-15 6.3269e-15 
-4.83156e-15 -4.88406e-15 6.3269e-15 
-4.83156e-15 -4.88406e-15 6.3269e-15 
6.54527e-16 -1.22278e-15 1.06022e-15 
6.54527e-16 -1.22278e-15 1.06022e-15 
6.54527e-16 -1.22278e-15 1.06022e-15 
6.54527e-16 -1.22278e-15 1.06022e-15 
-1.12486e-14 4.54975e-15 1.38711e-14 
-1.12486e-14 4.54975e-15 1.38711e-14 
-1.12486e-14 4.54975e-15 1.38711e-14 
-1.12486e-14 4.54975e-15 1.38711e-14 
6.02877e-15 -1.32965e-15 6.47482e-15 
6.02877e-15 -1.32965e-15 6.47482e-15 
6.02877e-15 -1.32965e-15 6.47482e-15 
6.02877e-15 -1.32965e-15 6.47482e-15 
7.13399e-15 4.67564e-16 -1.29001e-14 
7.13399e-15 4.67564e-16 -1.29001e-14 
7.13399e-15 4.67564e-16 -1.29001e-14 
7.13399e-15 4.67564e-16 -1.29001e-14 
-3.53695e-15 1.7121e-15 1.34693e-15 
-3.53695e-15 1.7121e-15 1.34693e-15 
-3.53695e-15 1.7121e-15 1.34693e-15 
-3.53695e-15 1.7121e-15 1.34693e-15 
-1.55476e-15 -1.01875e-14 5.16035e-15 
-1.55476e-15 -1.01875e-14 5.16035e-15 
-1.55476e-15 -1.01875e-14 5.16035e-15 
-1.55476e-15 -1.01875e-14 5.16035e-15 
-7.76974e-15 -1.52325e-15 5.42076e-15 
-7.76974e-15 -1.52325e-15 5.42076e-15 
-7.76974e-15 -1.52325e-15 5.42076e-15 
-7.76974e-15 -1.52325e-15 5.42076e-15 
-1.56501e-15 -3.43839e-15 -1.31202e-15 
-1.56501e-15 -3.43839e-15 -1.31202e-15 
-1.56501e-15 -3.43839e-15 -1.31202e-15 
-1.56501e-15 -3.43839e-15 -1.31202e-15 
-7.23777e-15 -7.94257e-15 6.91513e-16 
-7.23777e-15 -7.94257e-15 6.91513e-16 
-7.23777e-15 -7.94257e-15 6.91513e-16 
-7.23777e-15 -7.94257e-15 6.91513e-16 
-4.48746e-15 -7.82075e-15 -1.28736e-14 
-4.48746e-15 -7.82075e-15 -1.28736e-14 
-4.48746e-15 -7.82075e-15 -1.28736e-14 
-4.48746e-15 -7.82075e-15 -1.28736e-14 
-8.68252e-15 -4.01471e-15 -1.83634e-15 
-8.68252e-15 -4.01471e-15 -1.83634e-15 
-8.68252e-15 -4.01471e-15 -1.83634e-15 
-8.68252e-15 -4.01471e-15 -1.83634e-15 
-8.17475e-15 -1.00057e-14 -1.64647e-15 
-8.17475e-15 -1.00057e-14 -1.64647e-15 
-8.17475e-15 -1.00057e-14 -1.64647e-15 
-8.17475e-15 -1.00057e-14 -1.64647e-15 
-3.9266e-15 4.76707e-15 9.19935e-15 
-3.9266e-15 4.76707e-15 9.19935e-15 
-3.9266e-15 4.76707e-15 9.19935e-15 
-3.9266e-15 4.76707e-15 9.19935e-15 
-3.52004e-15 -1.36179e-15 2.9053e-16 
-3.52004e-15 -1.36179e-15 2.9053e-16 
-3.52004e-15 -1.36179e-15 2.9053e-16 
-3.52004e-15 -1.36179e-15 2.9053e-16 
2.27304e-14 7.19766e-15 1.14101e-14 
2.27304e-14 7.19766e-15 1.14101e-14 
2.27304e-14 7.19766e-15 1.14101e-14 
2.27304e-14 7.19766e-15 1.14101e-14 
1.01607e-14 -4.71218e-15 8.81212e-15 
1.01607e-14 -4.71218e-15 8.81212e-15 
1.01607e-14 -4.71218e-15 8.81212e-15 
1.01607e-14 -4.71218e-15 8.81212e-15 
-2.13717e-15 4.04973e-16 -4.34174e-16 
-2.13717e-15 4.04973e-16 -4.34174e-16 
-2.13717e-15 4.04973e-16 -4.34174e-16 
-2.13717e-15 4.04973e-16 -4.34174e-16 
-5.63176e-17 -6.77814e-15 -1.28659e-15 
-5.63176e-17 -6.77814e-15 -1.28659e-15 
-5.63176e-17 -6.77814e-15 -1.28659e-15 
-5.63176e-17 -6.77814e-15 -1.28659e-15 
1.83804e-15 -1.1731e-14 3.01123e-16 
1.83804e-15 -1.1731e-14 3.01123e-16 
1.83804e-15 -1.1731e-14 3.01123e-16 
1.83804e-15 -1.1731e-14 3.01123e-16 
-1.80641e-14 2.52667e-15 -9.44208e-16 
-1.80641e-14 2.52667e-15 -9.44208e-16 
-1.80641e-14 2.52667e-15 -9.44208e-16 
-1.80641e-14 2.52667e-15 -9.44208e-16 
-4.05946e-15 5.97802e-15 2.68416e-15 
-4.05946e-15 5.97802e-15 2.68416e-15 
-4.05946e-15 5.97802e-15 2.68416e-15 
-4.05946e-15 5.97802e-15 2.68416e-15 
1.04145e-15 7.0409e-16 5.90465e-16 
1.04145e-15 7.0409e-16 5.90465e-16 
1.04145e-15 7.0409e-16 5.90465e-16 
1.04145e-15 7.0409e-16 5.90465e-16 
3.60494e-15 -4.23609e-15 -4.6466e-17 
3.60494e-15 -4.23609e-15 -4.6466e-17 
3.60494e-15 -4.23609e-15 -4.6466e-17 
3.60494e-15 -4.23609e-15 -4.6466e-17 
-2.25217e-15 8.59837e-15 -6.29981e-16 
-2.25217e-15 8.59837e-15 -6.29981e-16 
-2.25217e-15 8.59837e-15 -6.29981e-16 
-2.25217e-15 8.59837e-15 -6.29981e-16 
7.03097e-16 -2.09926e-15 5.81404e-16 
7.03097e-16 -2.09926e-15 5.81404e-16 
7.03097e-16 -2.09926e-15 5.81404e-16 
7.03097e-16 -2.09926e-15 5.81404e-16 
-8.94497e-15 -7.90906e-15 -2.09002e-16 
-8.94497e-15 -7.90906e-15 -2.09002e-16 
-8.94497e-15 -7.90906e-15 -2.09002e-16 
-8.94497e-15 -7.90906e-15 -2.09002e-16 
7.69883e-15 -2.43754e-15 5.33092e-15 
7.69883e-15 -2.43754e-15 5.33092e-15 
7.69883e-15 -2.43754e-15 5.33092e-15 
7.69883e-15 -2.43754e-15 5.33092e-15 
-8.89682e-16 -2.35261e-15 -5.893e-15 
-8.89682e-16 -2.35261e-15 -5.893e-15 
-8.89682e-16 -2.35261e-15 -5.893e-15 
-8.89682e-16 -2.35261e-15 -5.893e-15 
8.53699e-16 -4.10522e-15 -4.32785e-15 
8.53699e-16 -4.10522e-15 -4.32785e-15 
8.53699e-16 -4.10522e-15 -4.32785e-15 
8.53699e-16 -4.10522e-15 -4.32785e-15 
4.56476e-15 -5.87651e-15 1.61287e-15 
4.56476e-15 -5.87651e-15 1.61287e-15 
4.56476e-15 -5.87651e-15 1.61287e-15 
4.56476e-15 -5.87651e-15 1.61287e-15 
-7.33037e-15 -3.35618e-15 -8.45373e-15 
-7.33037e-15 -3.35618e-15 -8.45373e-15 
-7.33037e-15 -3.35618e-15 -8.45373e-15 
-7.33037e-15 -3.35618e-15 -8.45373e-15 
5.00313e-15 -2.81728e-16 -1.26195e-14 
5.00313e-15 -2.81728e-16 -1.26195e-14 
5.00313e-15 -2.81728e-16 -1.26195e-14 
5.00313e-15 -2.81728e-16 -1.26195e-14 
1.04071e-15 -2.84483e-15 3.30002e-15 
1.04071e-15 -2.84483e-15 3.30002e-15 
1.04071e-15 -2.84483e-15 3.30002e-15 
1.04071e-15 -2.84483e-15 3.30002e-15 
5.5377e-16 1.33245e-15 -4.4132e-15 
5.5377e-16 1.33245e-15 -4.4132e-15 
5.5377e-16 1.33245e-15 -4.4132e-15 
5.5377e-16 1.33245e-15 -4.4132e-15 
1.06936e-15 -2.26259e-15 -1.13687e-15 
1.06936e-15 -2.26259e-15 -1.13687e-15 
1.06936e-15 -2.26259e-15 -1.13687e-15 
1.06936e-15 -2.26259e-15 -1.13687e-15 
8.06104e-16 3.85759e-16 2.83516e-15 
8.06104e-16 3.85759e-16 2.83516e-15 
8.06104e-16 3.85759e-16 2.83516e-15 
8.06104e-16 3.85759e-16 2.83516e-15 
-7.28848e-18 -2.01538e-15 8.77028e-15 
-7.28848e-18 -2.01538e-15 8.77028e-15 
-7.28848e-18 -2.01538e-15 8.77028e-15 
-7.28848e-18 -2.01538e-15 8.77028e-15 
2.216e-15 -1.16698e-14 5.41934e-16 
2.216e-15 -1.16698e-14 5.41934e-16 
2.216e-15 -1.16698e-14 5.41934e-16 
2.216e-15 -1.16698e-14 5.41934e-16 
5.78519e-15 -9.15372e-16 -7.75777e-16 
5.78519e-15 -9.15372e-16 -7.75777e-16 
5.78519e-15 -9.15372e-16 -7.75777e-16 
5.78519e-15 -9.15372e-16 -7.75777e-16 
1.498e-14 -1.2673e-14 -1.97767e-14 
1.498e-14 -1.2673e-14 -1.97767e-14 
1.498e-14 -1.2673e-14 -1.97767e-14 
1.498e-14 -1.2673e-14 -1.97767e-14 
8.78252e-15 -6.04664e-15 -4.72102e-15 
8.78252e-15 -6.04664e-15 -4.72102e-15 
8.78252e-15 -6.04664e-15 -4.72102e-15 
8.78252e-15 -6.04664e-15 -4.72102e-15 
-3.1614e-15 -1.97628e-15 -7.93031e-16 
-3.1614e-15 -1.97628e-15 -7.93031e-16 
-3.1614e-15 -1.97628e-15 -7.93031e-16 
-3.1614e-15 -1.97628e-15 -7.93031e-16 
3.62714e-15 -9.56741e-16 1.63255e-15 
3.62714e-15 -9.56741e-16 1.63255e-15 
3.62714e-15 -9.56741e-16 1.63255e-15 
3.62714e-15 -9.56741e-16 1.63255e-15 
6.17578e-15 -1.52312e-15 -1.48477e-15 
6.17578e-15 -1.52312e-15 -1.48477e-15 
6.17578e-15 -1.52312e-15 -1.48477e-15 
6.17578e-15 -1.52312e-15 -1.48477e-15 
6.34796e-15 6.599e-15 -1.72806e-15 
6.34796e-15 6.599e-15 -1.72806e-15 
6.34796e-15 6.599e-15 -1.72806e-15 
6.34796e-15 6.599e-15 -1.72806e-15 
-6.29172e-15 1.06998e-15 3.43238e-15 
-6.29172e-15 1.06998e-15 3.43238e-15 
-6.29172e-15 1.06998e-15 3.43238e-15 
-6.29172e-15 1.06998e-15 3.43238e-15 
-4.3104e-15 -7.98396e-16 -1.4432e-15 
-4.3104e-15 -7.98396e-16 -1.4432e-15 
-4.3104e-15 -7.98396e-16 -1.4432e-15 
-4.3104e-15 -7.98396e-16 -1.4432e-15 
-1.50167e-14 1.76851e-14 2.93855e-14 
-1.50167e-14 1.76851e-14 2.93855e-14 
-1.50167e-14 1.76851e-14 2.93855e-14 
-1.50167e-14 1.76851e-14 2.93855e-14 
7.23678e-15 6.21584e-15 -1.51809e-15 
7.23678e-15 6.21584e-15 -1.51809e-15 
7.23678e-15 6.21584e-15 -1.51809e-15 
7.23678e-15 6.21584e-15 -1.51809e-15 
3.96326e-18 -5.44964e-15 -7.78694e-16 
3.96326e-18 -5.44964e-15 -7.78694e-16 
3.96326e-18 -5.44964e-15 -7.78694e-16 
3.96326e-18 -5.44964e-15 -7.78694e-16 
-3.84489e-15 -4.96859e-15 -1.40265e-15 
-3.84489e-15 -4.96859e-15 -1.40265e-15 
-3.84489e-15 -4.96859e-15 -1.40265e-15 
-3.84489e-15 -4.96859e-15 -1.40265e-15 
-1.60502e-16 -2.34348e-15 -1.41558e-15 
-1.60502e-16 -2.34348e-15 -1.41558e-15 
-1.60502e-16 -2.34348e-15 -1.41558e-15 
-1.60502e-16 -2.34348e-15 -1.41558e-15 
-7.35731e-15 3.56114e-15 -4.027e-15 
-7.35731e-15 3.56114e-15 -4.027e-15 
-7.35731e-15 3.56114e-15 -4.027e-15 
-7.35731e-15 3.56114e-15 -4.027e-15 
-6.78114e-15 -3.72613e-15 5.68436e-15 
-6.78114e-15 -3.72613e-15 5.68436e-15 
-6.78114e-15 -3.72613e-15 5.68436e-15 
-6.78114e-15 -3.72613e-15 5.68436e-15 
1.11509e-15 -1.84097e-15 5.02135e-15 
1.11509e-15 -1.84097e-15 5.02135e-15 
1.11509e-15 -1.84097e-15 5.02135e-15 
1.11509e-15 -1.84097e-15 5.02135e-15 
3.42172e-16 3.83308e-15 -3.21861e-16 
3.42172e-16 3.83308e-15 -3.21861e-16 
3.42172e-16 3.83308e-15 -3.21861e-16 
3.42172e-16 3.83308e-15 -3.21861e-16 
6.00948e-15 2.55942e-15 -1.56723e-15 
6.00948e-15 2.55942e-15 -1.56723e-15 
6.00948e-15 2.55942e-15 -1.56723e-15 
6.00948e-15 2.55942e-15 -1.56723e-15 
-3.59842e-15 -1.211e-15 5.75619e-15 
-3.59842e-15 -1.211e-15 5.75619e-15 
-3.59842e-15 -1.211e-15 5.75619e-15 
-3.59842e-15 -1.211e-15 5.75619e-15 
1.50662e-16 4.05328e-15 -4.10529e-15 
1.50662e-16 4.05328e-15 -4.10529e-15 
1.50662e-16 4.05328e-15 -4.10529e-15 
1.50662e-16 4.05328e-15 -4.10529e-15 
1.03598e-14 7.25038e-15 -3.58317e-16 
1.03598e-14 7.25038e-15 -3.58317e-16 
1.03598e-14 7.25038e-15 -3.58317e-16 
1.03598e-14 7.25038e-15 -3.58317e-16 
-7.6808e-15 1.4193e-14 9.03646e-15 
-7.6808e-15 1.4193e-14 9.03646e-15 
-7.6808e-15 1.4193e-14 9.03646e-15 
-7.6808e-15 1.4193e-14 9.03646e-15 
-3.88549e-16 1.61518e-15 3.61764e-15 
-3.88549e-16 1.61518e-15 3.61764e-15 
-3.88549e-16 1.61518e-15 3.61764e-15 
-3.88549e-16 1.61518e-15 3.61764e-15 
4.84888e-16 5.14555e-17 -3.81665e-16 
4.84888e-16 5.14555e-17 -3.81665e-16 
4.84888e-16 5.14555e-17 -3.81665e-16 
4.84888e-16 5.14555e-17 -3.81665e-16 
-2.56333e-15 -5.82318e-15 -3.18577e-15 
-2.56333e-15 -5.82318e-15 -3.18577e-15 
-2.56333e-15 -5.82318e-15 -3.18577e-15 
-2.56333e-15 -5.82318e-15 -3.18577e-15 
3.50377e-16 -9.21798e-17 4.46519e-15 
3.50377e-16 -9.21798e-17 4.46519e-15 
3.50377e-16 -9.21798e-17 4.46519e-15 
3.50377e-16 -9.21798e-17 4.46519e-15 
-3.31921e-15 6.63214e-15 1.94665e-15 
-3.31921e-15 6.63214e-15 1.94665e-15 
-3.31921e-15 6.63214e-15 1.94665e-15 
-3.31921e-15 6.63214e-15 1.94665e-15 
-1.11496e-15 -1.74363e-15 -7.00227e-16 
-1.11496e-15 -1.74363e-15 -7.00227e-16 
-1.11496e-15 -1.74363e-15 -7.00227e-16 
-1.11496e-15 -1.74363e-15 -7.00227e-16 
-4.28656e-15 -4.2122e-15 1.26622e-15 
-4.28656e-15 -4.2122e-15 1.26622e-15 
-4.28656e-15 -4.2122e-15 1.26622e-15 
-4.28656e-15 -4.2122e-15 1.26622e-15 
-5.49485e-15 -3.2922e-15 -8.64519e-15 
-5.49485e-15 -3.2922e-15 -8.64519e-15 
-5.49485e-15 -3.2922e-15 -8.64519e-15 
-5.49485e-15 -3.2922e-15 -8.64519e-15 
7.05569e-16 -8.62278e-15 3.53004e-15 
7.05569e-16 -8.62278e-15 3.53004e-15 
7.05569e-16 -8.62278e-15 3.53004e-15 
7.05569e-16 -8.62278e-15 3.53004e-15 
-3.47912e-15 -3.65352e-15 -6.34564e-15 
-3.47912e-15 -3.65352e-15 -6.34564e-15 
-3.47912e-15 -3.65352e-15 -6.34564e-15 
-3.47912e-15 -3.65352e-15 -6.34564e-15 
5.7428e-15 -6.78326e-15 5.66142e-15 
5.7428e-15 -6.78326e-15 5.66142e-15 
5.7428e-15 -6.78326e-15 5.66142e-15 
5.7428e-15 -6.78326e-15 5.66142e-15 
-1.57464e-15 -5.72284e-15 -1.17719e-16 
-1.57464e-15 -5.72284e-15 -1.17719e-16 
-1.57464e-15 -5.72284e-15 -1.17719e-16 
-1.57464e-15 -5.72284e-15 -1.17719e-16 
1.07591e-15 2.71254e-16 5.01303e-17 
1.07591e-15 2.71254e-16 5.01303e-17 
1.07591e-15 2.71254e-16 5.01303e-17 
1.07591e-15 2.71254e-16 5.01303e-17 
-4.28532e-15 -4.81961e-15 -6.59818e-15 
-4.28532e-15 -4.81961e-15 -6.59818e-15 
-4.28532e-15 -4.81961e-15 -6.59818e-15 
-4.28532e-15 -4.81961e-15 -6.59818e-15 
6.58071e-17 7.6547e-16 3.45211e-15 
6.58071e-17 7.6547e-16 3.45211e-15 
6.58071e-17 7.6547e-16 3.45211e-15 
6.58071e-17 7.6547e-16 3.45211e-15 
6.1617e-16 -1.06726e-14 3.85054e-15 
6.1617e-16 -1.06726e-14 3.85054e-15 
6.1617e-16 -1.06726e-14 3.85054e-15 
6.1617e-16 -1.06726e-14 3.85054e-15 
8.83558e-15 -3.24215e-15 9.47374e-15 
8.83558e-15 -3.24215e-15 9.47374e-15 
8.83558e-15 -3.24215e-15 9.47374e-15 
8.83558e-15 -3.24215e-15 9.47374e-15 
6.91393e-15 4.32225e-15 1.04493e-15 
6.91393e-15 4.32225e-15 1.04493e-15 
6.91393e-15 4.32225e-15 1.04493e-15 
6.91393e-15 4.32225e-15 1.04493e-15 
6.71367e-15 -3.03134e-16 -2.9068e-15 
6.71367e-15 -3.03134e-16 -2.9068e-15 
6.71367e-15 -3.03134e-16 -2.9068e-15 
6.71367e-15 -3.03134e-16 -2.9068e-15 
-1.94849e-14 -7.52835e-15 8.09907e-15 
-1.94849e-14 -7.52835e-15 8.09907e-15 
-1.94849e-14 -7.52835e-15 8.09907e-15 
-1.94849e-14 -7.52835e-15 8.09907e-15 
1.24261e-15 3.30591e-15 -3.60977e-16 
1.24261e-15 3.30591e-15 -3.60977e-16 
1.24261e-15 3.30591e-15 -3.60977e-16 
1.24261e-15 3.30591e-15 -3.60977e-16 
-1.96154e-15 2.03334e-16 -5.2821e-15 
-1.96154e-15 2.03334e-16 -5.2821e-15 
-1.96154e-15 2.03334e-16 -5.2821e-15 
-1.96154e-15 2.03334e-16 -5.2821e-15 
-1.80018e-15 -4.7553e-15 9.27609e-16 
-1.80018e-15 -4.7553e-15 9.27609e-16 
-1.80018e-15 -4.7553e-15 9.27609e-16 
-1.80018e-15 -4.7553e-15 9.27609e-16 
2.57358e-15 -4.97405e-15 5.03833e-15 
2.57358e-15 -4.97405e-15 5.03833e-15 
2.57358e-15 -4.97405e-15 5.03833e-15 
2.57358e-15 -4.97405e-15 5.03833e-15 
3.88831e-15 1.40563e-15 -3.9851e-15 
3.88831e-15 1.40563e-15 -3.9851e-15 
3.88831e-15 1.40563e-15 -3.9851e-15 
3.88831e-15 1.40563e-15 -3.9851e-15 
-7.65117e-16 -9.56537e-15 2.04466e-15 
-7.65117e-16 -9.56537e-15 2.04466e-15 
-7.65117e-16 -9.56537e-15 2.04466e-15 
-7.65117e-16 -9.56537e-15 2.04466e-15 
-1.52499e-15 8.19123e-15 -1.63407e-16 
-1.52499e-15 8.19123e-15 -1.63407e-16 
-1.52499e-15 8.19123e-15 -1.63407e-16 
-1.52499e-15 8.19123e-15 -1.63407e-16 
-7.69113e-16 1.09409e-16 5.79067e-15 
-7.69113e-16 1.09409e-16 5.79067e-15 
-7.69113e-16 1.09409e-16 5.79067e-15 
-7.69113e-16 1.09409e-16 5.79067e-15 
-9.28629e-16 1.17258e-16 2.22565e-15 
-9.28629e-16 1.17258e-16 2.22565e-15 
-9.28629e-16 1.17258e-16 2.22565e-15 
-9.28629e-16 1.17258e-16 2.22565e-15 
-5.39641e-15 1.21918e-14 7.50378e-15 
-5.39641e-15 1.21918e-14 7.50378e-15 
-5.39641e-15 1.21918e-14 7.50378e-15 
-5.39641e-15 1.21918e-14 7.50378e-15 
-2.37557e-15 3.34292e-15 -1.20019e-15 
-2.37557e-15 3.34292e-15 -1.20019e-15 
-2.37557e-15 3.34292e-15 -1.20019e-15 
-2.37557e-15 3.34292e-15 -1.20019e-15 
3.95932e-15 3.39739e-15 -2.42304e-15 
3.95932e-15 3.39739e-15 -2.42304e-15 
3.95932e-15 3.39739e-15 -2.42304e-15 
3.95932e-15 3.39739e-15 -2.42304e-15 
4.12076e-15 4.25689e-15 1.3844e-15 
4.12076e-15 4.25689e-15 1.3844e-15 
4.12076e-15 4.25689e-15 1.3844e-15 
4.12076e-15 4.25689e-15 1.3844e-15 
-3.45131e-15 1.583e-15 -2.76459e-15 
-3.45131e-15 1.583e-15 -2.76459e-15 
-3.45131e-15 1.583e-15 -2.76459e-15 
-3.45131e-15 1.583e-15 -2.76459e-15 
-1.54594e-14 7.97684e-15 -4.8194e-15 
-1.54594e-14 7.97684e-15 -4.8194e-15 
-1.54594e-14 7.97684e-15 -4.8194e-15 
-1.54594e-14 7.97684e-15 -4.8194e-15 
-4.63259e-15 6.76004e-15 1.64073e-15 
-4.63259e-15 6.76004e-15 1.64073e-15 
-4.63259e-15 6.76004e-15 1.64073e-15 
-4.63259e-15 6.76004e-15 1.64073e-15 
-2.98341e-15 -3.68907e-16 -4.71811e-15 
-2.98341e-15 -3.68907e-16 -4.71811e-15 
-2.98341e-15 -3.68907e-16 -4.71811e-15 
-2.98341e-15 -3.68907e-16 -4.71811e-15 
5.89745e-16 3.90172e-15 2.8324e-15 
5.89745e-16 3.90172e-15 2.8324e-15 
5.89745e-16 3.90172e-15 2.8324e-15 
5.89745e-16 3.90172e-15 2.8324e-15 
4.59068e-15 -5.89022e-15 1.52898e-15 
4.59068e-15 -5.89022e-15 1.52898e-15 
4.59068e-15 -5.89022e-15 1.52898e-15 
4.59068e-15 -5.89022e-15 1.52898e-15 
-5.90654e-15 1.50247e-15 -7.70114e-16 
-5.90654e-15 1.50247e-15 -7.70114e-16 
-5.90654e-15 1.50247e-15 -7.70114e-16 
-5.90654e-15 1.50247e-15 -7.70114e-16 
-1.52603e-17 2.98272e-16 2.22045e-15 
-1.52603e-17 2.98272e-16 2.22045e-15 
-1.52603e-17 2.98272e-16 2.22045e-15 
-1.52603e-17 2.98272e-16 2.22045e-15 
4.62773e-15 1.20665e-14 -1.53745e-15 
4.62773e-15 1.20665e-14 -1.53745e-15 
4.62773e-15 1.20665e-14 -1.53745e-15 
4.62773e-15 1.20665e-14 -1.53745e-15 
-1.40133e-16 -2.5359e-16 4.46085e-15 
-1.40133e-16 -2.5359e-16 4.46085e-15 
-1.40133e-16 -2.5359e-16 4.46085e-15 
-1.40133e-16 -2.5359e-16 4.46085e-15 
4.24431e-15 -6.21553e-15 1.56529e-15 
4.24431e-15 -6.21553e-15 1.56529e-15 
4.24431e-15 -6.21553e-15 1.56529e-15 
4.24431e-15 -6.21553e-15 1.56529e-15 
7.25508e-15 1.38469e-14 -1.60751e-15 
7.25508e-15 1.38469e-14 -1.60751e-15 
7.25508e-15 1.38469e-14 -1.60751e-15 
7.25508e-15 1.38469e-14 -1.60751e-15 
3.12924e-15 -1.71531e-16 1.18028e-15 
3.12924e-15 -1.71531e-16 1.18028e-15 
3.12924e-15 -1.71531e-16 1.18028e-15 
3.12924e-15 -1.71531e-16 1.18028e-15 
-1.34249e-15 2.31812e-16 -7.54542e-16 
-1.34249e-15 2.31812e-16 -7.54542e-16 
-1.34249e-15 2.31812e-16 -7.54542e-16 
-1.34249e-15 2.31812e-16 -7.54542e-16 
6.54388e-16 -4.20062e-16 4.57794e-15 
6.54388e-16 -4.20062e-16 4.57794e-15 
6.54388e-16 -4.20062e-16 4.57794e-15 
6.54388e-16 -4.20062e-16 4.57794e-15 
7.43806e-15 9.59218e-16 8.21038e-16 
7.43806e-15 9.59218e-16 8.21038e-16 
7.43806e-15 9.59218e-16 8.21038e-16 
7.43806e-15 9.59218e-16 8.21038e-16 
2.58789e-15 8.9527e-16 -3.65297e-16 
2.58789e-15 8.9527e-16 -3.65297e-16 
2.58789e-15 8.9527e-16 -3.65297e-16 
2.58789e-15 8.9527e-16 -3.65297e-16 
-3.32709e-15 -7.32965e-15 -1.47431e-15 
-3.32709e-15 -7.32965e-15 -1.47431e-15 
-3.32709e-15 -7.32965e-15 -1.47431e-15 
-3.32709e-15 -7.32965e-15 -1.47431e-15 
8.92907e-15 9.86857e-15 1.47075e-15 
8.92907e-15 9.86857e-15 1.47075e-15 
8.92907e-15 9.86857e-15 1.47075e-15 
8.92907e-15 9.86857e-15 1.47075e-15 
-1.76993e-15 5.0275e-15 1.3439e-14 
-1.76993e-15 5.0275e-15 1.3439e-14 
-1.76993e-15 5.0275e-15 1.3439e-14 
-1.76993e-15 5.0275e-15 1.3439e-14 
1.88844e-15 -7.81242e-15 -5.87913e-16 
1.88844e-15 -7.81242e-15 -5.87913e-16 
1.88844e-15 -7.81242e-15 -5.87913e-16 
1.88844e-15 -7.81242e-15 -5.87913e-16 
-2.10383e-16 1.52404e-15 1.48516e-15 
-2.10383e-16 1.52404e-15 1.48516e-15 
-2.10383e-16 1.52404e-15 1.48516e-15 
-2.10383e-16 1.52404e-15 1.48516e-15 
-1.24963e-15 -3.72415e-15 -6.07795e-15 
-1.24963e-15 -3.72415e-15 -6.07795e-15 
-1.24963e-15 -3.72415e-15 -6.07795e-15 
-1.24963e-15 -3.72415e-15 -6.07795e-15 
1.23547e-15 3.35223e-15 -1.62971e-16 
1.23547e-15 3.35223e-15 -1.62971e-16 
1.23547e-15 3.35223e-15 -1.62971e-16 
1.23547e-15 3.35223e-15 -1.62971e-16 
6.85011e-16 -3.48213e-16 2.00328e-15 
6.85011e-16 -3.48213e-16 2.00328e-15 
6.85011e-16 -3.48213e-16 2.00328e-15 
6.85011e-16 -3.48213e-16 2.00328e-15 
-1.90589e-15 5.36265e-16 1.94312e-15 
-1.90589e-15 5.36265e-16 1.94312e-15 
-1.90589e-15 5.36265e-16 1.94312e-15 
-1.90589e-15 5.36265e-16 1.94312e-15 
7.07393e-16 -1.81495e-15 -1.04213e-15 
7.07393e-16 -1.81495e-15 -1.04213e-15 
7.07393e-16 -1.81495e-15 -1.04213e-15 
7.07393e-16 -1.81495e-15 -1.04213e-15 
-3.13928e-15 -1.98583e-15 -7.06413e-15 
-3.13928e-15 -1.98583e-15 -7.06413e-15 
-3.13928e-15 -1.98583e-15 -7.06413e-15 
-3.13928e-15 -1.98583e-15 -7.06413e-15 
-1.91486e-16 1.24499e-17 4.44089e-15 
-1.91486e-16 1.24499e-17 4.44089e-15 
-1.91486e-16 1.24499e-17 4.44089e-15 
-1.91486e-16 1.24499e-17 4.44089e-15 
-2.92265e-15 3.11563e-15 1.91726e-16 
-2.92265e-15 3.11563e-15 1.91726e-16 
-2.92265e-15 3.11563e-15 1.91726e-16 
-2.92265e-15 3.11563e-15 1.91726e-16 
-7.24296e-15 -3.58439e-15 -1.30424e-15 
-7.24296e-15 -3.58439e-15 -1.30424e-15 
-7.24296e-15 -3.58439e-15 -1.30424e-15 
-7.24296e-15 -3.58439e-15 -1.30424e-15 
-7.88442e-16 4.2196e-15 5.22107e-15 
-7.88442e-16 4.2196e-15 5.22107e-15 
-7.88442e-16 4.2196e-15 5.22107e-15 
-7.88442e-16 4.2196e-15 5.22107e-15 
-4.54283e-15 1.7943e-15 -2.02694e-15 
-4.54283e-15 1.7943e-15 -2.02694e-15 
-4.54283e-15 1.7943e-15 -2.02694e-15 
-4.54283e-15 1.7943e-15 -2.02694e-15 
2.69509e-15 5.23807e-15 5.46633e-16 
2.69509e-15 5.23807e-15 5.46633e-16 
2.69509e-15 5.23807e-15 5.46633e-16 
2.69509e-15 5.23807e-15 5.46633e-16 
-4.9788e-16 1.54992e-15 -3.71946e-15 
-4.9788e-16 1.54992e-15 -3.71946e-15 
-4.9788e-16 1.54992e-15 -3.71946e-15 
-4.9788e-16 1.54992e-15 -3.71946e-15 
3.67055e-17 2.03681e-16 2.22045e-15 
3.67055e-17 2.03681e-16 2.22045e-15 
3.67055e-17 2.03681e-16 2.22045e-15 
3.67055e-17 2.03681e-16 2.22045e-15 
1.18926e-15 -6.22574e-16 3.44746e-15 
1.18926e-15 -6.22574e-16 3.44746e-15 
1.18926e-15 -6.22574e-16 3.44746e-15 
1.18926e-15 -6.22574e-16 3.44746e-15 
8.91101e-15 -6.81516e-15 -1.06509e-15 
8.91101e-15 -6.81516e-15 -1.06509e-15 
8.91101e-15 -6.81516e-15 -1.06509e-15 
8.91101e-15 -6.81516e-15 -1.06509e-15 
-1.84719e-15 -3.8022e-16 6.37011e-15 
-1.84719e-15 -3.8022e-16 6.37011e-15 
-1.84719e-15 -3.8022e-16 6.37011e-15 
-1.84719e-15 -3.8022e-16 6.37011e-15 
-9.84004e-16 -1.59076e-15 -8.66812e-16 
-9.84004e-16 -1.59076e-15 -8.66812e-16 
-9.84004e-16 -1.59076e-15 -8.66812e-16 
-9.84004e-16 -1.59076e-15 -8.66812e-16 
3.55788e-15 1.97971e-15 -2.30938e-15 
3.55788e-15 1.97971e-15 -2.30938e-15 
3.55788e-15 1.97971e-15 -2.30938e-15 
3.55788e-15 1.97971e-15 -2.30938e-15 
-1.35122e-15 -4.21292e-17 -3.72883e-17 
-1.35122e-15 -4.21292e-17 -3.72883e-17 
-1.35122e-15 -4.21292e-17 -3.72883e-17 
-1.35122e-15 -4.21292e-17 -3.72883e-17 
2.55132e-15 -2.30948e-15 1.65532e-15 
2.55132e-15 -2.30948e-15 1.65532e-15 
2.55132e-15 -2.30948e-15 1.65532e-15 
2.55132e-15 -2.30948e-15 1.65532e-15 
-6.95451e-15 -3.8146e-15 -1.49351e-15 
-6.95451e-15 -3.8146e-15 -1.49351e-15 
-6.95451e-15 -3.8146e-15 -1.49351e-15 
-6.95451e-15 -3.8146e-15 -1.49351e-15 
-2.2701e-15 3.27317e-15 1.37626e-14 
-2.2701e-15 3.27317e-15 1.37626e-14 
-2.2701e-15 3.27317e-15 1.37626e-14 
-2.2701e-15 3.27317e-15 1.37626e-14 
9.30306e-15 2.38767e-15 1.52539e-14 
9.30306e-15 2.38767e-15 1.52539e-14 
9.30306e-15 2.38767e-15 1.52539e-14 
9.30306e-15 2.38767e-15 1.52539e-14 
6.33794e-15 3.91327e-15 -3.68744e-16 
6.33794e-15 3.91327e-15 -3.68744e-16 
6.33794e-15 3.91327e-15 -3.68744e-16 
6.33794e-15 3.91327e-15 -3.68744e-16 
1.0961e-15 4.89024e-15 1.30079e-14 
1.0961e-15 4.89024e-15 1.30079e-14 
1.0961e-15 4.89024e-15 1.30079e-14 
1.0961e-15 4.89024e-15 1.30079e-14 
-3.51474e-15 -2.06605e-15 9.03103e-15 
-3.51474e-15 -2.06605e-15 9.03103e-15 
-3.51474e-15 -2.06605e-15 9.03103e-15 
-3.51474e-15 -2.06605e-15 9.03103e-15 
4.93274e-15 -5.33715e-16 7.46653e-15 
4.93274e-15 -5.33715e-16 7.46653e-15 
4.93274e-15 -5.33715e-16 7.46653e-15 
4.93274e-15 -5.33715e-16 7.46653e-15 
1.44744e-15 5.88727e-16 -4.76812e-15 
1.44744e-15 5.88727e-16 -4.76812e-15 
1.44744e-15 5.88727e-16 -4.76812e-15 
1.44744e-15 5.88727e-16 -4.76812e-15 
5.72668e-15 -2.66664e-15 1.17533e-14 
5.72668e-15 -2.66664e-15 1.17533e-14 
5.72668e-15 -2.66664e-15 1.17533e-14 
5.72668e-15 -2.66664e-15 1.17533e-14 
-3.43832e-15 1.05544e-15 -2.16496e-15 
-3.43832e-15 1.05544e-15 -2.16496e-15 
-3.43832e-15 1.05544e-15 -2.16496e-15 
-3.43832e-15 1.05544e-15 -2.16496e-15 
2.25939e-15 2.84767e-15 7.59203e-15 
2.25939e-15 2.84767e-15 7.59203e-15 
2.25939e-15 2.84767e-15 7.59203e-15 
2.25939e-15 2.84767e-15 7.59203e-15 
4.27749e-16 -1.09856e-15 1.01444e-15 
4.27749e-16 -1.09856e-15 1.01444e-15 
4.27749e-16 -1.09856e-15 1.01444e-15 
4.27749e-16 -1.09856e-15 1.01444e-15 
-7.64965e-15 4.04753e-15 6.41407e-15 
-7.64965e-15 4.04753e-15 6.41407e-15 
-7.64965e-15 4.04753e-15 6.41407e-15 
-7.64965e-15 4.04753e-15 6.41407e-15 
7.07149e-15 -6.07211e-15 -4.48776e-15 
7.07149e-15 -6.07211e-15 -4.48776e-15 
7.07149e-15 -6.07211e-15 -4.48776e-15 
7.07149e-15 -6.07211e-15 -4.48776e-15 
3.53679e-16 -1.82659e-15 7.37875e-16 
3.53679e-16 -1.82659e-15 7.37875e-16 
3.53679e-16 -1.82659e-15 7.37875e-16 
3.53679e-16 -1.82659e-15 7.37875e-16 
-4.64666e-17 -1.72489e-16 0 
-4.64666e-17 -1.72489e-16 0 
-4.64666e-17 -1.72489e-16 0 
-4.64666e-17 -1.72489e-16 0 
-2.07508e-15 -1.96733e-15 2.19363e-15 
-2.07508e-15 -1.96733e-15 2.19363e-15 
-2.07508e-15 -1.96733e-15 2.19363e-15 
-2.07508e-15 -1.96733e-15 2.19363e-15 
-2.16507e-15 3.26818e-15 1.66189e-15 
-2.16507e-15 3.26818e-15 1.66189e-15 
-2.16507e-15 3.26818e-15 1.66189e-15 
-2.16507e-15 3.26818e-15 1.66189e-15 
-1.63861e-15 -3.96183e-16 -8.81005e-15 
-1.63861e-15 -3.96183e-16 -8.81005e-15 
-1.63861e-15 -3.96183e-16 -8.81005e-15 
-1.63861e-15 -3.96183e-16 -8.81005e-15 
-4.03667e-15 7.8113e-15 2.4315e-15 
-4.03667e-15 7.8113e-15 2.4315e-15 
-4.03667e-15 7.8113e-15 2.4315e-15 
-4.03667e-15 7.8113e-15 2.4315e-15 
4.19984e-15 -8.01461e-15 1.68209e-15 
4.19984e-15 -8.01461e-15 1.68209e-15 
4.19984e-15 -8.01461e-15 1.68209e-15 
4.19984e-15 -8.01461e-15 1.68209e-15 
5.41575e-16 2.36454e-15 8.25089e-15 
5.41575e-16 2.36454e-15 8.25089e-15 
5.41575e-16 2.36454e-15 8.25089e-15 
5.41575e-16 2.36454e-15 8.25089e-15 
1.23007e-14 1.76308e-15 -5.8879e-15 
1.23007e-14 1.76308e-15 -5.8879e-15 
1.23007e-14 1.76308e-15 -5.8879e-15 
1.23007e-14 1.76308e-15 -5.8879e-15 
-4.61305e-17 -5.79313e-15 6.23353e-15 
-4.61305e-17 -5.79313e-15 6.23353e-15 
-4.61305e-17 -5.79313e-15 6.23353e-15 
-4.61305e-17 -5.79313e-15 6.23353e-15 
-4.94401e-16 -1.41291e-15 -3.03232e-15 
-4.94401e-16 -1.41291e-15 -3.03232e-15 
-4.94401e-16 -1.41291e-15 -3.03232e-15 
-4.94401e-16 -1.41291e-15 -3.03232e-15 
6.778e-16 5.34173e-16 5.4065e-16 
6.778e-16 5.34173e-16 5.4065e-16 
6.778e-16 5.34173e-16 5.4065e-16 
6.778e-16 5.34173e-16 5.4065e-16 
1.00701e-14 -2.6271e-15 -1.9806e-15 
1.00701e-14 -2.6271e-15 -1.9806e-15 
1.00701e-14 -2.6271e-15 -1.9806e-15 
1.00701e-14 -2.6271e-15 -1.9806e-15 
-3.78286e-15 -4.60652e-15 -1.77016e-15 
-3.78286e-15 -4.60652e-15 -1.77016e-15 
-3.78286e-15 -4.60652e-15 -1.77016e-15 
-3.78286e-15 -4.60652e-15 -1.77016e-15 
2.78515e-15 -3.82419e-15 -4.69174e-15 
2.78515e-15 -3.82419e-15 -4.69174e-15 
2.78515e-15 -3.82419e-15 -4.69174e-15 
2.78515e-15 -3.82419e-15 -4.69174e-15 
1.81389e-15 -1.12792e-15 1.24663e-15 
1.81389e-15 -1.12792e-15 1.24663e-15 
1.81389e-15 -1.12792e-15 1.24663e-15 
1.81389e-15 -1.12792e-15 1.24663e-15 
8.93322e-16 -1.25183e-16 1.04761e-15 
8.93322e-16 -1.25183e-16 1.04761e-15 
8.93322e-16 -1.25183e-16 1.04761e-15 
8.93322e-16 -1.25183e-16 1.04761e-15 
7.18194e-16 -2.17744e-15 4.99723e-16 
7.18194e-16 -2.17744e-15 4.99723e-16 
7.18194e-16 -2.17744e-15 4.99723e-16 
7.18194e-16 -2.17744e-15 4.99723e-16 
7.1222e-15 4.03192e-15 1.1199e-15 
7.1222e-15 4.03192e-15 1.1199e-15 
7.1222e-15 4.03192e-15 1.1199e-15 
7.1222e-15 4.03192e-15 1.1199e-15 
-5.68715e-16 7.01964e-16 -8.68522e-16 
-5.68715e-16 7.01964e-16 -8.68522e-16 
-5.68715e-16 7.01964e-16 -8.68522e-16 
-5.68715e-16 7.01964e-16 -8.68522e-16 
1.37669e-15 4.31503e-15 1.61783e-14 
1.37669e-15 4.31503e-15 1.61783e-14 
1.37669e-15 4.31503e-15 1.61783e-14 
1.37669e-15 4.31503e-15 1.61783e-14 
-6.73849e-15 7.17689e-15 1.67302e-15 
-6.73849e-15 7.17689e-15 1.67302e-15 
-6.73849e-15 7.17689e-15 1.67302e-15 
-6.73849e-15 7.17689e-15 1.67302e-15 
1.46558e-15 -4.95202e-15 1.40708e-15 
1.46558e-15 -4.95202e-15 1.40708e-15 
1.46558e-15 -4.95202e-15 1.40708e-15 
1.46558e-15 -4.95202e-15 1.40708e-15 
-4.26566e-15 -5.68204e-15 -8.63856e-15 
-4.26566e-15 -5.68204e-15 -8.63856e-15 
-4.26566e-15 -5.68204e-15 -8.63856e-15 
-4.26566e-15 -5.68204e-15 -8.63856e-15 
7.2717e-16 4.99139e-15 -9.09881e-16 
7.2717e-16 4.99139e-15 -9.09881e-16 
7.2717e-16 4.99139e-15 -9.09881e-16 
7.2717e-16 4.99139e-15 -9.09881e-16 
-3.0377e-15 7.48257e-15 -5.19382e-15 
-3.0377e-15 7.48257e-15 -5.19382e-15 
-3.0377e-15 7.48257e-15 -5.19382e-15 
-3.0377e-15 7.48257e-15 -5.19382e-15 
-2.22136e-15 -5.99918e-15 -4.96425e-15 
-2.22136e-15 -5.99918e-15 -4.96425e-15 
-2.22136e-15 -5.99918e-15 -4.96425e-15 
-2.22136e-15 -5.99918e-15 -4.96425e-15 
-1.14348e-15 4.60484e-17 1.30844e-16 
-1.14348e-15 4.60484e-17 1.30844e-16 
-1.14348e-15 4.60484e-17 1.30844e-16 
-1.14348e-15 4.60484e-17 1.30844e-16 
5.04384e-15 2.07561e-15 4.36371e-15 
5.04384e-15 2.07561e-15 4.36371e-15 
5.04384e-15 2.07561e-15 4.36371e-15 
5.04384e-15 2.07561e-15 4.36371e-15 
5.73199e-15 2.76459e-15 1.31002e-15 
5.73199e-15 2.76459e-15 1.31002e-15 
5.73199e-15 2.76459e-15 1.31002e-15 
5.73199e-15 2.76459e-15 1.31002e-15 
-2.99023e-16 2.19426e-15 -6.85037e-15 
-2.99023e-16 2.19426e-15 -6.85037e-15 
-2.99023e-16 2.19426e-15 -6.85037e-15 
-2.99023e-16 2.19426e-15 -6.85037e-15 
-2.64397e-15 8.51552e-16 -7.88864e-15 
-2.64397e-15 8.51552e-16 -7.88864e-15 
-2.64397e-15 8.51552e-16 -7.88864e-15 
-2.64397e-15 8.51552e-16 -7.88864e-15 
-5.32139e-15 -6.20963e-15 3.30531e-15 
-5.32139e-15 -6.20963e-15 3.30531e-15 
-5.32139e-15 -6.20963e-15 3.30531e-15 
-5.32139e-15 -6.20963e-15 3.30531e-15 
5.63489e-16 -4.51324e-15 4.52136e-15 
5.63489e-16 -4.51324e-15 4.52136e-15 
5.63489e-16 -4.51324e-15 4.52136e-15 
5.63489e-16 -4.51324e-15 4.52136e-15 
-1.59858e-15 1.03029e-16 6.34923e-15 
-1.59858e-15 1.03029e-16 6.34923e-15 
-1.59858e-15 1.03029e-16 6.34923e-15 
-1.59858e-15 1.03029e-16 6.34923e-15 
-1.04953e-14 5.38382e-15 7.01534e-15 
-1.04953e-14 5.38382e-15 7.01534e-15 
-1.04953e-14 5.38382e-15 7.01534e-15 
-1.04953e-14 5.38382e-15 7.01534e-15 
-1.42752e-17 1.43794e-15 1.1255e-16 
-1.42752e-17 1.43794e-15 1.1255e-16 
-1.42752e-17 1.43794e-15 1.1255e-16 
-1.42752e-17 1.43794e-15 1.1255e-16 
2.2794e-15 -2.54566e-15 7.54555e-15 
2.2794e-15 -2.54566e-15 7.54555e-15 
2.2794e-15 -2.54566e-15 7.54555e-15 
2.2794e-15 -2.54566e-15 7.54555e-15 
7.14729e-15 7.8257e-15 1.32602e-14 
7.14729e-15 7.8257e-15 1.32602e-14 
7.14729e-15 7.8257e-15 1.32602e-14 
7.14729e-15 7.8257e-15 1.32602e-14 
-1.55816e-15 6.21841e-16 -5.25701e-15 
-1.55816e-15 6.21841e-16 -5.25701e-15 
-1.55816e-15 6.21841e-16 -5.25701e-15 
-1.55816e-15 6.21841e-16 -5.25701e-15 
-9.74146e-15 5.27824e-16 8.93441e-15 
-9.74146e-15 5.27824e-16 8.93441e-15 
-9.74146e-15 5.27824e-16 8.93441e-15 
-9.74146e-15 5.27824e-16 8.93441e-15 
6.1958e-16 3.67593e-15 -1.32507e-15 
6.1958e-16 3.67593e-15 -1.32507e-15 
6.1958e-16 3.67593e-15 -1.32507e-15 
6.1958e-16 3.67593e-15 -1.32507e-15 
2.65687e-15 4.86724e-15 3.1681e-15 
2.65687e-15 4.86724e-15 3.1681e-15 
2.65687e-15 4.86724e-15 3.1681e-15 
2.65687e-15 4.86724e-15 3.1681e-15 
-7.66108e-15 -9.29602e-16 -4.09873e-16 
-7.66108e-15 -9.29602e-16 -4.09873e-16 
-7.66108e-15 -9.29602e-16 -4.09873e-16 
-7.66108e-15 -9.29602e-16 -4.09873e-16 
6.17948e-17 -4.16277e-16 0 
6.17948e-17 -4.16277e-16 0 
6.17948e-17 -4.16277e-16 0 
6.17948e-17 -4.16277e-16 0 
1.08018e-14 -5.54856e-15 -1.23032e-15 
1.08018e-14 -5.54856e-15 -1.23032e-15 
1.08018e-14 -5.54856e-15 -1.23032e-15 
1.08018e-14 -5.54856e-15 -1.23032e-15 
-3.61438e-15 2.78929e-15 -3.67159e-15 
-3.61438e-15 2.78929e-15 -3.67159e-15 
-3.61438e-15 2.78929e-15 -3.67159e-15 
-3.61438e-15 2.78929e-15 -3.67159e-15 
2.14496e-15 -2.33719e-15 9.59802e-15 
2.14496e-15 -2.33719e-15 9.59802e-15 
2.14496e-15 -2.33719e-15 9.59802e-15 
2.14496e-15 -2.33719e-15 9.59802e-15 
-7.41285e-15 -3.95234e-15 1.22945e-15 
-7.41285e-15 -3.95234e-15 1.22945e-15 
-7.41285e-15 -3.95234e-15 1.22945e-15 
-7.41285e-15 -3.95234e-15 1.22945e-15 
-1.25301e-14 3.49155e-15 -1.53365e-14 
-1.25301e-14 3.49155e-15 -1.53365e-14 
-1.25301e-14 3.49155e-15 -1.53365e-14 
-1.25301e-14 3.49155e-15 -1.53365e-14 
-2.42364e-15 6.62585e-15 8.15525e-15 
-2.42364e-15 6.62585e-15 8.15525e-15 
-2.42364e-15 6.62585e-15 8.15525e-15 
-2.42364e-15 6.62585e-15 8.15525e-15 
8.11917e-15 -5.99991e-15 1.19308e-14 
8.11917e-15 -5.99991e-15 1.19308e-14 
8.11917e-15 -5.99991e-15 1.19308e-14 
8.11917e-15 -5.99991e-15 1.19308e-14 
-1.34881e-15 7.36555e-16 -7.36372e-15 
-1.34881e-15 7.36555e-16 -7.36372e-15 
-1.34881e-15 7.36555e-16 -7.36372e-15 
-1.34881e-15 7.36555e-16 -7.36372e-15 
1.74026e-16 4.94181e-16 1.92363e-15 
1.74026e-16 4.94181e-16 1.92363e-15 
1.74026e-16 4.94181e-16 1.92363e-15 
1.74026e-16 4.94181e-16 1.92363e-15 
-1.04352e-14 5.04743e-15 6.75402e-15 
-1.04352e-14 5.04743e-15 6.75402e-15 
-1.04352e-14 5.04743e-15 6.75402e-15 
-1.04352e-14 5.04743e-15 6.75402e-15 
-2.74401e-15 1.38523e-15 -7.17854e-15 
-2.74401e-15 1.38523e-15 -7.17854e-15 
-2.74401e-15 1.38523e-15 -7.17854e-15 
-2.74401e-15 1.38523e-15 -7.17854e-15 
9.24628e-15 -1.2811e-14 1.73582e-14 
9.24628e-15 -1.2811e-14 1.73582e-14 
9.24628e-15 -1.2811e-14 1.73582e-14 
9.24628e-15 -1.2811e-14 1.73582e-14 
5.72938e-16 -4.14114e-16 4.74143e-15 
5.72938e-16 -4.14114e-16 4.74143e-15 
5.72938e-16 -4.14114e-16 4.74143e-15 
5.72938e-16 -4.14114e-16 4.74143e-15 
-3.8084e-15 4.74681e-15 -1.26869e-15 
-3.8084e-15 4.74681e-15 -1.26869e-15 
-3.8084e-15 4.74681e-15 -1.26869e-15 
-3.8084e-15 4.74681e-15 -1.26869e-15 
-3.72418e-15 -1.84883e-15 8.65173e-15 
-3.72418e-15 -1.84883e-15 8.65173e-15 
-3.72418e-15 -1.84883e-15 8.65173e-15 
-3.72418e-15 -1.84883e-15 8.65173e-15 
-1.34372e-15 1.87178e-15 5.52032e-15 
-1.34372e-15 1.87178e-15 5.52032e-15 
-1.34372e-15 1.87178e-15 5.52032e-15 
-1.34372e-15 1.87178e-15 5.52032e-15 
-2.76653e-16 1.79231e-16 -4.47943e-15 
-2.76653e-16 1.79231e-16 -4.47943e-15 
-2.76653e-16 1.79231e-16 -4.47943e-15 
-2.76653e-16 1.79231e-16 -4.47943e-15 
-3.58698e-15 7.49747e-15 -4.1013e-15 
-3.58698e-15 7.49747e-15 -4.1013e-15 
-3.58698e-15 7.49747e-15 -4.1013e-15 
-3.58698e-15 7.49747e-15 -4.1013e-15 
-5.93231e-16 6.11433e-15 8.69456e-15 
-5.93231e-16 6.11433e-15 8.69456e-15 
-5.93231e-16 6.11433e-15 8.69456e-15 
-5.93231e-16 6.11433e-15 8.69456e-15 
4.4552e-16 -4.00946e-16 -4.85599e-15 
4.4552e-16 -4.00946e-16 -4.85599e-15 
4.4552e-16 -4.00946e-16 -4.85599e-15 
4.4552e-16 -4.00946e-16 -4.85599e-15 
8.4558e-17 -1.72801e-15 -2.20413e-16 
8.4558e-17 -1.72801e-15 -2.20413e-16 
8.4558e-17 -1.72801e-15 -2.20413e-16 
8.4558e-17 -1.72801e-15 -2.20413e-16 
-1.25884e-16 -2.13013e-15 -9.48999e-16 
-1.25884e-16 -2.13013e-15 -9.48999e-16 
-1.25884e-16 -2.13013e-15 -9.48999e-16 
-1.25884e-16 -2.13013e-15 -9.48999e-16 
-3.72782e-16 -1.59355e-15 -8.29386e-15 
-3.72782e-16 -1.59355e-15 -8.29386e-15 
-3.72782e-16 -1.59355e-15 -8.29386e-15 
-3.72782e-16 -1.59355e-15 -8.29386e-15 
3.7422e-15 5.50067e-15 1.55756e-14 
3.7422e-15 5.50067e-15 1.55756e-14 
3.7422e-15 5.50067e-15 1.55756e-14 
3.7422e-15 5.50067e-15 1.55756e-14 
-1.41429e-14 -4.44915e-15 1.47752e-14 
-1.41429e-14 -4.44915e-15 1.47752e-14 
-1.41429e-14 -4.44915e-15 1.47752e-14 
-1.41429e-14 -4.44915e-15 1.47752e-14 
6.78706e-16 4.92697e-17 4.52866e-15 
6.78706e-16 4.92697e-17 4.52866e-15 
6.78706e-16 4.92697e-17 4.52866e-15 
6.78706e-16 4.92697e-17 4.52866e-15 
1.58093e-15 1.65743e-15 -3.41281e-15 
1.58093e-15 1.65743e-15 -3.41281e-15 
1.58093e-15 1.65743e-15 -3.41281e-15 
1.58093e-15 1.65743e-15 -3.41281e-15 
3.65541e-15 -4.48446e-15 5.36182e-15 
3.65541e-15 -4.48446e-15 5.36182e-15 
3.65541e-15 -4.48446e-15 5.36182e-15 
3.65541e-15 -4.48446e-15 5.36182e-15 
-1.29372e-15 -2.62637e-16 5.34208e-15 
-1.29372e-15 -2.62637e-16 5.34208e-15 
-1.29372e-15 -2.62637e-16 5.34208e-15 
-1.29372e-15 -2.62637e-16 5.34208e-15 
-1.61212e-15 1.7651e-16 3.01369e-15 
-1.61212e-15 1.7651e-16 3.01369e-15 
-1.61212e-15 1.7651e-16 3.01369e-15 
-1.61212e-15 1.7651e-16 3.01369e-15 
-1.58371e-16 -1.93208e-15 7.57294e-16 
-1.58371e-16 -1.93208e-15 7.57294e-16 
-1.58371e-16 -1.93208e-15 7.57294e-16 
-1.58371e-16 -1.93208e-15 7.57294e-16 
-1.93991e-16 4.03035e-16 4.44089e-15 
-1.93991e-16 4.03035e-16 4.44089e-15 
-1.93991e-16 4.03035e-16 4.44089e-15 
-1.93991e-16 4.03035e-16 4.44089e-15 
1.42787e-14 2.10106e-14 5.30129e-15 
1.42787e-14 2.10106e-14 5.30129e-15 
1.42787e-14 2.10106e-14 5.30129e-15 
1.42787e-14 2.10106e-14 5.30129e-15 
-4.15901e-15 -3.51242e-15 3.43838e-15 
-4.15901e-15 -3.51242e-15 3.43838e-15 
-4.15901e-15 -3.51242e-15 3.43838e-15 
-4.15901e-15 -3.51242e-15 3.43838e-15 
-1.25417e-15 1.99015e-15 2.63695e-15 
-1.25417e-15 1.99015e-15 2.63695e-15 
-1.25417e-15 1.99015e-15 2.63695e-15 
-1.25417e-15 1.99015e-15 2.63695e-15 
7.79466e-15 -3.22284e-15 -3.01005e-15 
7.79466e-15 -3.22284e-15 -3.01005e-15 
7.79466e-15 -3.22284e-15 -3.01005e-15 
7.79466e-15 -3.22284e-15 -3.01005e-15 
-4.70483e-16 -2.1944e-16 4.99213e-15 
-4.70483e-16 -2.1944e-16 4.99213e-15 
-4.70483e-16 -2.1944e-16 4.99213e-15 
-4.70483e-16 -2.1944e-16 4.99213e-15 
-1.27098e-15 -1.13854e-15 2.02607e-15 
-1.27098e-15 -1.13854e-15 2.02607e-15 
-1.27098e-15 -1.13854e-15 2.02607e-15 
-1.27098e-15 -1.13854e-15 2.02607e-15 
-8.87066e-15 9.06669e-15 3.51639e-15 
-8.87066e-15 9.06669e-15 3.51639e-15 
-8.87066e-15 9.06669e-15 3.51639e-15 
-8.87066e-15 9.06669e-15 3.51639e-15 
-2.84828e-15 -1.06921e-15 -3.28939e-15 
-2.84828e-15 -1.06921e-15 -3.28939e-15 
-2.84828e-15 -1.06921e-15 -3.28939e-15 
-2.84828e-15 -1.06921e-15 -3.28939e-15 
4.62714e-15 1.30317e-15 4.90055e-15 
4.62714e-15 1.30317e-15 4.90055e-15 
4.62714e-15 1.30317e-15 4.90055e-15 
4.62714e-15 1.30317e-15 4.90055e-15 
-6.61057e-16 -5.57279e-16 -5.54765e-16 
-6.61057e-16 -5.57279e-16 -5.54765e-16 
-6.61057e-16 -5.57279e-16 -5.54765e-16 
-6.61057e-16 -5.57279e-16 -5.54765e-16 
3.33178e-15 6.27192e-16 7.05577e-15 
3.33178e-15 6.27192e-16 7.05577e-15 
3.33178e-15 6.27192e-16 7.05577e-15 
3.33178e-15 6.27192e-16 7.05577e-15 
-8.0533e-15 -7.50837e-15 -9.66897e-15 
-8.0533e-15 -7.50837e-15 -9.66897e-15 
-8.0533e-15 -7.50837e-15 -9.66897e-15 
-8.0533e-15 -7.50837e-15 -9.66897e-15 
5.22322e-15 1.71892e-14 -4.7363e-16 
5.22322e-15 1.71892e-14 -4.7363e-16 
5.22322e-15 1.71892e-14 -4.7363e-16 
5.22322e-15 1.71892e-14 -4.7363e-16 
3.64677e-15 -8.23532e-16 5.45929e-15 
3.64677e-15 -8.23532e-16 5.45929e-15 
3.64677e-15 -8.23532e-16 5.45929e-15 
3.64677e-15 -8.23532e-16 5.45929e-15 
-9.59677e-16 9.2027e-16 5.92109e-15 
-9.59677e-16 9.2027e-16 5.92109e-15 
-9.59677e-16 9.2027e-16 5.92109e-15 
-9.59677e-16 9.2027e-16 5.92109e-15 
-1.564e-15 -2.93609e-15 5.08267e-15 
-1.564e-15 -2.93609e-15 5.08267e-15 
-1.564e-15 -2.93609e-15 5.08267e-15 
-1.564e-15 -2.93609e-15 5.08267e-15 
-2.72648e-16 4.33951e-15 5.12354e-15 
-2.72648e-16 4.33951e-15 5.12354e-15 
-2.72648e-16 4.33951e-15 5.12354e-15 
-2.72648e-16 4.33951e-15 5.12354e-15 
-3.75219e-15 -4.90808e-15 -1.57442e-15 
-3.75219e-15 -4.90808e-15 -1.57442e-15 
-3.75219e-15 -4.90808e-15 -1.57442e-15 
-3.75219e-15 -4.90808e-15 -1.57442e-15 
5.29381e-15 1.79089e-16 5.57938e-15 
5.29381e-15 1.79089e-16 5.57938e-15 
5.29381e-15 1.79089e-16 5.57938e-15 
5.29381e-15 1.79089e-16 5.57938e-15 
9.77902e-16 -7.25264e-16 -2.04135e-15 
9.77902e-16 -7.25264e-16 -2.04135e-15 
9.77902e-16 -7.25264e-16 -2.04135e-15 
9.77902e-16 -7.25264e-16 -2.04135e-15 
2.10736e-15 -6.36344e-15 5.94951e-15 
2.10736e-15 -6.36344e-15 5.94951e-15 
2.10736e-15 -6.36344e-15 5.94951e-15 
2.10736e-15 -6.36344e-15 5.94951e-15 
-6.87384e-15 1.21461e-14 -9.73591e-17 
-6.87384e-15 1.21461e-14 -9.73591e-17 
-6.87384e-15 1.21461e-14 -9.73591e-17 
-6.87384e-15 1.21461e-14 -9.73591e-17 
3.63211e-15 9.3096e-15 -6.44488e-15 
3.63211e-15 9.3096e-15 -6.44488e-15 
3.63211e-15 9.3096e-15 -6.44488e-15 
3.63211e-15 9.3096e-15 -6.44488e-15 
-1.54662e-15 6.26268e-15 7.33327e-16 
-1.54662e-15 6.26268e-15 7.33327e-16 
-1.54662e-15 6.26268e-15 7.33327e-16 
-1.54662e-15 6.26268e-15 7.33327e-16 
-7.94431e-16 -9.58515e-16 1.22924e-16 
-7.94431e-16 -9.58515e-16 1.22924e-16 
-7.94431e-16 -9.58515e-16 1.22924e-16 
-7.94431e-16 -9.58515e-16 1.22924e-16 
4.77418e-16 2.68824e-15 2.92037e-15 
4.77418e-16 2.68824e-15 2.92037e-15 
4.77418e-16 2.68824e-15 2.92037e-15 
4.77418e-16 2.68824e-15 2.92037e-15 
1.07167e-16 -2.1877e-15 7.99843e-15 
1.07167e-16 -2.1877e-15 7.99843e-15 
1.07167e-16 -2.1877e-15 7.99843e-15 
1.07167e-16 -2.1877e-15 7.99843e-15 
9.02608e-15 -1.84113e-15 6.86445e-15 
9.02608e-15 -1.84113e-15 6.86445e-15 
9.02608e-15 -1.84113e-15 6.86445e-15 
9.02608e-15 -1.84113e-15 6.86445e-15 
-5.17215e-16 5.64675e-16 6.59081e-15 
-5.17215e-16 5.64675e-16 6.59081e-15 
-5.17215e-16 5.64675e-16 6.59081e-15 
-5.17215e-16 5.64675e-16 6.59081e-15 
8.20588e-16 -2.99874e-15 8.68187e-16 
8.20588e-16 -2.99874e-15 8.68187e-16 
8.20588e-16 -2.99874e-15 8.68187e-16 
8.20588e-16 -2.99874e-15 8.68187e-16 
7.15163e-16 2.83839e-15 4.12538e-15 
7.15163e-16 2.83839e-15 4.12538e-15 
7.15163e-16 2.83839e-15 4.12538e-15 
7.15163e-16 2.83839e-15 4.12538e-15 
-4.60406e-16 -3.96755e-15 4.54626e-15 
-4.60406e-16 -3.96755e-15 4.54626e-15 
-4.60406e-16 -3.96755e-15 4.54626e-15 
-4.60406e-16 -3.96755e-15 4.54626e-15 
4.10056e-15 -8.20973e-17 -2.60503e-15 
4.10056e-15 -8.20973e-17 -2.60503e-15 
4.10056e-15 -8.20973e-17 -2.60503e-15 
4.10056e-15 -8.20973e-17 -2.60503e-15 
-6.13568e-16 -1.74424e-15 7.89886e-16 
-6.13568e-16 -1.74424e-15 7.89886e-16 
-6.13568e-16 -1.74424e-15 7.89886e-16 
-6.13568e-16 -1.74424e-15 7.89886e-16 
4.04617e-15 -6.19442e-15 4.667e-16 
4.04617e-15 -6.19442e-15 4.667e-16 
4.04617e-15 -6.19442e-15 4.667e-16 
4.04617e-15 -6.19442e-15 4.667e-16 
-4.4608e-15 9.86176e-15 2.08167e-15 
-4.4608e-15 9.86176e-15 2.08167e-15 
-4.4608e-15 9.86176e-15 2.08167e-15 
-4.4608e-15 9.86176e-15 2.08167e-15 
-3.33752e-15 8.99969e-15 1.20055e-15 
-3.33752e-15 8.99969e-15 1.20055e-15 
-3.33752e-15 8.99969e-15 1.20055e-15 
-3.33752e-15 8.99969e-15 1.20055e-15 
2.09451e-15 -2.38174e-15 9.75171e-15 
2.09451e-15 -2.38174e-15 9.75171e-15 
2.09451e-15 -2.38174e-15 9.75171e-15 
2.09451e-15 -2.38174e-15 9.75171e-15 
-1.56871e-15 1.24662e-14 -5.0359e-15 
-1.56871e-15 1.24662e-14 -5.0359e-15 
-1.56871e-15 1.24662e-14 -5.0359e-15 
-1.56871e-15 1.24662e-14 -5.0359e-15 
-8.39475e-15 -1.18327e-14 -5.14513e-15 
-8.39475e-15 -1.18327e-14 -5.14513e-15 
-8.39475e-15 -1.18327e-14 -5.14513e-15 
-8.39475e-15 -1.18327e-14 -5.14513e-15 
-1.0142e-14 -5.15775e-15 4.61696e-15 
-1.0142e-14 -5.15775e-15 4.61696e-15 
-1.0142e-14 -5.15775e-15 4.61696e-15 
-1.0142e-14 -5.15775e-15 4.61696e-15 
-1.62474e-15 -9.68194e-16 1.03254e-14 
-1.62474e-15 -9.68194e-16 1.03254e-14 
-1.62474e-15 -9.68194e-16 1.03254e-14 
-1.62474e-15 -9.68194e-16 1.03254e-14 
1.25241e-15 2.72246e-15 1.83732e-15 
1.25241e-15 2.72246e-15 1.83732e-15 
1.25241e-15 2.72246e-15 1.83732e-15 
1.25241e-15 2.72246e-15 1.83732e-15 
-3.88875e-15 9.72087e-15 2.29775e-16 
-3.88875e-15 9.72087e-15 2.29775e-16 
-3.88875e-15 9.72087e-15 2.29775e-16 
-3.88875e-15 9.72087e-15 2.29775e-16 
3.90314e-16 1.38945e-16 -4.4043e-15 
3.90314e-16 1.38945e-16 -4.4043e-15 
3.90314e-16 1.38945e-16 -4.4043e-15 
3.90314e-16 1.38945e-16 -4.4043e-15 
-9.31557e-16 3.97584e-15 1.20361e-15 
-9.31557e-16 3.97584e-15 1.20361e-15 
-9.31557e-16 3.97584e-15 1.20361e-15 
-9.31557e-16 3.97584e-15 1.20361e-15 
1.03689e-15 -4.98407e-16 1.02204e-15 
1.03689e-15 -4.98407e-16 1.02204e-15 
1.03689e-15 -4.98407e-16 1.02204e-15 
1.03689e-15 -4.98407e-16 1.02204e-15 
-1.94775e-15 -6.13903e-15 3.86033e-15 
-1.94775e-15 -6.13903e-15 3.86033e-15 
-1.94775e-15 -6.13903e-15 3.86033e-15 
-1.94775e-15 -6.13903e-15 3.86033e-15 
-3.78327e-16 -2.12262e-16 1.40045e-14 
-3.78327e-16 -2.12262e-16 1.40045e-14 
-3.78327e-16 -2.12262e-16 1.40045e-14 
-3.78327e-16 -2.12262e-16 1.40045e-14 
1.56911e-15 -1.74737e-15 1.22849e-14 
1.56911e-15 -1.74737e-15 1.22849e-14 
1.56911e-15 -1.74737e-15 1.22849e-14 
1.56911e-15 -1.74737e-15 1.22849e-14 
-5.28598e-16 1.70817e-16 4.06028e-16 
-5.28598e-16 1.70817e-16 4.06028e-16 
-5.28598e-16 1.70817e-16 4.06028e-16 
-5.28598e-16 1.70817e-16 4.06028e-16 
5.82639e-16 8.6412e-16 3.23339e-16 
5.82639e-16 8.6412e-16 3.23339e-16 
5.82639e-16 8.6412e-16 3.23339e-16 
5.82639e-16 8.6412e-16 3.23339e-16 
4.60962e-15 6.81949e-15 -7.87179e-15 
4.60962e-15 6.81949e-15 -7.87179e-15 
4.60962e-15 6.81949e-15 -7.87179e-15 
4.60962e-15 6.81949e-15 -7.87179e-15 
3.78882e-17 -5.10529e-15 -7.09267e-15 
3.78882e-17 -5.10529e-15 -7.09267e-15 
3.78882e-17 -5.10529e-15 -7.09267e-15 
3.78882e-17 -5.10529e-15 -7.09267e-15 
1.871e-16 1.20799e-16 4.44089e-15 
1.871e-16 1.20799e-16 4.44089e-15 
1.871e-16 1.20799e-16 4.44089e-15 
1.871e-16 1.20799e-16 4.44089e-15 
4.28842e-16 -2.25721e-16 4.44089e-15 
4.28842e-16 -2.25721e-16 4.44089e-15 
4.28842e-16 -2.25721e-16 4.44089e-15 
4.28842e-16 -2.25721e-16 4.44089e-15 
-5.10893e-16 -9.27511e-16 -4.58472e-15 
-5.10893e-16 -9.27511e-16 -4.58472e-15 
-5.10893e-16 -9.27511e-16 -4.58472e-15 
-5.10893e-16 -9.27511e-16 -4.58472e-15 
-2.36926e-15 -4.67686e-15 -1.04381e-14 
-2.36926e-15 -4.67686e-15 -1.04381e-14 
-2.36926e-15 -4.67686e-15 -1.04381e-14 
-2.36926e-15 -4.67686e-15 -1.04381e-14 
-4.85165e-15 -4.23844e-15 1.49802e-15 
-4.85165e-15 -4.23844e-15 1.49802e-15 
-4.85165e-15 -4.23844e-15 1.49802e-15 
-4.85165e-15 -4.23844e-15 1.49802e-15 
2.09563e-15 5.31927e-15 -4.54209e-15 
2.09563e-15 5.31927e-15 -4.54209e-15 
2.09563e-15 5.31927e-15 -4.54209e-15 
2.09563e-15 5.31927e-15 -4.54209e-15 
9.93527e-17 -2.18715e-16 4.44089e-15 
9.93527e-17 -2.18715e-16 4.44089e-15 
9.93527e-17 -2.18715e-16 4.44089e-15 
9.93527e-17 -2.18715e-16 4.44089e-15 
1.62338e-15 6.09543e-16 -1.63955e-16 
1.62338e-15 6.09543e-16 -1.63955e-16 
1.62338e-15 6.09543e-16 -1.63955e-16 
1.62338e-15 6.09543e-16 -1.63955e-16 
-1.9336e-15 -2.42051e-15 1.92775e-15 
-1.9336e-15 -2.42051e-15 1.92775e-15 
-1.9336e-15 -2.42051e-15 1.92775e-15 
-1.9336e-15 -2.42051e-15 1.92775e-15 
3.07669e-17 3.00308e-17 -1.11022e-15 
3.07669e-17 3.00308e-17 -1.11022e-15 
3.07669e-17 3.00308e-17 -1.11022e-15 
3.07669e-17 3.00308e-17 -1.11022e-15 
6.20075e-17 -4.16522e-16 0 
6.20075e-17 -4.16522e-16 0 
6.20075e-17 -4.16522e-16 0 
6.20075e-17 -4.16522e-16 0 
-6.88992e-15 -7.17013e-15 -6.2888e-15 
-6.88992e-15 -7.17013e-15 -6.2888e-15 
-6.88992e-15 -7.17013e-15 -6.2888e-15 
-6.88992e-15 -7.17013e-15 -6.2888e-15 
-2.27049e-15 2.84639e-15 1.60947e-15 
-2.27049e-15 2.84639e-15 1.60947e-15 
-2.27049e-15 2.84639e-15 1.60947e-15 
-2.27049e-15 2.84639e-15 1.60947e-15 
2.76449e-16 6.21706e-16 -4.64705e-15 
2.76449e-16 6.21706e-16 -4.64705e-15 
2.76449e-16 6.21706e-16 -4.64705e-15 
2.76449e-16 6.21706e-16 -4.64705e-15 
4.94271e-16 4.85622e-16 9.49496e-15 
4.94271e-16 4.85622e-16 9.49496e-15 
4.94271e-16 4.85622e-16 9.49496e-15 
4.94271e-16 4.85622e-16 9.49496e-15 
3.68256e-16 1.09525e-15 2.77637e-16 
3.68256e-16 1.09525e-15 2.77637e-16 
3.68256e-16 1.09525e-15 2.77637e-16 
3.68256e-16 1.09525e-15 2.77637e-16 
-3.77599e-15 8.53601e-15 -1.11252e-14 
-3.77599e-15 8.53601e-15 -1.11252e-14 
-3.77599e-15 8.53601e-15 -1.11252e-14 
-3.77599e-15 8.53601e-15 -1.11252e-14 
8.89754e-15 -6.18835e-15 -1.04381e-16 
8.89754e-15 -6.18835e-15 -1.04381e-16 
8.89754e-15 -6.18835e-15 -1.04381e-16 
8.89754e-15 -6.18835e-15 -1.04381e-16 
7.03047e-16 6.85249e-16 2.32499e-15 
7.03047e-16 6.85249e-16 2.32499e-15 
7.03047e-16 6.85249e-16 2.32499e-15 
7.03047e-16 6.85249e-16 2.32499e-15 
-1.14749e-14 2.41015e-15 1.97739e-15 
-1.14749e-14 2.41015e-15 1.97739e-15 
-1.14749e-14 2.41015e-15 1.97739e-15 
-1.14749e-14 2.41015e-15 1.97739e-15 
-9.46752e-16 1.21945e-15 -3.67076e-15 
-9.46752e-16 1.21945e-15 -3.67076e-15 
-9.46752e-16 1.21945e-15 -3.67076e-15 
-9.46752e-16 1.21945e-15 -3.67076e-15 
1.70406e-14 7.77533e-15 1.36778e-14 
1.70406e-14 7.77533e-15 1.36778e-14 
1.70406e-14 7.77533e-15 1.36778e-14 
1.70406e-14 7.77533e-15 1.36778e-14 
-2.4062e-15 -1.59307e-15 1.45557e-14 
-2.4062e-15 -1.59307e-15 1.45557e-14 
-2.4062e-15 -1.59307e-15 1.45557e-14 
-2.4062e-15 -1.59307e-15 1.45557e-14 
1.4021e-15 1.18031e-15 -4.62808e-15 
1.4021e-15 1.18031e-15 -4.62808e-15 
1.4021e-15 1.18031e-15 -4.62808e-15 
1.4021e-15 1.18031e-15 -4.62808e-15 
1.14701e-14 6.35142e-15 8.34749e-15 
1.14701e-14 6.35142e-15 8.34749e-15 
1.14701e-14 6.35142e-15 8.34749e-15 
1.14701e-14 6.35142e-15 8.34749e-15 
1.89898e-14 6.95398e-15 3.43358e-15 
1.89898e-14 6.95398e-15 3.43358e-15 
1.89898e-14 6.95398e-15 3.43358e-15 
1.89898e-14 6.95398e-15 3.43358e-15 
5.91074e-16 2.77577e-15 2.04648e-15 
5.91074e-16 2.77577e-15 2.04648e-15 
5.91074e-16 2.77577e-15 2.04648e-15 
5.91074e-16 2.77577e-15 2.04648e-15 
7.82251e-15 -1.54322e-14 -6.87171e-15 
7.82251e-15 -1.54322e-14 -6.87171e-15 
7.82251e-15 -1.54322e-14 -6.87171e-15 
7.82251e-15 -1.54322e-14 -6.87171e-15 
-1.97723e-14 -1.28974e-14 2.34096e-14 
-1.97723e-14 -1.28974e-14 2.34096e-14 
-1.97723e-14 -1.28974e-14 2.34096e-14 
-1.97723e-14 -1.28974e-14 2.34096e-14 
4.39717e-16 2.20412e-15 -4.89284e-15 
4.39717e-16 2.20412e-15 -4.89284e-15 
4.39717e-16 2.20412e-15 -4.89284e-15 
4.39717e-16 2.20412e-15 -4.89284e-15 
-5.01957e-16 -1.8524e-16 2.07678e-15 
-5.01957e-16 -1.8524e-16 2.07678e-15 
-5.01957e-16 -1.8524e-16 2.07678e-15 
-5.01957e-16 -1.8524e-16 2.07678e-15 
-4.00295e-15 -2.78371e-15 5.95993e-15 
-4.00295e-15 -2.78371e-15 5.95993e-15 
-4.00295e-15 -2.78371e-15 5.95993e-15 
-4.00295e-15 -2.78371e-15 5.95993e-15 
8.04357e-16 -1.64499e-15 9.20341e-16 
8.04357e-16 -1.64499e-15 9.20341e-16 
8.04357e-16 -1.64499e-15 9.20341e-16 
8.04357e-16 -1.64499e-15 9.20341e-16 
-4.05254e-15 -2.68219e-15 1.07919e-14 
-4.05254e-15 -2.68219e-15 1.07919e-14 
-4.05254e-15 -2.68219e-15 1.07919e-14 
-4.05254e-15 -2.68219e-15 1.07919e-14 
2.9829e-15 -1.01386e-14 -6.53995e-16 
2.9829e-15 -1.01386e-14 -6.53995e-16 
2.9829e-15 -1.01386e-14 -6.53995e-16 
2.9829e-15 -1.01386e-14 -6.53995e-16 
-1.74473e-16 -1.57964e-16 -1.38461e-15 
-1.74473e-16 -1.57964e-16 -1.38461e-15 
-1.74473e-16 -1.57964e-16 -1.38461e-15 
-1.74473e-16 -1.57964e-16 -1.38461e-15 
-1.46056e-15 2.03888e-15 8.39042e-16 
-1.46056e-15 2.03888e-15 8.39042e-16 
-1.46056e-15 2.03888e-15 8.39042e-16 
-1.46056e-15 2.03888e-15 8.39042e-16 
2.64491e-16 -3.22653e-15 -6.53558e-15 
2.64491e-16 -3.22653e-15 -6.53558e-15 
2.64491e-16 -3.22653e-15 -6.53558e-15 
2.64491e-16 -3.22653e-15 -6.53558e-15 
2.49655e-15 -1.88831e-15 4.24621e-15 
2.49655e-15 -1.88831e-15 4.24621e-15 
2.49655e-15 -1.88831e-15 4.24621e-15 
2.49655e-15 -1.88831e-15 4.24621e-15 
-1.57645e-15 -1.05886e-15 3.65915e-17 
-1.57645e-15 -1.05886e-15 3.65915e-17 
-1.57645e-15 -1.05886e-15 3.65915e-17 
-1.57645e-15 -1.05886e-15 3.65915e-17 
6.40575e-16 -9.06071e-16 -6.20498e-15 
6.40575e-16 -9.06071e-16 -6.20498e-15 
6.40575e-16 -9.06071e-16 -6.20498e-15 
6.40575e-16 -9.06071e-16 -6.20498e-15 
-5.64811e-16 2.73199e-16 -2.62479e-16 
-5.64811e-16 2.73199e-16 -2.62479e-16 
-5.64811e-16 2.73199e-16 -2.62479e-16 
-5.64811e-16 2.73199e-16 -2.62479e-16 
6.38182e-16 2.43467e-15 -2.86873e-16 
6.38182e-16 2.43467e-15 -2.86873e-16 
6.38182e-16 2.43467e-15 -2.86873e-16 
6.38182e-16 2.43467e-15 -2.86873e-16 
2.94367e-16 1.50516e-16 0 
2.94367e-16 1.50516e-16 0 
2.94367e-16 1.50516e-16 0 
2.94367e-16 1.50516e-16 0 
-2.51922e-16 -3.59154e-16 4.44089e-15 
-2.51922e-16 -3.59154e-16 4.44089e-15 
-2.51922e-16 -3.59154e-16 4.44089e-15 
-2.51922e-16 -3.59154e-16 4.44089e-15 
-1.04746e-15 3.21909e-15 9.78404e-16 
-1.04746e-15 3.21909e-15 9.78404e-16 
-1.04746e-15 3.21909e-15 9.78404e-16 
-1.04746e-15 3.21909e-15 9.78404e-16 
-5.70441e-16 -9.5414e-17 7.04403e-15 
-5.70441e-16 -9.5414e-17 7.04403e-15 
-5.70441e-16 -9.5414e-17 7.04403e-15 
-5.70441e-16 -9.5414e-17 7.04403e-15 
-4.01445e-15 7.37404e-15 -4.15162e-15 
-4.01445e-15 7.37404e-15 -4.15162e-15 
-4.01445e-15 7.37404e-15 -4.15162e-15 
-4.01445e-15 7.37404e-15 -4.15162e-15 
2.56841e-15 -5.62033e-15 4.76723e-15 
2.56841e-15 -5.62033e-15 4.76723e-15 
2.56841e-15 -5.62033e-15 4.76723e-15 
2.56841e-15 -5.62033e-15 4.76723e-15 
2.05718e-15 -3.53157e-15 2.27597e-15 
2.05718e-15 -3.53157e-15 2.27597e-15 
2.05718e-15 -3.53157e-15 2.27597e-15 
2.05718e-15 -3.53157e-15 2.27597e-15 
1.86571e-15 -3.16646e-15 9.87959e-15 
1.86571e-15 -3.16646e-15 9.87959e-15 
1.86571e-15 -3.16646e-15 9.87959e-15 
1.86571e-15 -3.16646e-15 9.87959e-15 
-8.76124e-16 2.9933e-16 -4.85188e-16 
-8.76124e-16 2.9933e-16 -4.85188e-16 
-8.76124e-16 2.9933e-16 -4.85188e-16 
-8.76124e-16 2.9933e-16 -4.85188e-16 
2.47113e-15 -4.41245e-16 6.12529e-16 
2.47113e-15 -4.41245e-16 6.12529e-16 
2.47113e-15 -4.41245e-16 6.12529e-16 
2.47113e-15 -4.41245e-16 6.12529e-16 
1.42113e-15 4.69351e-15 -9.95061e-15 
1.42113e-15 4.69351e-15 -9.95061e-15 
1.42113e-15 4.69351e-15 -9.95061e-15 
1.42113e-15 4.69351e-15 -9.95061e-15 
3.71669e-15 4.93555e-15 -7.86322e-15 
3.71669e-15 4.93555e-15 -7.86322e-15 
3.71669e-15 4.93555e-15 -7.86322e-15 
3.71669e-15 4.93555e-15 -7.86322e-15 
2.82189e-15 4.94941e-15 -1.3814e-16 
2.82189e-15 4.94941e-15 -1.3814e-16 
2.82189e-15 4.94941e-15 -1.3814e-16 
2.82189e-15 4.94941e-15 -1.3814e-16 
-3.88792e-15 -3.23191e-15 1.0783e-14 
-3.88792e-15 -3.23191e-15 1.0783e-14 
-3.88792e-15 -3.23191e-15 1.0783e-14 
-3.88792e-15 -3.23191e-15 1.0783e-14 
4.22495e-15 -8.17891e-15 1.52881e-15 
4.22495e-15 -8.17891e-15 1.52881e-15 
4.22495e-15 -8.17891e-15 1.52881e-15 
4.22495e-15 -8.17891e-15 1.52881e-15 
3.73502e-15 3.36775e-15 4.67072e-15 
3.73502e-15 3.36775e-15 4.67072e-15 
3.73502e-15 3.36775e-15 4.67072e-15 
3.73502e-15 3.36775e-15 4.67072e-15 
-1.80894e-16 2.03443e-15 3.76119e-16 
-1.80894e-16 2.03443e-15 3.76119e-16 
-1.80894e-16 2.03443e-15 3.76119e-16 
-1.80894e-16 2.03443e-15 3.76119e-16 
-1.36018e-14 -2.79243e-15 7.37557e-15 
-1.36018e-14 -2.79243e-15 7.37557e-15 
-1.36018e-14 -2.79243e-15 7.37557e-15 
-1.36018e-14 -2.79243e-15 7.37557e-15 
-4.96157e-15 -7.99462e-15 -7.53722e-15 
-4.96157e-15 -7.99462e-15 -7.53722e-15 
-4.96157e-15 -7.99462e-15 -7.53722e-15 
-4.96157e-15 -7.99462e-15 -7.53722e-15 
1.95728e-15 -3.55388e-16 7.22241e-16 
1.95728e-15 -3.55388e-16 7.22241e-16 
1.95728e-15 -3.55388e-16 7.22241e-16 
1.95728e-15 -3.55388e-16 7.22241e-16 
5.99547e-16 1.30313e-14 6.94864e-15 
5.99547e-16 1.30313e-14 6.94864e-15 
5.99547e-16 1.30313e-14 6.94864e-15 
5.99547e-16 1.30313e-14 6.94864e-15 
4.20702e-15 -4.91519e-15 6.7304e-15 
4.20702e-15 -4.91519e-15 6.7304e-15 
4.20702e-15 -4.91519e-15 6.7304e-15 
4.20702e-15 -4.91519e-15 6.7304e-15 
-2.66858e-16 3.68485e-16 1.40213e-14 
-2.66858e-16 3.68485e-16 1.40213e-14 
-2.66858e-16 3.68485e-16 1.40213e-14 
-2.66858e-16 3.68485e-16 1.40213e-14 
1.23597e-17 9.0742e-16 2.11588e-16 
1.23597e-17 9.0742e-16 2.11588e-16 
1.23597e-17 9.0742e-16 2.11588e-16 
1.23597e-17 9.0742e-16 2.11588e-16 
-1.00392e-15 -9.77363e-16 5.76939e-16 
-1.00392e-15 -9.77363e-16 5.76939e-16 
-1.00392e-15 -9.77363e-16 5.76939e-16 
-1.00392e-15 -9.77363e-16 5.76939e-16 
-3.74499e-16 -7.67575e-16 6.59373e-16 
-3.74499e-16 -7.67575e-16 6.59373e-16 
-3.74499e-16 -7.67575e-16 6.59373e-16 
-3.74499e-16 -7.67575e-16 6.59373e-16 
-5.15737e-16 5.60302e-16 3.57421e-16 
-5.15737e-16 5.60302e-16 3.57421e-16 
-5.15737e-16 5.60302e-16 3.57421e-16 
-5.15737e-16 5.60302e-16 3.57421e-16 
-1.75054e-15 -1.8263e-15 1.43295e-14 
-1.75054e-15 -1.8263e-15 1.43295e-14 
-1.75054e-15 -1.8263e-15 1.43295e-14 
-1.75054e-15 -1.8263e-15 1.43295e-14 
1.64006e-15 -7.9739e-15 -3.29739e-16 
1.64006e-15 -7.9739e-15 -3.29739e-16 
1.64006e-15 -7.9739e-15 -3.29739e-16 
1.64006e-15 -7.9739e-15 -3.29739e-16 
1.02651e-15 -1.56478e-16 -7.21527e-15 
1.02651e-15 -1.56478e-16 -7.21527e-15 
1.02651e-15 -1.56478e-16 -7.21527e-15 
1.02651e-15 -1.56478e-16 -7.21527e-15 
5.81857e-15 -2.39784e-15 1.17479e-14 
5.81857e-15 -2.39784e-15 1.17479e-14 
5.81857e-15 -2.39784e-15 1.17479e-14 
5.81857e-15 -2.39784e-15 1.17479e-14 
-1.53222e-15 4.74036e-16 1.74118e-15 
-1.53222e-15 4.74036e-16 1.74118e-15 
-1.53222e-15 4.74036e-16 1.74118e-15 
-1.53222e-15 4.74036e-16 1.74118e-15 
2.42629e-15 -2.22871e-15 9.7851e-15 
2.42629e-15 -2.22871e-15 9.7851e-15 
2.42629e-15 -2.22871e-15 9.7851e-15 
2.42629e-15 -2.22871e-15 9.7851e-15 
3.17083e-16 -9.10681e-15 8.53848e-15 
3.17083e-16 -9.10681e-15 8.53848e-15 
3.17083e-16 -9.10681e-15 8.53848e-15 
3.17083e-16 -9.10681e-15 8.53848e-15 
7.58594e-15 1.81361e-15 1.86627e-15 
7.58594e-15 1.81361e-15 1.86627e-15 
7.58594e-15 1.81361e-15 1.86627e-15 
7.58594e-15 1.81361e-15 1.86627e-15 
-5.64977e-15 8.34055e-15 1.64832e-15 
-5.64977e-15 8.34055e-15 1.64832e-15 
-5.64977e-15 8.34055e-15 1.64832e-15 
-5.64977e-15 8.34055e-15 1.64832e-15 
-2.38715e-15 4.66235e-16 -6.73319e-16 
-2.38715e-15 4.66235e-16 -6.73319e-16 
-2.38715e-15 4.66235e-16 -6.73319e-16 
-2.38715e-15 4.66235e-16 -6.73319e-16 
1.32445e-15 -3.48426e-15 2.01393e-15 
1.32445e-15 -3.48426e-15 2.01393e-15 
1.32445e-15 -3.48426e-15 2.01393e-15 
1.32445e-15 -3.48426e-15 2.01393e-15 
1.02697e-15 -6.90506e-16 9.06466e-15 
1.02697e-15 -6.90506e-16 9.06466e-15 
1.02697e-15 -6.90506e-16 9.06466e-15 
1.02697e-15 -6.90506e-16 9.06466e-15 
9.67919e-17 -4.32671e-16 -1.11025e-15 
9.67919e-17 -4.32671e-16 -1.11025e-15 
9.67919e-17 -4.32671e-16 -1.11025e-15 
9.67919e-17 -4.32671e-16 -1.11025e-15 
9.56054e-16 -1.16781e-15 9.25938e-15 
9.56054e-16 -1.16781e-15 9.25938e-15 
9.56054e-16 -1.16781e-15 9.25938e-15 
9.56054e-16 -1.16781e-15 9.25938e-15 
1.59502e-15 -2.50861e-15 -6.8051e-15 
1.59502e-15 -2.50861e-15 -6.8051e-15 
1.59502e-15 -2.50861e-15 -6.8051e-15 
1.59502e-15 -2.50861e-15 -6.8051e-15 
-7.50968e-15 3.4123e-15 3.84932e-15 
-7.50968e-15 3.4123e-15 3.84932e-15 
-7.50968e-15 3.4123e-15 3.84932e-15 
-7.50968e-15 3.4123e-15 3.84932e-15 
-1.04155e-15 -2.62102e-16 4.35354e-15 
-1.04155e-15 -2.62102e-16 4.35354e-15 
-1.04155e-15 -2.62102e-16 4.35354e-15 
-1.04155e-15 -2.62102e-16 4.35354e-15 
-3.85528e-15 -2.76168e-15 3.58235e-15 
-3.85528e-15 -2.76168e-15 3.58235e-15 
-3.85528e-15 -2.76168e-15 3.58235e-15 
-3.85528e-15 -2.76168e-15 3.58235e-15 
-2.88706e-15 -8.98101e-16 -3.23997e-15 
-2.88706e-15 -8.98101e-16 -3.23997e-15 
-2.88706e-15 -8.98101e-16 -3.23997e-15 
-2.88706e-15 -8.98101e-16 -3.23997e-15 
-9.7713e-16 1.02302e-15 -7.15854e-17 
-9.7713e-16 1.02302e-15 -7.15854e-17 
-9.7713e-16 1.02302e-15 -7.15854e-17 
-9.7713e-16 1.02302e-15 -7.15854e-17 
-3.12875e-15 4.01762e-15 -2.94113e-15 
-3.12875e-15 4.01762e-15 -2.94113e-15 
-3.12875e-15 4.01762e-15 -2.94113e-15 
-3.12875e-15 4.01762e-15 -2.94113e-15 
1.87472e-15 -6.79745e-16 2.40658e-15 
1.87472e-15 -6.79745e-16 2.40658e-15 
1.87472e-15 -6.79745e-16 2.40658e-15 
1.87472e-15 -6.79745e-16 2.40658e-15 
2.3238e-16 1.22123e-15 3.25098e-15 
2.3238e-16 1.22123e-15 3.25098e-15 
2.3238e-16 1.22123e-15 3.25098e-15 
2.3238e-16 1.22123e-15 3.25098e-15 
1.02799e-16 1.63805e-15 3.19981e-15 
1.02799e-16 1.63805e-15 3.19981e-15 
1.02799e-16 1.63805e-15 3.19981e-15 
1.02799e-16 1.63805e-15 3.19981e-15 
-1.82818e-15 -2.03095e-15 2.15649e-15 
-1.82818e-15 -2.03095e-15 2.15649e-15 
-1.82818e-15 -2.03095e-15 2.15649e-15 
-1.82818e-15 -2.03095e-15 2.15649e-15 
-8.76946e-16 -5.16163e-16 -3.29649e-16 
-8.76946e-16 -5.16163e-16 -3.29649e-16 
-8.76946e-16 -5.16163e-16 -3.29649e-16 
-8.76946e-16 -5.16163e-16 -3.29649e-16 
-2.77928e-07 -4.04018e-07 1.4817e-06 
-2.77928e-07 -4.04018e-07 1.4817e-06 
-2.77928e-07 -4.04018e-07 1.4817e-06 
-2.77928e-07 -4.04018e-07 1.4817e-06 
3.70658e-16 1.23201e-15 8.03258e-17 
3.70658e-16 1.23201e-15 8.03258e-17 
3.70658e-16 1.23201e-15 8.03258e-17 
3.70658e-16 1.23201e-15 8.03258e-17 
-1.60333e-15 -1.2118e-15 6.65741e-16 
-1.60333e-15 -1.2118e-15 6.65741e-16 
-1.60333e-15 -1.2118e-15 6.65741e-16 
-1.60333e-15 -1.2118e-15 6.65741e-16 
-5.61796e-16 -3.01113e-15 -3.94906e-15 
-5.61796e-16 -3.01113e-15 -3.94906e-15 
-5.61796e-16 -3.01113e-15 -3.94906e-15 
-5.61796e-16 -3.01113e-15 -3.94906e-15 
-2.97124e-15 2.87094e-15 5.25232e-16 
-2.97124e-15 2.87094e-15 5.25232e-16 
-2.97124e-15 2.87094e-15 5.25232e-16 
-2.97124e-15 2.87094e-15 5.25232e-16 
-3.46055e-15 -4.99105e-15 8.40094e-15 
-3.46055e-15 -4.99105e-15 8.40094e-15 
-3.46055e-15 -4.99105e-15 8.40094e-15 
-3.46055e-15 -4.99105e-15 8.40094e-15 
7.20656e-16 2.97981e-16 2.81417e-15 
7.20656e-16 2.97981e-16 2.81417e-15 
7.20656e-16 2.97981e-16 2.81417e-15 
7.20656e-16 2.97981e-16 2.81417e-15 
5.4192e-16 4.82714e-16 9.49541e-15 
5.4192e-16 4.82714e-16 9.49541e-15 
5.4192e-16 4.82714e-16 9.49541e-15 
5.4192e-16 4.82714e-16 9.49541e-15 
3.92588e-16 1.08844e-15 1.07401e-14 
3.92588e-16 1.08844e-15 1.07401e-14 
3.92588e-16 1.08844e-15 1.07401e-14 
3.92588e-16 1.08844e-15 1.07401e-14 
-2.96546e-15 3.16536e-15 -7.68549e-15 
-2.96546e-15 3.16536e-15 -7.68549e-15 
-2.96546e-15 3.16536e-15 -7.68549e-15 
-2.96546e-15 3.16536e-15 -7.68549e-15 
1.11922e-15 -1.38264e-15 6.59661e-16 
1.11922e-15 -1.38264e-15 6.59661e-16 
1.11922e-15 -1.38264e-15 6.59661e-16 
1.11922e-15 -1.38264e-15 6.59661e-16 
5.99896e-16 4.06765e-15 1.70495e-15 
5.99896e-16 4.06765e-15 1.70495e-15 
5.99896e-16 4.06765e-15 1.70495e-15 
5.99896e-16 4.06765e-15 1.70495e-15 
2.36183e-15 6.63283e-15 1.14493e-14 
2.36183e-15 6.63283e-15 1.14493e-14 
2.36183e-15 6.63283e-15 1.14493e-14 
2.36183e-15 6.63283e-15 1.14493e-14 
7.58599e-15 -2.50151e-15 4.17222e-15 
7.58599e-15 -2.50151e-15 4.17222e-15 
7.58599e-15 -2.50151e-15 4.17222e-15 
7.58599e-15 -2.50151e-15 4.17222e-15 
-2.70633e-07 -4.05046e-07 1.49368e-06 
-2.70633e-07 -4.05046e-07 1.49368e-06 
-2.70633e-07 -4.05046e-07 1.49368e-06 
-2.70633e-07 -4.05046e-07 1.49368e-06 
-6.23216e-15 3.09099e-15 -5.69495e-15 
-6.23216e-15 3.09099e-15 -5.69495e-15 
-6.23216e-15 3.09099e-15 -5.69495e-15 
-6.23216e-15 3.09099e-15 -5.69495e-15 
6.99559e-15 6.80584e-15 -4.24571e-15 
6.99559e-15 6.80584e-15 -4.24571e-15 
6.99559e-15 6.80584e-15 -4.24571e-15 
6.99559e-15 6.80584e-15 -4.24571e-15 
-8.56646e-16 -5.77345e-16 5.00784e-16 
-8.56646e-16 -5.77345e-16 5.00784e-16 
-8.56646e-16 -5.77345e-16 5.00784e-16 
-8.56646e-16 -5.77345e-16 5.00784e-16 
2.53483e-15 1.41299e-15 6.29959e-15 
2.53483e-15 1.41299e-15 6.29959e-15 
2.53483e-15 1.41299e-15 6.29959e-15 
2.53483e-15 1.41299e-15 6.29959e-15 
-2.12348e-15 -5.70818e-15 1.38156e-14 
-2.12348e-15 -5.70818e-15 1.38156e-14 
-2.12348e-15 -5.70818e-15 1.38156e-14 
-2.12348e-15 -5.70818e-15 1.38156e-14 
5.8777e-16 2.54295e-16 6.57089e-15 
5.8777e-16 2.54295e-16 6.57089e-15 
5.8777e-16 2.54295e-16 6.57089e-15 
5.8777e-16 2.54295e-16 6.57089e-15 
8.03205e-16 6.29741e-16 1.53535e-15 
8.03205e-16 6.29741e-16 1.53535e-15 
8.03205e-16 6.29741e-16 1.53535e-15 
8.03205e-16 6.29741e-16 1.53535e-15 
1.30276e-15 -1.49539e-15 -9.02704e-17 
1.30276e-15 -1.49539e-15 -9.02704e-17 
1.30276e-15 -1.49539e-15 -9.02704e-17 
1.30276e-15 -1.49539e-15 -9.02704e-17 
-3.42199e-17 2.29049e-16 -4.44089e-15 
-3.42199e-17 2.29049e-16 -4.44089e-15 
-3.42199e-17 2.29049e-16 -4.44089e-15 
-3.42199e-17 2.29049e-16 -4.44089e-15 
-6.61464e-15 4.20622e-16 -6.58464e-15 
-6.61464e-15 4.20622e-16 -6.58464e-15 
-6.61464e-15 4.20622e-16 -6.58464e-15 
-6.61464e-15 4.20622e-16 -6.58464e-15 
-1.29798e-15 1.34674e-15 1.91306e-16 
-1.29798e-15 1.34674e-15 1.91306e-16 
-1.29798e-15 1.34674e-15 1.91306e-16 
-1.29798e-15 1.34674e-15 1.91306e-16 
8.87212e-15 -1.70001e-14 2.68041e-14 
8.87212e-15 -1.70001e-14 2.68041e-14 
8.87212e-15 -1.70001e-14 2.68041e-14 
8.87212e-15 -1.70001e-14 2.68041e-14 
1.09246e-14 7.29191e-15 -2.40488e-15 
1.09246e-14 7.29191e-15 -2.40488e-15 
1.09246e-14 7.29191e-15 -2.40488e-15 
1.09246e-14 7.29191e-15 -2.40488e-15 
1.01734e-15 -1.37387e-16 7.34739e-15 
1.01734e-15 -1.37387e-16 7.34739e-15 
1.01734e-15 -1.37387e-16 7.34739e-15 
1.01734e-15 -1.37387e-16 7.34739e-15 
3.5072e-16 -2.57545e-15 5.35661e-15 
3.5072e-16 -2.57545e-15 5.35661e-15 
3.5072e-16 -2.57545e-15 5.35661e-15 
3.5072e-16 -2.57545e-15 5.35661e-15 
8.47271e-16 -8.76889e-17 -2.14642e-16 
8.47271e-16 -8.76889e-17 -2.14642e-16 
8.47271e-16 -8.76889e-17 -2.14642e-16 
8.47271e-16 -8.76889e-17 -2.14642e-16 
2.15938e-15 3.13148e-15 8.27961e-15 
2.15938e-15 3.13148e-15 8.27961e-15 
2.15938e-15 3.13148e-15 8.27961e-15 
2.15938e-15 3.13148e-15 8.27961e-15 
2.03403e-15 1.30888e-17 -5.0068e-16 
2.03403e-15 1.30888e-17 -5.0068e-16 
2.03403e-15 1.30888e-17 -5.0068e-16 
2.03403e-15 1.30888e-17 -5.0068e-16 
-5.74221e-17 -9.93567e-16 5.29625e-15 
-5.74221e-17 -9.93567e-16 5.29625e-15 
-5.74221e-17 -9.93567e-16 5.29625e-15 
-5.74221e-17 -9.93567e-16 5.29625e-15 
-6.41121e-15 -6.97621e-15 5.48121e-16 
-6.41121e-15 -6.97621e-15 5.48121e-16 
-6.41121e-15 -6.97621e-15 5.48121e-16 
-6.41121e-15 -6.97621e-15 5.48121e-16 
4.86673e-17 6.09772e-15 1.40869e-15 
4.86673e-17 6.09772e-15 1.40869e-15 
4.86673e-17 6.09772e-15 1.40869e-15 
4.86673e-17 6.09772e-15 1.40869e-15 
1.48659e-15 -3.43569e-16 7.90978e-16 
1.48659e-15 -3.43569e-16 7.90978e-16 
1.48659e-15 -3.43569e-16 7.90978e-16 
1.48659e-15 -3.43569e-16 7.90978e-16 
3.15556e-15 1.58932e-15 1.23985e-15 
3.15556e-15 1.58932e-15 1.23985e-15 
3.15556e-15 1.58932e-15 1.23985e-15 
3.15556e-15 1.58932e-15 1.23985e-15 
-4.68052e-15 -9.22513e-16 -5.61952e-15 
-4.68052e-15 -9.22513e-16 -5.61952e-15 
-4.68052e-15 -9.22513e-16 -5.61952e-15 
-4.68052e-15 -9.22513e-16 -5.61952e-15 
-1.24075e-16 6.96888e-16 4.28247e-16 
-1.24075e-16 6.96888e-16 4.28247e-16 
-1.24075e-16 6.96888e-16 4.28247e-16 
-1.24075e-16 6.96888e-16 4.28247e-16 
-3.59937e-15 -4.65718e-15 8.35455e-15 
-3.59937e-15 -4.65718e-15 8.35455e-15 
-3.59937e-15 -4.65718e-15 8.35455e-15 
-3.59937e-15 -4.65718e-15 8.35455e-15 
-2.90946e-15 -5.97051e-16 -3.88282e-15 
-2.90946e-15 -5.97051e-16 -3.88282e-15 
-2.90946e-15 -5.97051e-16 -3.88282e-15 
-2.90946e-15 -5.97051e-16 -3.88282e-15 
9.1691e-16 4.50087e-15 -6.41052e-15 
9.1691e-16 4.50087e-15 -6.41052e-15 
9.1691e-16 4.50087e-15 -6.41052e-15 
9.1691e-16 4.50087e-15 -6.41052e-15 
-8.87391e-15 6.71079e-16 9.80822e-15 
-8.87391e-15 6.71079e-16 9.80822e-15 
-8.87391e-15 6.71079e-16 9.80822e-15 
-8.87391e-15 6.71079e-16 9.80822e-15 
-1.21346e-14 -5.00117e-15 6.9816e-15 
-1.21346e-14 -5.00117e-15 6.9816e-15 
-1.21346e-14 -5.00117e-15 6.9816e-15 
-1.21346e-14 -5.00117e-15 6.9816e-15 
4.9825e-16 -7.75815e-16 -7.29423e-15 
4.9825e-16 -7.75815e-16 -7.29423e-15 
4.9825e-16 -7.75815e-16 -7.29423e-15 
4.9825e-16 -7.75815e-16 -7.29423e-15 
-1.00453e-09 2.75644e-09 -7.84695e-09 
-1.00453e-09 2.75644e-09 -7.84695e-09 
-1.00453e-09 2.75644e-09 -7.84695e-09 
-1.00453e-09 2.75644e-09 -7.84695e-09 
-6.93974e-16 -8.27133e-16 -4.10604e-15 
-6.93974e-16 -8.27133e-16 -4.10604e-15 
-6.93974e-16 -8.27133e-16 -4.10604e-15 
-6.93974e-16 -8.27133e-16 -4.10604e-15 
1.15251e-15 1.8104e-16 3.74253e-16 
1.15251e-15 1.8104e-16 3.74253e-16 
1.15251e-15 1.8104e-16 3.74253e-16 
1.15251e-15 1.8104e-16 3.74253e-16 
2.20831e-15 -1.44672e-16 -5.85865e-15 
2.20831e-15 -1.44672e-16 -5.85865e-15 
2.20831e-15 -1.44672e-16 -5.85865e-15 
2.20831e-15 -1.44672e-16 -5.85865e-15 
4.78168e-16 -1.15122e-15 9.28724e-15 
4.78168e-16 -1.15122e-15 9.28724e-15 
4.78168e-16 -1.15122e-15 9.28724e-15 
4.78168e-16 -1.15122e-15 9.28724e-15 
3.23285e-15 9.73247e-15 9.07655e-15 
3.23285e-15 9.73247e-15 9.07655e-15 
3.23285e-15 9.73247e-15 9.07655e-15 
3.23285e-15 9.73247e-15 9.07655e-15 
1.11572e-15 4.83321e-15 1.30678e-14 
1.11572e-15 4.83321e-15 1.30678e-14 
1.11572e-15 4.83321e-15 1.30678e-14 
1.11572e-15 4.83321e-15 1.30678e-14 
-8.09104e-17 9.13398e-16 -3.95046e-16 
-8.09104e-17 9.13398e-16 -3.95046e-16 
-8.09104e-17 9.13398e-16 -3.95046e-16 
-8.09104e-17 9.13398e-16 -3.95046e-16 
-2.03995e-15 6.46184e-18 -5.2618e-15 
-2.03995e-15 6.46184e-18 -5.2618e-15 
-2.03995e-15 6.46184e-18 -5.2618e-15 
-2.03995e-15 6.46184e-18 -5.2618e-15 
6.63184e-15 -5.60086e-15 -9.3932e-15 
6.63184e-15 -5.60086e-15 -9.3932e-15 
6.63184e-15 -5.60086e-15 -9.3932e-15 
6.63184e-15 -5.60086e-15 -9.3932e-15 
0.013208 -0.0197864 0.0616536 
0.013208 -0.0197864 0.0616536 
0.013208 -0.0197864 0.0616536 
0.013208 -0.0197864 0.0616536 
6.10869e-15 2.89656e-15 -1.37541e-15 
6.10869e-15 2.89656e-15 -1.37541e-15 
6.10869e-15 2.89656e-15 -1.37541e-15 
6.10869e-15 2.89656e-15 -1.37541e-15 
3.19706e-15 1.35691e-15 1.01178e-14 
3.19706e-15 1.35691e-15 1.01178e-14 
3.19706e-15 1.35691e-15 1.01178e-14 
3.19706e-15 1.35691e-15 1.01178e-14 
1.56697e-15 -8.92291e-16 -8.10691e-15 
1.56697e-15 -8.92291e-16 -8.10691e-15 
1.56697e-15 -8.92291e-16 -8.10691e-15 
1.56697e-15 -8.92291e-16 -8.10691e-15 
-6.32712e-15 -3.42756e-15 1.00621e-14 
-6.32712e-15 -3.42756e-15 1.00621e-14 
-6.32712e-15 -3.42756e-15 1.00621e-14 
-6.32712e-15 -3.42756e-15 1.00621e-14 
5.38508e-16 2.13361e-15 6.71881e-15 
5.38508e-16 2.13361e-15 6.71881e-15 
5.38508e-16 2.13361e-15 6.71881e-15 
5.38508e-16 2.13361e-15 6.71881e-15 
-6.5983e-15 1.90852e-15 -9.51311e-15 
-6.5983e-15 1.90852e-15 -9.51311e-15 
-6.5983e-15 1.90852e-15 -9.51311e-15 
-6.5983e-15 1.90852e-15 -9.51311e-15 
-1.28451e-16 4.54017e-16 1.55379e-15 
-1.28451e-16 4.54017e-16 1.55379e-15 
-1.28451e-16 4.54017e-16 1.55379e-15 
-1.28451e-16 4.54017e-16 1.55379e-15 
-1.20093e-16 7.80568e-16 4.06503e-16 
-1.20093e-16 7.80568e-16 4.06503e-16 
-1.20093e-16 7.80568e-16 4.06503e-16 
-1.20093e-16 7.80568e-16 4.06503e-16 
-1.12304e-16 2.01131e-16 4.44089e-15 
-1.12304e-16 2.01131e-16 4.44089e-15 
-1.12304e-16 2.01131e-16 4.44089e-15 
-1.12304e-16 2.01131e-16 4.44089e-15 
-6.52795e-06 -7.00474e-06 2.81793e-05 
-6.52795e-06 -7.00474e-06 2.81793e-05 
-6.52795e-06 -7.00474e-06 2.81793e-05 
-6.52795e-06 -7.00474e-06 2.81793e-05 
3.02629e-11 -2.0224e-11 1.07217e-10 
3.02629e-11 -2.0224e-11 1.07217e-10 
3.02629e-11 -2.0224e-11 1.07217e-10 
3.02629e-11 -2.0224e-11 1.07217e-10 
6.23256e-15 7.40918e-15 -3.33612e-15 
6.23256e-15 7.40918e-15 -3.33612e-15 
6.23256e-15 7.40918e-15 -3.33612e-15 
6.23256e-15 7.40918e-15 -3.33612e-15 
5.84311e-15 -2.49195e-15 -2.18412e-15 
5.84311e-15 -2.49195e-15 -2.18412e-15 
5.84311e-15 -2.49195e-15 -2.18412e-15 
5.84311e-15 -2.49195e-15 -2.18412e-15 
-3.35613e-15 2.07749e-15 -7.50675e-15 
-3.35613e-15 2.07749e-15 -7.50675e-15 
-3.35613e-15 2.07749e-15 -7.50675e-15 
-3.35613e-15 2.07749e-15 -7.50675e-15 
1.73105e-15 -2.56589e-15 9.25817e-15 
1.73105e-15 -2.56589e-15 9.25817e-15 
1.73105e-15 -2.56589e-15 9.25817e-15 
1.73105e-15 -2.56589e-15 9.25817e-15 
-1.60488e-14 -8.13595e-15 2.45512e-15 
-1.60488e-14 -8.13595e-15 2.45512e-15 
-1.60488e-14 -8.13595e-15 2.45512e-15 
-1.60488e-14 -8.13595e-15 2.45512e-15 
1.31442e-15 2.85889e-15 1.00608e-14 
1.31442e-15 2.85889e-15 1.00608e-14 
1.31442e-15 2.85889e-15 1.00608e-14 
1.31442e-15 2.85889e-15 1.00608e-14 
8.44127e-15 -4.41149e-15 9.79541e-15 
8.44127e-15 -4.41149e-15 9.79541e-15 
8.44127e-15 -4.41149e-15 9.79541e-15 
8.44127e-15 -4.41149e-15 9.79541e-15 
2.96605e-16 1.00806e-15 -8.66143e-16 
2.96605e-16 1.00806e-15 -8.66143e-16 
2.96605e-16 1.00806e-15 -8.66143e-16 
2.96605e-16 1.00806e-15 -8.66143e-16 
-1.72826e-15 -7.25487e-16 -4.71744e-15 
-1.72826e-15 -7.25487e-16 -4.71744e-15 
-1.72826e-15 -7.25487e-16 -4.71744e-15 
-1.72826e-15 -7.25487e-16 -4.71744e-15 
-5.75671e-15 -7.08576e-15 -2.48314e-14 
-5.75671e-15 -7.08576e-15 -2.48314e-14 
-5.75671e-15 -7.08576e-15 -2.48314e-14 
-5.75671e-15 -7.08576e-15 -2.48314e-14 
1.69368e-15 -7.37896e-15 9.17725e-16 
1.69368e-15 -7.37896e-15 9.17725e-16 
1.69368e-15 -7.37896e-15 9.17725e-16 
1.69368e-15 -7.37896e-15 9.17725e-16 
-8.02985e-16 -1.59171e-15 1.76471e-14 
-8.02985e-16 -1.59171e-15 1.76471e-14 
-8.02985e-16 -1.59171e-15 1.76471e-14 
-8.02985e-16 -1.59171e-15 1.76471e-14 
3.20145e-15 1.28115e-15 -6.27806e-15 
3.20145e-15 1.28115e-15 -6.27806e-15 
3.20145e-15 1.28115e-15 -6.27806e-15 
3.20145e-15 1.28115e-15 -6.27806e-15 
-1.09807e-09 2.64592e-09 -8.07982e-09 
-1.09807e-09 2.64592e-09 -8.07982e-09 
-1.09807e-09 2.64592e-09 -8.07982e-09 
-1.09807e-09 2.64592e-09 -8.07982e-09 
6.24157e-15 6.44059e-15 1.01665e-14 
6.24157e-15 6.44059e-15 1.01665e-14 
6.24157e-15 6.44059e-15 1.01665e-14 
6.24157e-15 6.44059e-15 1.01665e-14 
8.30933e-15 2.21776e-15 1.01037e-14 
8.30933e-15 2.21776e-15 1.01037e-14 
8.30933e-15 2.21776e-15 1.01037e-14 
8.30933e-15 2.21776e-15 1.01037e-14 
-1.3143e-06 3.16858e-06 9.8511e-06 
-1.3143e-06 3.16858e-06 9.8511e-06 
-1.3143e-06 3.16858e-06 9.8511e-06 
-1.3143e-06 3.16858e-06 9.8511e-06 
-6.65814e-06 -6.66403e-06 2.87794e-05 
-6.65814e-06 -6.66403e-06 2.87794e-05 
-6.65814e-06 -6.66403e-06 2.87794e-05 
-6.65814e-06 -6.66403e-06 2.87794e-05 
-6.33884e-16 -9.60345e-16 -6.03217e-15 
-6.33884e-16 -9.60345e-16 -6.03217e-15 
-6.33884e-16 -9.60345e-16 -6.03217e-15 
-6.33884e-16 -9.60345e-16 -6.03217e-15 
-9.82044e-16 -2.20324e-15 -1.3937e-16 
-9.82044e-16 -2.20324e-15 -1.3937e-16 
-9.82044e-16 -2.20324e-15 -1.3937e-16 
-9.82044e-16 -2.20324e-15 -1.3937e-16 
-1.35293e-15 1.11118e-16 -7.12325e-16 
-1.35293e-15 1.11118e-16 -7.12325e-16 
-1.35293e-15 1.11118e-16 -7.12325e-16 
-1.35293e-15 1.11118e-16 -7.12325e-16 
8.98109e-15 2.23906e-15 -1.64481e-15 
8.98109e-15 2.23906e-15 -1.64481e-15 
8.98109e-15 2.23906e-15 -1.64481e-15 
8.98109e-15 2.23906e-15 -1.64481e-15 
-8.49625e-16 9.12362e-15 -5.54578e-17 
-8.49625e-16 9.12362e-15 -5.54578e-17 
-8.49625e-16 9.12362e-15 -5.54578e-17 
-8.49625e-16 9.12362e-15 -5.54578e-17 
7.11521e-06 4.89136e-06 -2.54141e-05 
7.11521e-06 4.89136e-06 -2.54141e-05 
7.11521e-06 4.89136e-06 -2.54141e-05 
7.11521e-06 4.89136e-06 -2.54141e-05 
-7.81555e-16 1.86551e-15 -5.85468e-15 
-7.81555e-16 1.86551e-15 -5.85468e-15 
-7.81555e-16 1.86551e-15 -5.85468e-15 
-7.81555e-16 1.86551e-15 -5.85468e-15 
3.28374e-15 -5.77285e-15 7.93015e-15 
3.28374e-15 -5.77285e-15 7.93015e-15 
3.28374e-15 -5.77285e-15 7.93015e-15 
3.28374e-15 -5.77285e-15 7.93015e-15 
2.10772e-15 7.08807e-17 6.01426e-15 
2.10772e-15 7.08807e-17 6.01426e-15 
2.10772e-15 7.08807e-17 6.01426e-15 
2.10772e-15 7.08807e-17 6.01426e-15 
-6.26268e-16 3.91768e-16 1.07968e-14 
-6.26268e-16 3.91768e-16 1.07968e-14 
-6.26268e-16 3.91768e-16 1.07968e-14 
-6.26268e-16 3.91768e-16 1.07968e-14 
0.00916665 -0.0221579 0.0615996 
0.00916665 -0.0221579 0.0615996 
0.00916665 -0.0221579 0.0615996 
0.00916665 -0.0221579 0.0615996 
2.33497e-16 2.48589e-15 1.97259e-16 
2.33497e-16 2.48589e-15 1.97259e-16 
2.33497e-16 2.48589e-15 1.97259e-16 
2.33497e-16 2.48589e-15 1.97259e-16 
9.69135e-15 5.87438e-15 -2.04027e-15 
9.69135e-15 5.87438e-15 -2.04027e-15 
9.69135e-15 5.87438e-15 -2.04027e-15 
9.69135e-15 5.87438e-15 -2.04027e-15 
-3.50104e-16 -2.05017e-15 1.7659e-14 
-3.50104e-16 -2.05017e-15 1.7659e-14 
-3.50104e-16 -2.05017e-15 1.7659e-14 
-3.50104e-16 -2.05017e-15 1.7659e-14 
6.18797e-15 2.70562e-15 2.91311e-15 
6.18797e-15 2.70562e-15 2.91311e-15 
6.18797e-15 2.70562e-15 2.91311e-15 
6.18797e-15 2.70562e-15 2.91311e-15 
2.15218e-16 -1.53829e-15 -3.42601e-15 
2.15218e-16 -1.53829e-15 -3.42601e-15 
2.15218e-16 -1.53829e-15 -3.42601e-15 
2.15218e-16 -1.53829e-15 -3.42601e-15 
2.65112e-15 4.92405e-16 1.10232e-14 
2.65112e-15 4.92405e-16 1.10232e-14 
2.65112e-15 4.92405e-16 1.10232e-14 
2.65112e-15 4.92405e-16 1.10232e-14 
6.45685e-16 2.01399e-15 1.04047e-15 
6.45685e-16 2.01399e-15 1.04047e-15 
6.45685e-16 2.01399e-15 1.04047e-15 
6.45685e-16 2.01399e-15 1.04047e-15 
3.40975e-15 -6.45933e-15 5.84143e-15 
3.40975e-15 -6.45933e-15 5.84143e-15 
3.40975e-15 -6.45933e-15 5.84143e-15 
3.40975e-15 -6.45933e-15 5.84143e-15 
5.28167e-15 3.51338e-16 3.17782e-15 
5.28167e-15 3.51338e-16 3.17782e-15 
5.28167e-15 3.51338e-16 3.17782e-15 
5.28167e-15 3.51338e-16 3.17782e-15 
7.22501e-06 4.82501e-06 -2.52044e-05 
7.22501e-06 4.82501e-06 -2.52044e-05 
7.22501e-06 4.82501e-06 -2.52044e-05 
7.22501e-06 4.82501e-06 -2.52044e-05 
7.58612e-15 -2.50565e-15 4.17224e-15 
7.58612e-15 -2.50565e-15 4.17224e-15 
7.58612e-15 -2.50565e-15 4.17224e-15 
7.58612e-15 -2.50565e-15 4.17224e-15 
-5.78759e-15 -5.29589e-15 -4.83618e-15 
-5.78759e-15 -5.29589e-15 -4.83618e-15 
-5.78759e-15 -5.29589e-15 -4.83618e-15 
-5.78759e-15 -5.29589e-15 -4.83618e-15 
-0.0225057 -0.00930729 0.0615622 
-0.0225057 -0.00930729 0.0615622 
-0.0225057 -0.00930729 0.0615622 
-0.0225057 -0.00930729 0.0615622 
5.1408e-16 -2.62851e-16 -3.539e-15 
5.1408e-16 -2.62851e-16 -3.539e-15 
5.1408e-16 -2.62851e-16 -3.539e-15 
5.1408e-16 -2.62851e-16 -3.539e-15 
-0.00968141 0.0234115 0.0614896 
-0.00968141 0.0234115 0.0614896 
-0.00968141 0.0234115 0.0614896 
-0.00968141 0.0234115 0.0614896 
-4.26376e-15 4.44961e-15 -6.24048e-15 
-4.26376e-15 4.44961e-15 -6.24048e-15 
-4.26376e-15 4.44961e-15 -6.24048e-15 
-4.26376e-15 4.44961e-15 -6.24048e-15 
5.71637e-15 1.13116e-14 -2.50286e-15 
5.71637e-15 1.13116e-14 -2.50286e-15 
5.71637e-15 1.13116e-14 -2.50286e-15 
5.71637e-15 1.13116e-14 -2.50286e-15 
0.00622456 0.0220248 0.0664353 
0.00622456 0.0220248 0.0664353 
0.00622456 0.0220248 0.0664353 
0.00622456 0.0220248 0.0664353 
8.83378e-16 2.67299e-16 6.73269e-15 
8.83378e-16 2.67299e-16 6.73269e-15 
8.83378e-16 2.67299e-16 6.73269e-15 
8.83378e-16 2.67299e-16 6.73269e-15 
6.7705e-16 -1.19059e-15 1.05672e-15 
6.7705e-16 -1.19059e-15 1.05672e-15 
6.7705e-16 -1.19059e-15 1.05672e-15 
6.7705e-16 -1.19059e-15 1.05672e-15 
-1.56529e-15 3.20026e-15 1.8065e-15 
-1.56529e-15 3.20026e-15 1.8065e-15 
-1.56529e-15 3.20026e-15 1.8065e-15 
-1.56529e-15 3.20026e-15 1.8065e-15 
4.10011e-15 6.57732e-16 1.35671e-14 
4.10011e-15 6.57732e-16 1.35671e-14 
4.10011e-15 6.57732e-16 1.35671e-14 
4.10011e-15 6.57732e-16 1.35671e-14 
-2.6109e-16 2.26772e-16 2.12737e-15 
-2.6109e-16 2.26772e-16 2.12737e-15 
-2.6109e-16 2.26772e-16 2.12737e-15 
-2.6109e-16 2.26772e-16 2.12737e-15 
-0.0296777 0.00621369 0.0779771 
-0.0296777 0.00621369 0.0779771 
-0.0296777 0.00621369 0.0779771 
-0.0296777 0.00621369 0.0779771 
-5.17352e-06 -7.74806e-06 -2.5167e-05 
-5.17352e-06 -7.74806e-06 -2.5167e-05 
-5.17352e-06 -7.74806e-06 -2.5167e-05 
-5.17352e-06 -7.74806e-06 -2.5167e-05 
1.20035e-15 1.78645e-17 8.71519e-15 
1.20035e-15 1.78645e-17 8.71519e-15 
1.20035e-15 1.78645e-17 8.71519e-15 
1.20035e-15 1.78645e-17 8.71519e-15 
9.36414e-17 5.44612e-16 4.39689e-16 
9.36414e-17 5.44612e-16 4.39689e-16 
9.36414e-17 5.44612e-16 4.39689e-16 
9.36414e-17 5.44612e-16 4.39689e-16 
-5.35203e-06 -7.41486e-06 -2.5771e-05 
-5.35203e-06 -7.41486e-06 -2.5771e-05 
-5.35203e-06 -7.41486e-06 -2.5771e-05 
-5.35203e-06 -7.41486e-06 -2.5771e-05 
-7.24963e-16 -8.29033e-17 1.20018e-14 
-7.24963e-16 -8.29033e-17 1.20018e-14 
-7.24963e-16 -8.29033e-17 1.20018e-14 
-7.24963e-16 -8.29033e-17 1.20018e-14 
-3.8929e-17 1.91217e-16 2.96692e-15 
-3.8929e-17 1.91217e-16 2.96692e-15 
-3.8929e-17 1.91217e-16 2.96692e-15 
-3.8929e-17 1.91217e-16 2.96692e-15 
-1.10485e-15 -7.69965e-16 -6.40652e-15 
-1.10485e-15 -7.69965e-16 -6.40652e-15 
-1.10485e-15 -7.69965e-16 -6.40652e-15 
-1.10485e-15 -7.69965e-16 -6.40652e-15 
2.81769e-11 -2.14491e-11 1.11149e-10 
2.81769e-11 -2.14491e-11 1.11149e-10 
2.81769e-11 -2.14491e-11 1.11149e-10 
2.81769e-11 -2.14491e-11 1.11149e-10 
0.0201879 0.0134965 0.0615987 
0.0201879 0.0134965 0.0615987 
0.0201879 0.0134965 0.0615987 
0.0201879 0.0134965 0.0615987 
1.41353e-15 8.85454e-17 -6.25064e-15 
1.41353e-15 8.85454e-17 -6.25064e-15 
1.41353e-15 8.85454e-17 -6.25064e-15 
1.41353e-15 8.85454e-17 -6.25064e-15 
0.00424675 0.0259713 0.07987 
0.00424675 0.0259713 0.07987 
0.00424675 0.0259713 0.07987 
0.00424675 0.0259713 0.07987 
0.00553926 0.0263717 0.0781938 
0.00553926 0.0263717 0.0781938 
0.00553926 0.0263717 0.0781938 
0.00553926 0.0263717 0.0781938 
-5.54949e-16 8.91257e-16 4.19164e-16 
-5.54949e-16 8.91257e-16 4.19164e-16 
-5.54949e-16 8.91257e-16 4.19164e-16 
-5.54949e-16 8.91257e-16 4.19164e-16 
-1.80086e-14 -1.00655e-14 1.02961e-14 
-1.80086e-14 -1.00655e-14 1.02961e-14 
-1.80086e-14 -1.00655e-14 1.02961e-14 
-1.80086e-14 -1.00655e-14 1.02961e-14 
-2.366e-15 -1.38903e-15 1.4467e-14 
-2.366e-15 -1.38903e-15 1.4467e-14 
-2.366e-15 -1.38903e-15 1.4467e-14 
-2.366e-15 -1.38903e-15 1.4467e-14 
7.63735e-17 9.68653e-15 4.12666e-15 
7.63735e-17 9.68653e-15 4.12666e-15 
7.63735e-17 9.68653e-15 4.12666e-15 
7.63735e-17 9.68653e-15 4.12666e-15 
-1.72776e-15 -3.79297e-15 -2.22535e-15 
-1.72776e-15 -3.79297e-15 -2.22535e-15 
-1.72776e-15 -3.79297e-15 -2.22535e-15 
-1.72776e-15 -3.79297e-15 -2.22535e-15 
0.00927847 0.0224268 0.0615934 
0.00927847 0.0224268 0.0615934 
0.00927847 0.0224268 0.0615934 
0.00927847 0.0224268 0.0615934 
-8.26288e-15 1.10201e-14 -2.48831e-14 
-8.26288e-15 1.10201e-14 -2.48831e-14 
-8.26288e-15 1.10201e-14 -2.48831e-14 
-8.26288e-15 1.10201e-14 -2.48831e-14 
1.28431e-15 1.25991e-15 6.46497e-15 
1.28431e-15 1.25991e-15 6.46497e-15 
1.28431e-15 1.25991e-15 6.46497e-15 
1.28431e-15 1.25991e-15 6.46497e-15 
-7.74121e-15 2.54864e-15 3.16864e-15 
-7.74121e-15 2.54864e-15 3.16864e-15 
-7.74121e-15 2.54864e-15 3.16864e-15 
-7.74121e-15 2.54864e-15 3.16864e-15 
1.18566e-14 6.23918e-15 1.41469e-14 
1.18566e-14 6.23918e-15 1.41469e-14 
1.18566e-14 6.23918e-15 1.41469e-14 
1.18566e-14 6.23918e-15 1.41469e-14 
-5.20207e-15 7.99628e-15 -5.89107e-16 
-5.20207e-15 7.99628e-15 -5.89107e-16 
-5.20207e-15 7.99628e-15 -5.89107e-16 
-5.20207e-15 7.99628e-15 -5.89107e-16 
8.89822e-16 -3.16378e-16 8.20165e-15 
8.89822e-16 -3.16378e-16 8.20165e-15 
8.89822e-16 -3.16378e-16 8.20165e-15 
8.89822e-16 -3.16378e-16 8.20165e-15 
1.34702e-15 8.42116e-16 -4.72032e-15 
1.34702e-15 8.42116e-16 -4.72032e-15 
1.34702e-15 8.42116e-16 -4.72032e-15 
1.34702e-15 8.42116e-16 -4.72032e-15 
-2.37554e-15 -7.04151e-16 -1.08664e-14 
-2.37554e-15 -7.04151e-16 -1.08664e-14 
-2.37554e-15 -7.04151e-16 -1.08664e-14 
-2.37554e-15 -7.04151e-16 -1.08664e-14 
-7.46278e-15 -2.16965e-14 -1.47245e-17 
-7.46278e-15 -2.16965e-14 -1.47245e-17 
-7.46278e-15 -2.16965e-14 -1.47245e-17 
-7.46278e-15 -2.16965e-14 -1.47245e-17 
-1.50593e-06 2.9394e-06 1.03303e-05 
-1.50593e-06 2.9394e-06 1.03303e-05 
-1.50593e-06 2.9394e-06 1.03303e-05 
-1.50593e-06 2.9394e-06 1.03303e-05 
-5.40245e-15 -1.86949e-15 5.28085e-16 
-5.40245e-15 -1.86949e-15 5.28085e-16 
-5.40245e-15 -1.86949e-15 5.28085e-16 
-5.40245e-15 -1.86949e-15 5.28085e-16 
2.47372e-16 2.93972e-16 -7.77156e-15 
2.47372e-16 2.93972e-16 -7.77156e-15 
2.47372e-16 2.93972e-16 -7.77156e-15 
2.47372e-16 2.93972e-16 -7.77156e-15 
0.0164815 -0.0110247 0.0619749 
0.0164815 -0.0110247 0.0619749 
0.0164815 -0.0110247 0.0619749 
0.0164815 -0.0110247 0.0619749 
7.13007e-15 -3.21136e-15 3.60283e-15 
7.13007e-15 -3.21136e-15 3.60283e-15 
7.13007e-15 -3.21136e-15 3.60283e-15 
7.13007e-15 -3.21136e-15 3.60283e-15 
-7.04389e-16 -1.72086e-15 9.54092e-15 
-7.04389e-16 -1.72086e-15 9.54092e-15 
-7.04389e-16 -1.72086e-15 9.54092e-15 
-7.04389e-16 -1.72086e-15 9.54092e-15 
7.63848e-06 -1.61107e-06 -2.44174e-05 
7.63848e-06 -1.61107e-06 -2.44174e-05 
7.63848e-06 -1.61107e-06 -2.44174e-05 
7.63848e-06 -1.61107e-06 -2.44174e-05 
-7.63542e-16 2.17919e-16 1.20183e-14 
-7.63542e-16 2.17919e-16 1.20183e-14 
-7.63542e-16 2.17919e-16 1.20183e-14 
-7.63542e-16 2.17919e-16 1.20183e-14 
0.0205155 0.00849779 0.0694723 
0.0205155 0.00849779 0.0694723 
0.0205155 0.00849779 0.0694723 
0.0205155 0.00849779 0.0694723 
-9.77823e-16 -1.04631e-15 6.32746e-15 
-9.77823e-16 -1.04631e-15 6.32746e-15 
-9.77823e-16 -1.04631e-15 6.32746e-15 
-9.77823e-16 -1.04631e-15 6.32746e-15 
-2.22151e-15 -2.20023e-15 -6.04434e-15 
-2.22151e-15 -2.20023e-15 -6.04434e-15 
-2.22151e-15 -2.20023e-15 -6.04434e-15 
-2.22151e-15 -2.20023e-15 -6.04434e-15 
-4.38762e-15 1.41059e-15 4.43912e-15 
-4.38762e-15 1.41059e-15 4.43912e-15 
-4.38762e-15 1.41059e-15 4.43912e-15 
-4.38762e-15 1.41059e-15 4.43912e-15 
-5.86263e-16 6.52634e-16 3.46152e-16 
-5.86263e-16 6.52634e-16 3.46152e-16 
-5.86263e-16 6.52634e-16 3.46152e-16 
-5.86263e-16 6.52634e-16 3.46152e-16 
0.0180633 -0.00750173 0.0620482 
0.0180633 -0.00750173 0.0620482 
0.0180633 -0.00750173 0.0620482 
0.0180633 -0.00750173 0.0620482 
-2.70674e-15 3.41465e-15 6.9144e-15 
-2.70674e-15 3.41465e-15 6.9144e-15 
-2.70674e-15 3.41465e-15 6.9144e-15 
-2.70674e-15 3.41465e-15 6.9144e-15 
-0.0222377 0.00921949 0.061675 
-0.0222377 0.00921949 0.061675 
-0.0222377 0.00921949 0.061675 
-0.0222377 0.00921949 0.061675 
8.59581e-16 1.77515e-16 3.87048e-15 
8.59581e-16 1.77515e-16 3.87048e-15 
8.59581e-16 1.77515e-16 3.87048e-15 
8.59581e-16 1.77515e-16 3.87048e-15 
2.89882e-15 -7.50893e-15 5.55723e-15 
2.89882e-15 -7.50893e-15 5.55723e-15 
2.89882e-15 -7.50893e-15 5.55723e-15 
2.89882e-15 -7.50893e-15 5.55723e-15 
-0.0201273 0.0134472 0.0616519 
-0.0201273 0.0134472 0.0616519 
-0.0201273 0.0134472 0.0616519 
-0.0201273 0.0134472 0.0616519 
3.77698e-15 1.9642e-15 -4.69472e-15 
3.77698e-15 1.9642e-15 -4.69472e-15 
3.77698e-15 1.9642e-15 -4.69472e-15 
3.77698e-15 1.9642e-15 -4.69472e-15 
-0.0161187 -0.0161248 0.0617246 
-0.0161187 -0.0161248 0.0617246 
-0.0161187 -0.0161248 0.0617246 
-0.0161187 -0.0161248 0.0617246 
4.24341e-16 2.15379e-15 -1.02906e-15 
4.24341e-16 2.15379e-15 -1.02906e-15 
4.24341e-16 2.15379e-15 -1.02906e-15 
4.24341e-16 2.15379e-15 -1.02906e-15 
-5.65253e-15 2.69761e-15 -5.94044e-15 
-5.65253e-15 2.69761e-15 -5.94044e-15 
-5.65253e-15 2.69761e-15 -5.94044e-15 
-5.65253e-15 2.69761e-15 -5.94044e-15 
-3.53436e-16 -1.41065e-16 0 
-3.53436e-16 -1.41065e-16 0 
-3.53436e-16 -1.41065e-16 0 
-3.53436e-16 -1.41065e-16 0 
-2.85892e-15 -4.25599e-15 9.39908e-17 
-2.85892e-15 -4.25599e-15 9.39908e-17 
-2.85892e-15 -4.25599e-15 9.39908e-17 
-2.85892e-15 -4.25599e-15 9.39908e-17 
-6.89254e-16 1.82112e-15 -4.2662e-15 
-6.89254e-16 1.82112e-15 -4.2662e-15 
-6.89254e-16 1.82112e-15 -4.2662e-15 
-6.89254e-16 1.82112e-15 -4.2662e-15 
-2.73962e-15 3.66342e-15 6.95035e-15 
-2.73962e-15 3.66342e-15 6.95035e-15 
-2.73962e-15 3.66342e-15 6.95035e-15 
-2.73962e-15 3.66342e-15 6.95035e-15 
-0.0187646 -0.012219 0.0690369 
-0.0187646 -0.012219 0.0690369 
-0.0187646 -0.012219 0.0690369 
-0.0187646 -0.012219 0.0690369 
2.06943e-15 -3.41685e-15 8.32353e-15 
2.06943e-15 -3.41685e-15 8.32353e-15 
2.06943e-15 -3.41685e-15 8.32353e-15 
2.06943e-15 -3.41685e-15 8.32353e-15 
-1.24762e-14 4.73944e-15 4.55794e-16 
-1.24762e-14 4.73944e-15 4.55794e-16 
-1.24762e-14 4.73944e-15 4.55794e-16 
-1.24762e-14 4.73944e-15 4.55794e-16 
-3.53193e-16 2.44738e-16 3.05391e-16 
-3.53193e-16 2.44738e-16 3.05391e-16 
-3.53193e-16 2.44738e-16 3.05391e-16 
-3.53193e-16 2.44738e-16 3.05391e-16 
7.39432e-16 2.51823e-15 1.3914e-15 
7.39432e-16 2.51823e-15 1.3914e-15 
7.39432e-16 2.51823e-15 1.3914e-15 
7.39432e-16 2.51823e-15 1.3914e-15 
-8.13538e-16 1.06543e-15 1.51069e-15 
-8.13538e-16 1.06543e-15 1.51069e-15 
-8.13538e-16 1.06543e-15 1.51069e-15 
-8.13538e-16 1.06543e-15 1.51069e-15 
2.63592e-15 5.79029e-15 5.73891e-17 
2.63592e-15 5.79029e-15 5.73891e-17 
2.63592e-15 5.79029e-15 5.73891e-17 
2.63592e-15 5.79029e-15 5.73891e-17 
5.45584e-15 -4.7757e-15 5.62856e-15 
5.45584e-15 -4.7757e-15 5.62856e-15 
5.45584e-15 -4.7757e-15 5.62856e-15 
5.45584e-15 -4.7757e-15 5.62856e-15 
-1.16128e-15 4.0503e-15 5.7468e-16 
-1.16128e-15 4.0503e-15 5.7468e-16 
-1.16128e-15 4.0503e-15 5.7468e-16 
-1.16128e-15 4.0503e-15 5.7468e-16 
-1.16652e-15 -1.96041e-15 -4.35497e-15 
-1.16652e-15 -1.96041e-15 -4.35497e-15 
-1.16652e-15 -1.96041e-15 -4.35497e-15 
-1.16652e-15 -1.96041e-15 -4.35497e-15 
2.95155e-15 -1.08172e-14 -1.52493e-15 
2.95155e-15 -1.08172e-14 -1.52493e-15 
2.95155e-15 -1.08172e-14 -1.52493e-15 
2.95155e-15 -1.08172e-14 -1.52493e-15 
-0.0132045 0.0184814 0.0708379 
-0.0132045 0.0184814 0.0708379 
-0.0132045 0.0184814 0.0708379 
-0.0132045 0.0184814 0.0708379 
0.00733949 -0.0199155 0.0706593 
0.00733949 -0.0199155 0.0706593 
0.00733949 -0.0199155 0.0706593 
0.00733949 -0.0199155 0.0706593 
-1.26294e-06 1.5361e-06 5.85135e-06 
-1.26294e-06 1.5361e-06 5.85135e-06 
-1.26294e-06 1.5361e-06 5.85135e-06 
-1.26294e-06 1.5361e-06 5.85135e-06 
1.0394e-15 -8.06323e-16 -1.15793e-15 
1.0394e-15 -8.06323e-16 -1.15793e-15 
1.0394e-15 -8.06323e-16 -1.15793e-15 
1.0394e-15 -8.06323e-16 -1.15793e-15 
-1.72608e-15 4.09147e-17 3.0902e-15 
-1.72608e-15 4.09147e-17 3.0902e-15 
-1.72608e-15 4.09147e-17 3.0902e-15 
-1.72608e-15 4.09147e-17 3.0902e-15 
-1.30972e-15 5.40543e-15 1.85473e-15 
-1.30972e-15 5.40543e-15 1.85473e-15 
-1.30972e-15 5.40543e-15 1.85473e-15 
-1.30972e-15 5.40543e-15 1.85473e-15 
-1.90389e-16 6.19763e-16 2.85123e-16 
-1.90389e-16 6.19763e-16 2.85123e-16 
-1.90389e-16 6.19763e-16 2.85123e-16 
-1.90389e-16 6.19763e-16 2.85123e-16 
-1.93843e-06 1.29428e-06 4.79675e-06 
-1.93843e-06 1.29428e-06 4.79675e-06 
-1.93843e-06 1.29428e-06 4.79675e-06 
-1.93843e-06 1.29428e-06 4.79675e-06 
4.3878e-15 2.13152e-15 1.5638e-15 
4.3878e-15 2.13152e-15 1.5638e-15 
4.3878e-15 2.13152e-15 1.5638e-15 
4.3878e-15 2.13152e-15 1.5638e-15 
7.65968e-06 -1.70201e-06 -2.4298e-05 
7.65968e-06 -1.70201e-06 -2.4298e-05 
7.65968e-06 -1.70201e-06 -2.4298e-05 
7.65968e-06 -1.70201e-06 -2.4298e-05 
1.57459e-06 6.5134e-07 -5.04486e-06 
1.57459e-06 6.5134e-07 -5.04486e-06 
1.57459e-06 6.5134e-07 -5.04486e-06 
1.57459e-06 6.5134e-07 -5.04486e-06 
0.0212497 0.00881277 0.0617584 
0.0212497 0.00881277 0.0617584 
0.0212497 0.00881277 0.0617584 
0.0212497 0.00881277 0.0617584 
-0.0160277 0.0240108 0.0612324 
-0.0160277 0.0240108 0.0612324 
-0.0160277 0.0240108 0.0612324 
-0.0160277 0.0240108 0.0612324 
2.09027e-15 1.48349e-15 -5.3208e-15 
2.09027e-15 1.48349e-15 -5.3208e-15 
2.09027e-15 1.48349e-15 -5.3208e-15 
2.09027e-15 1.48349e-15 -5.3208e-15 
-9.54236e-16 6.87735e-16 -8.50767e-15 
-9.54236e-16 6.87735e-16 -8.50767e-15 
-9.54236e-16 6.87735e-16 -8.50767e-15 
-9.54236e-16 6.87735e-16 -8.50767e-15 
-3.12004e-16 8.34543e-16 -7.59575e-15 
-3.12004e-16 8.34543e-16 -7.59575e-15 
-3.12004e-16 8.34543e-16 -7.59575e-15 
-3.12004e-16 8.34543e-16 -7.59575e-15 
-1.62333e-15 3.32439e-15 8.5233e-16 
-1.62333e-15 3.32439e-15 8.5233e-16 
-1.62333e-15 3.32439e-15 8.5233e-16 
-1.62333e-15 3.32439e-15 8.5233e-16 
-4.14125e-15 -1.92211e-15 -1.64303e-15 
-4.14125e-15 -1.92211e-15 -1.64303e-15 
-4.14125e-15 -1.92211e-15 -1.64303e-15 
-4.14125e-15 -1.92211e-15 -1.64303e-15 
6.01563e-16 8.35211e-16 1.95077e-15 
6.01563e-16 8.35211e-16 1.95077e-15 
6.01563e-16 8.35211e-16 1.95077e-15 
6.01563e-16 8.35211e-16 1.95077e-15 
-5.52891e-16 -2.1537e-16 0 
-5.52891e-16 -2.1537e-16 0 
-5.52891e-16 -2.1537e-16 0 
-5.52891e-16 -2.1537e-16 0 
-2.41543e-07 -2.41454e-07 -9.46102e-07 
-2.41543e-07 -2.41454e-07 -9.46102e-07 
-2.41543e-07 -2.41454e-07 -9.46102e-07 
-2.41543e-07 -2.41454e-07 -9.46102e-07 
1.03195e-16 3.55828e-17 4.44089e-15 
1.03195e-16 3.55828e-17 4.44089e-15 
1.03195e-16 3.55828e-17 4.44089e-15 
1.03195e-16 3.55828e-17 4.44089e-15 
-0.0186487 0.0142209 0.0643071 
-0.0186487 0.0142209 0.0643071 
-0.0186487 0.0142209 0.0643071 
-0.0186487 0.0142209 0.0643071 
9.95254e-16 3.30403e-16 7.11832e-16 
9.95254e-16 3.30403e-16 7.11832e-16 
9.95254e-16 3.30403e-16 7.11832e-16 
9.95254e-16 3.30403e-16 7.11832e-16 
-0.0191227 -0.0127773 0.0617217 
-0.0191227 -0.0127773 0.0617217 
-0.0191227 -0.0127773 0.0617217 
-0.0191227 -0.0127773 0.0617217 
0.0170764 -0.017053 0.0616135 
0.0170764 -0.017053 0.0616135 
0.0170764 -0.017053 0.0616135 
0.0170764 -0.017053 0.0616135 
9.91058e-16 6.86655e-16 3.86577e-15 
9.91058e-16 6.86655e-16 3.86577e-15 
9.91058e-16 6.86655e-16 3.86577e-15 
9.91058e-16 6.86655e-16 3.86577e-15 
1.14868e-17 1.0039e-15 5.87506e-16 
1.14868e-17 1.0039e-15 5.87506e-16 
1.14868e-17 1.0039e-15 5.87506e-16 
1.14868e-17 1.0039e-15 5.87506e-16 
-5.29485e-16 5.93858e-16 -9.16041e-16 
-5.29485e-16 5.93858e-16 -9.16041e-16 
-5.29485e-16 5.93858e-16 -9.16041e-16 
-5.29485e-16 5.93858e-16 -9.16041e-16 
-5.72644e-16 4.70628e-16 -6.77139e-15 
-5.72644e-16 4.70628e-16 -6.77139e-15 
-5.72644e-16 4.70628e-16 -6.77139e-15 
-5.72644e-16 4.70628e-16 -6.77139e-15 
1.21892e-15 -4.67399e-16 3.22955e-16 
1.21892e-15 -4.67399e-16 3.22955e-16 
1.21892e-15 -4.67399e-16 3.22955e-16 
1.21892e-15 -4.67399e-16 3.22955e-16 
-0.0108561 -0.0261684 0.061323 
-0.0108561 -0.0261684 0.061323 
-0.0108561 -0.0261684 0.061323 
-0.0108561 -0.0261684 0.061323 
-0.0204502 0.0204479 0.0612482 
-0.0204502 0.0204479 0.0612482 
-0.0204502 0.0204479 0.0612482 
-0.0204502 0.0204479 0.0612482 
-4.36683e-06 -1.81129e-06 -1.01113e-05 
-4.36683e-06 -1.81129e-06 -1.01113e-05 
-4.36683e-06 -1.81129e-06 -1.01113e-05 
-4.36683e-06 -1.81129e-06 -1.01113e-05 
-9.00329e-16 -1.94422e-15 7.27645e-16 
-9.00329e-16 -1.94422e-15 7.27645e-16 
-9.00329e-16 -1.94422e-15 7.27645e-16 
-9.00329e-16 -1.94422e-15 7.27645e-16 
-1.4457e-16 1.28411e-15 2.21047e-16 
-1.4457e-16 1.28411e-15 2.21047e-16 
-1.4457e-16 1.28411e-15 2.21047e-16 
-1.4457e-16 1.28411e-15 2.21047e-16 
1.59527e-06 6.2983e-07 -4.99491e-06 
1.59527e-06 6.2983e-07 -4.99491e-06 
1.59527e-06 6.2983e-07 -4.99491e-06 
1.59527e-06 6.2983e-07 -4.99491e-06 
0.0165899 -0.0103685 0.0630675 
0.0165899 -0.0103685 0.0630675 
0.0165899 -0.0103685 0.0630675 
0.0165899 -0.0103685 0.0630675 
5.58515e-15 -5.33495e-15 -6.66134e-15 
5.58515e-15 -5.33495e-15 -6.66134e-15 
5.58515e-15 -5.33495e-15 -6.66134e-15 
5.58515e-15 -5.33495e-15 -6.66134e-15 
9.04712e-16 -2.43027e-16 -1.25537e-15 
9.04712e-16 -2.43027e-16 -1.25537e-15 
9.04712e-16 -2.43027e-16 -1.25537e-15 
9.04712e-16 -2.43027e-16 -1.25537e-15 
4.06551e-07 -2.34614e-07 -1.36345e-06 
4.06551e-07 -2.34614e-07 -1.36345e-06 
4.06551e-07 -2.34614e-07 -1.36345e-06 
4.06551e-07 -2.34614e-07 -1.36345e-06 
2.215e-06 -3.31235e-06 -8.42542e-06 
2.215e-06 -3.31235e-06 -8.42542e-06 
2.215e-06 -3.31235e-06 -8.42542e-06 
2.215e-06 -3.31235e-06 -8.42542e-06 
3.81277e-07 -3.8171e-07 -1.14079e-06 
3.81277e-07 -3.8171e-07 -1.14079e-06 
3.81277e-07 -3.8171e-07 -1.14079e-06 
3.81277e-07 -3.8171e-07 -1.14079e-06 
-1.43364e-05 5.92823e-06 3.18386e-05 
-1.43364e-05 5.92823e-06 3.18386e-05 
-1.43364e-05 5.92823e-06 3.18386e-05 
-1.43364e-05 5.92823e-06 3.18386e-05 
-7.12897e-16 4.91698e-17 -7.00319e-17 
-7.12897e-16 4.91698e-17 -7.00319e-17 
-7.12897e-16 4.91698e-17 -7.00319e-17 
-7.12897e-16 4.91698e-17 -7.00319e-17 
0.00244278 0.0403105 0.121367 
0.00244278 0.0403105 0.121367 
0.00244278 0.0403105 0.121367 
0.00244278 0.0403105 0.121367 
0.0184301 0.0111367 0.0676014 
0.0184301 0.0111367 0.0676014 
0.0184301 0.0111367 0.0676014 
0.0184301 0.0111367 0.0676014 
0.0126621 -0.01721 0.070915 
0.0126621 -0.01721 0.070915 
0.0126621 -0.01721 0.070915 
0.0126621 -0.01721 0.070915 
-6.56044e-15 -8.50666e-15 1.25104e-15 
-6.56044e-15 -8.50666e-15 1.25104e-15 
-6.56044e-15 -8.50666e-15 1.25104e-15 
-6.56044e-15 -8.50666e-15 1.25104e-15 
-0.0215557 0.0142159 0.0707217 
-0.0215557 0.0142159 0.0707217 
-0.0215557 0.0142159 0.0707217 
-0.0215557 0.0142159 0.0707217 
-1.0479e-14 4.53901e-15 5.06817e-15 
-1.0479e-14 4.53901e-15 5.06817e-15 
-1.0479e-14 4.53901e-15 5.06817e-15 
-1.0479e-14 4.53901e-15 5.06817e-15 
-0.0156821 -0.0234587 0.0612341 
-0.0156821 -0.0234587 0.0612341 
-0.0156821 -0.0234587 0.0612341 
-0.0156821 -0.0234587 0.0612341 
-0.0398446 -0.0111234 0.121365 
-0.0398446 -0.0111234 0.121365 
-0.0398446 -0.0111234 0.121365 
-0.0398446 -0.0111234 0.121365 
-3.32075e-16 -2.47682e-16 1.42229e-15 
-3.32075e-16 -2.47682e-16 1.42229e-15 
-3.32075e-16 -2.47682e-16 1.42229e-15 
-3.32075e-16 -2.47682e-16 1.42229e-15 
-1.30972e-05 6.23011e-07 3.99171e-05 
-1.30972e-05 6.23011e-07 3.99171e-05 
-1.30972e-05 6.23011e-07 3.99171e-05 
-1.30972e-05 6.23011e-07 3.99171e-05 
2.57707e-16 6.78714e-16 3.49104e-16 
2.57707e-16 6.78714e-16 3.49104e-16 
2.57707e-16 6.78714e-16 3.49104e-16 
2.57707e-16 6.78714e-16 3.49104e-16 
-5.50104e-15 -1.76427e-15 6.36597e-15 
-5.50104e-15 -1.76427e-15 6.36597e-15 
-5.50104e-15 -1.76427e-15 6.36597e-15 
-5.50104e-15 -1.76427e-15 6.36597e-15 
-6.80686e-15 -2.73001e-15 8.94627e-16 
-6.80686e-15 -2.73001e-15 8.94627e-16 
-6.80686e-15 -2.73001e-15 8.94627e-16 
-6.80686e-15 -2.73001e-15 8.94627e-16 
-0.0300539 -0.00633402 0.0778754 
-0.0300539 -0.00633402 0.0778754 
-0.0300539 -0.00633402 0.0778754 
-0.0300539 -0.00633402 0.0778754 
-4.27251e-15 -6.54716e-15 -5.18399e-15 
-4.27251e-15 -6.54716e-15 -5.18399e-15 
-4.27251e-15 -6.54716e-15 -5.18399e-15 
-4.27251e-15 -6.54716e-15 -5.18399e-15 
1.83947e-09 -2.74962e-09 8.65976e-09 
1.83947e-09 -2.74962e-09 8.65976e-09 
1.83947e-09 -2.74962e-09 8.65976e-09 
1.83947e-09 -2.74962e-09 8.65976e-09 
-4.88613e-16 8.29973e-16 2.38494e-16 
-4.88613e-16 8.29973e-16 2.38494e-16 
-4.88613e-16 8.29973e-16 2.38494e-16 
-4.88613e-16 8.29973e-16 2.38494e-16 
1.9415e-16 -3.55699e-16 4.44089e-15 
1.9415e-16 -3.55699e-16 4.44089e-15 
1.9415e-16 -3.55699e-16 4.44089e-15 
1.9415e-16 -3.55699e-16 4.44089e-15 
-2.85888e-15 -3.59387e-16 -3.21372e-15 
-2.85888e-15 -3.59387e-16 -3.21372e-15 
-2.85888e-15 -3.59387e-16 -3.21372e-15 
-2.85888e-15 -3.59387e-16 -3.21372e-15 
0.0281049 0.0050709 0.0791944 
0.0281049 0.0050709 0.0791944 
0.0281049 0.0050709 0.0791944 
0.0281049 0.0050709 0.0791944 
0.0180019 -0.00890671 0.0596727 
0.0180019 -0.00890671 0.0596727 
0.0180019 -0.00890671 0.0596727 
0.0180019 -0.00890671 0.0596727 
7.3827e-15 1.26544e-15 4.81869e-15 
7.3827e-15 1.26544e-15 4.81869e-15 
7.3827e-15 1.26544e-15 4.81869e-15 
7.3827e-15 1.26544e-15 4.81869e-15 
-2.37028e-07 -2.52918e-07 -9.25739e-07 
-2.37028e-07 -2.52918e-07 -9.25739e-07 
-2.37028e-07 -2.52918e-07 -9.25739e-07 
-2.37028e-07 -2.52918e-07 -9.25739e-07 
-1.66536e-16 1.88375e-15 8.46819e-15 
-1.66536e-16 1.88375e-15 8.46819e-15 
-1.66536e-16 1.88375e-15 8.46819e-15 
-1.66536e-16 1.88375e-15 8.46819e-15 
7.77013e-15 6.27492e-15 1.95232e-14 
7.77013e-15 6.27492e-15 1.95232e-14 
7.77013e-15 6.27492e-15 1.95232e-14 
7.77013e-15 6.27492e-15 1.95232e-14 
-0.00648562 0.0237243 0.0754283 
-0.00648562 0.0237243 0.0754283 
-0.00648562 0.0237243 0.0754283 
-0.00648562 0.0237243 0.0754283 
7.44629e-15 4.89741e-15 6.18658e-15 
7.44629e-15 4.89741e-15 6.18658e-15 
7.44629e-15 4.89741e-15 6.18658e-15 
7.44629e-15 4.89741e-15 6.18658e-15 
0.0171928 0.0171813 0.0616586 
0.0171928 0.0171813 0.0616586 
0.0171928 0.0171813 0.0616586 
0.0171928 0.0171813 0.0616586 
-2.14247e-15 6.33117e-15 2.72659e-15 
-2.14247e-15 6.33117e-15 2.72659e-15 
-2.14247e-15 6.33117e-15 2.72659e-15 
-2.14247e-15 6.33117e-15 2.72659e-15 
3.90492e-15 4.41626e-15 8.86644e-15 
3.90492e-15 4.41626e-15 8.86644e-15 
3.90492e-15 4.41626e-15 8.86644e-15 
3.90492e-15 4.41626e-15 8.86644e-15 
1.98772e-15 -1.74793e-15 3.82051e-15 
1.98772e-15 -1.74793e-15 3.82051e-15 
1.98772e-15 -1.74793e-15 3.82051e-15 
1.98772e-15 -1.74793e-15 3.82051e-15 
8.26833e-07 -3.27598e-06 -1.04963e-05 
8.26833e-07 -3.27598e-06 -1.04963e-05 
8.26833e-07 -3.27598e-06 -1.04963e-05 
8.26833e-07 -3.27598e-06 -1.04963e-05 
0.013495 0.0201962 0.0616453 
0.013495 0.0201962 0.0616453 
0.013495 0.0201962 0.0616453 
0.013495 0.0201962 0.0616453 
2.13923e-15 -3.15546e-15 1.50937e-15 
2.13923e-15 -3.15546e-15 1.50937e-15 
2.13923e-15 -3.15546e-15 1.50937e-15 
2.13923e-15 -3.15546e-15 1.50937e-15 
1.7135e-09 -2.95012e-09 8.27031e-09 
1.7135e-09 -2.95012e-09 8.27031e-09 
1.7135e-09 -2.95012e-09 8.27031e-09 
1.7135e-09 -2.95012e-09 8.27031e-09 
-0.0270501 0.00228105 0.0889731 
-0.0270501 0.00228105 0.0889731 
-0.0270501 0.00228105 0.0889731 
-0.0270501 0.00228105 0.0889731 
5.12457e-06 1.23928e-05 2.99629e-05 
5.12457e-06 1.23928e-05 2.99629e-05 
5.12457e-06 1.23928e-05 2.99629e-05 
5.12457e-06 1.23928e-05 2.99629e-05 
-0.00662322 0.0314308 0.0777801 
-0.00662322 0.0314308 0.0777801 
-0.00662322 0.0314308 0.0777801 
-0.00662322 0.0314308 0.0777801 
-1.01298e-15 -2.00288e-15 -8.55583e-15 
-1.01298e-15 -2.00288e-15 -8.55583e-15 
-1.01298e-15 -2.00288e-15 -8.55583e-15 
-1.01298e-15 -2.00288e-15 -8.55583e-15 
4.3492e-15 -1.66445e-16 -1.11022e-14 
4.3492e-15 -1.66445e-16 -1.11022e-14 
4.3492e-15 -1.66445e-16 -1.11022e-14 
4.3492e-15 -1.66445e-16 -1.11022e-14 
-0.0195426 -0.00949442 0.0670756 
-0.0195426 -0.00949442 0.0670756 
-0.0195426 -0.00949442 0.0670756 
-0.0195426 -0.00949442 0.0670756 
0.0283807 0.0059412 0.078067 
0.0283807 0.0059412 0.078067 
0.0283807 0.0059412 0.078067 
0.0283807 0.0059412 0.078067 
-0.0359124 -0.00215699 0.121365 
-0.0359124 -0.00215699 0.121365 
-0.0359124 -0.00215699 0.121365 
-0.0359124 -0.00215699 0.121365 
5.5891e-16 -9.5415e-16 6.5585e-15 
5.5891e-16 -9.5415e-16 6.5585e-15 
5.5891e-16 -9.5415e-16 6.5585e-15 
5.5891e-16 -9.5415e-16 6.5585e-15 
0.0271668 -0.0109394 0.0709842 
0.0271668 -0.0109394 0.0709842 
0.0271668 -0.0109394 0.0709842 
0.0271668 -0.0109394 0.0709842 
-0.00194861 -0.0243477 0.0750672 
-0.00194861 -0.0243477 0.0750672 
-0.00194861 -0.0243477 0.0750672 
-0.00194861 -0.0243477 0.0750672 
9.18798e-16 -1.92844e-15 5.86684e-15 
9.18798e-16 -1.92844e-15 5.86684e-15 
9.18798e-16 -1.92844e-15 5.86684e-15 
9.18798e-16 -1.92844e-15 5.86684e-15 
4.80593e-07 -1.41003e-09 -1.47907e-06 
4.80593e-07 -1.41003e-09 -1.47907e-06 
4.80593e-07 -1.41003e-09 -1.47907e-06 
4.80593e-07 -1.41003e-09 -1.47907e-06 
-0.00189013 0.0297702 0.0838749 
-0.00189013 0.0297702 0.0838749 
-0.00189013 0.0297702 0.0838749 
-0.00189013 0.0297702 0.0838749 
-2.21068e-15 5.4925e-16 -6.63852e-15 
-2.21068e-15 5.4925e-16 -6.63852e-15 
-2.21068e-15 5.4925e-16 -6.63852e-15 
-2.21068e-15 5.4925e-16 -6.63852e-15 
-2.18793e-14 -1.47882e-14 -1.4012e-14 
-2.18793e-14 -1.47882e-14 -1.4012e-14 
-2.18793e-14 -1.47882e-14 -1.4012e-14 
-2.18793e-14 -1.47882e-14 -1.4012e-14 
6.60349e-06 1.05521e-05 3.37133e-05 
6.60349e-06 1.05521e-05 3.37133e-05 
6.60349e-06 1.05521e-05 3.37133e-05 
6.60349e-06 1.05521e-05 3.37133e-05 
-7.2308e-16 6.38746e-15 -6.68616e-15 
-7.2308e-16 6.38746e-15 -6.68616e-15 
-7.2308e-16 6.38746e-15 -6.68616e-15 
-7.2308e-16 6.38746e-15 -6.68616e-15 
-6.20193e-16 9.78984e-16 2.17612e-15 
-6.20193e-16 9.78984e-16 2.17612e-15 
-6.20193e-16 9.78984e-16 2.17612e-15 
-6.20193e-16 9.78984e-16 2.17612e-15 
2.19072e-15 -7.19843e-15 -6.66134e-15 
2.19072e-15 -7.19843e-15 -6.66134e-15 
2.19072e-15 -7.19843e-15 -6.66134e-15 
2.19072e-15 -7.19843e-15 -6.66134e-15 
-0.0212205 0.00239039 0.0724378 
-0.0212205 0.00239039 0.0724378 
-0.0212205 0.00239039 0.0724378 
-0.0212205 0.00239039 0.0724378 
1.87594e-06 1.74234e-06 5.36644e-06 
1.87594e-06 1.74234e-06 5.36644e-06 
1.87594e-06 1.74234e-06 5.36644e-06 
1.87594e-06 1.74234e-06 5.36644e-06 
1.32833e-15 3.86775e-15 1.87031e-16 
1.32833e-15 3.86775e-15 1.87031e-16 
1.32833e-15 3.86775e-15 1.87031e-16 
1.32833e-15 3.86775e-15 1.87031e-16 
-2.70192e-15 -2.79707e-15 -5.96879e-15 
-2.70192e-15 -2.79707e-15 -5.96879e-15 
-2.70192e-15 -2.79707e-15 -5.96879e-15 
-2.70192e-15 -2.79707e-15 -5.96879e-15 
1.25582e-14 9.60594e-16 2.95678e-16 
1.25582e-14 9.60594e-16 2.95678e-16 
1.25582e-14 9.60594e-16 2.95678e-16 
1.25582e-14 9.60594e-16 2.95678e-16 
-6.48308e-16 -5.9428e-17 -9.95526e-16 
-6.48308e-16 -5.9428e-17 -9.95526e-16 
-6.48308e-16 -5.9428e-17 -9.95526e-16 
-6.48308e-16 -5.9428e-17 -9.95526e-16 
0.00720981 -0.0441115 0.121365 
0.00720981 -0.0441115 0.121365 
0.00720981 -0.0441115 0.121365 
0.00720981 -0.0441115 0.121365 
0.0464727 0.00670417 0.121365 
0.0464727 0.00670417 0.121365 
0.0464727 0.00670417 0.121365 
0.0464727 0.00670417 0.121365 
-0.0105877 -0.0175986 0.0707094 
-0.0105877 -0.0175986 0.0707094 
-0.0105877 -0.0175986 0.0707094 
-0.0105877 -0.0175986 0.0707094 
-0.0236804 0.0130522 0.0922824 
-0.0236804 0.0130522 0.0922824 
-0.0236804 0.0130522 0.0922824 
-0.0236804 0.0130522 0.0922824 
-1.26554e-14 3.84109e-15 1.50826e-14 
-1.26554e-14 3.84109e-15 1.50826e-14 
-1.26554e-14 3.84109e-15 1.50826e-14 
-1.26554e-14 3.84109e-15 1.50826e-14 
4.99734e-07 3.00032e-08 -1.47907e-06 
4.99734e-07 3.00032e-08 -1.47907e-06 
4.99734e-07 3.00032e-08 -1.47907e-06 
4.99734e-07 3.00032e-08 -1.47907e-06 
1.9689e-06 1.31563e-06 6.0974e-06 
1.9689e-06 1.31563e-06 6.0974e-06 
1.9689e-06 1.31563e-06 6.0974e-06 
1.9689e-06 1.31563e-06 6.0974e-06 
-7.69377e-16 3.39443e-16 4.59407e-15 
-7.69377e-16 3.39443e-16 4.59407e-15 
-7.69377e-16 3.39443e-16 4.59407e-15 
-7.69377e-16 3.39443e-16 4.59407e-15 
0.0186772 -0.0122643 0.0697747 
0.0186772 -0.0122643 0.0697747 
0.0186772 -0.0122643 0.0697747 
0.0186772 -0.0122643 0.0697747 
-5.53544e-16 -5.55888e-16 6.9725e-15 
-5.53544e-16 -5.55888e-16 6.9725e-15 
-5.53544e-16 -5.55888e-16 6.9725e-15 
-5.53544e-16 -5.55888e-16 6.9725e-15 
0.00632086 -0.0299913 0.0778797 
0.00632086 -0.0299913 0.0778797 
0.00632086 -0.0299913 0.0778797 
0.00632086 -0.0299913 0.0778797 
-4.05549e-06 -2.84711e-07 -1.24672e-05 
-4.05549e-06 -2.84711e-07 -1.24672e-05 
-4.05549e-06 -2.84711e-07 -1.24672e-05 
-4.05549e-06 -2.84711e-07 -1.24672e-05 
0.0262051 -0.00548415 0.0782177 
0.0262051 -0.00548415 0.0782177 
0.0262051 -0.00548415 0.0782177 
0.0262051 -0.00548415 0.0782177 
0.00241226 0.0402954 0.121367 
0.00241226 0.0402954 0.121367 
0.00241226 0.0402954 0.121367 
0.00241226 0.0402954 0.121367 
0.00204265 -0.028771 0.0834498 
0.00204265 -0.028771 0.0834498 
0.00204265 -0.028771 0.0834498 
0.00204265 -0.028771 0.0834498 
-2.41502e-15 -4.49335e-15 1.60833e-14 
-2.41502e-15 -4.49335e-15 1.60833e-14 
-2.41502e-15 -4.49335e-15 1.60833e-14 
-2.41502e-15 -4.49335e-15 1.60833e-14 
-2.32794e-15 3.17381e-15 -2.22045e-15 
-2.32794e-15 3.17381e-15 -2.22045e-15 
-2.32794e-15 3.17381e-15 -2.22045e-15 
-2.32794e-15 3.17381e-15 -2.22045e-15 
1.84833e-15 -1.00443e-15 -1.11022e-14 
1.84833e-15 -1.00443e-15 -1.11022e-14 
1.84833e-15 -1.00443e-15 -1.11022e-14 
1.84833e-15 -1.00443e-15 -1.11022e-14 
-3.82001e-16 6.74784e-16 -3.50866e-15 
-3.82001e-16 6.74784e-16 -3.50866e-15 
-3.82001e-16 6.74784e-16 -3.50866e-15 
-3.82001e-16 6.74784e-16 -3.50866e-15 
-0.0199258 -0.0125442 0.0787325 
-0.0199258 -0.0125442 0.0787325 
-0.0199258 -0.0125442 0.0787325 
-0.0199258 -0.0125442 0.0787325 
1.67201e-15 -7.72784e-15 1.05378e-14 
1.67201e-15 -7.72784e-15 1.05378e-14 
1.67201e-15 -7.72784e-15 1.05378e-14 
1.67201e-15 -7.72784e-15 1.05378e-14 
-4.03502e-16 -6.80327e-17 2.65058e-15 
-4.03502e-16 -6.80327e-17 2.65058e-15 
-4.03502e-16 -6.80327e-17 2.65058e-15 
-4.03502e-16 -6.80327e-17 2.65058e-15 
0.0070963 0.0198866 0.0780918 
0.0070963 0.0198866 0.0780918 
0.0070963 0.0198866 0.0780918 
0.0070963 0.0198866 0.0780918 
8.54606e-15 2.57746e-15 -8.95234e-15 
8.54606e-15 2.57746e-15 -8.95234e-15 
8.54606e-15 2.57746e-15 -8.95234e-15 
8.54606e-15 2.57746e-15 -8.95234e-15 
-4.82947e-15 -3.6673e-16 -5.79182e-15 
-4.82947e-15 -3.6673e-16 -5.79182e-15 
-4.82947e-15 -3.6673e-16 -5.79182e-15 
-4.82947e-15 -3.6673e-16 -5.79182e-15 
-4.66942e-15 -6.75445e-16 -6.73172e-15 
-4.66942e-15 -6.75445e-16 -6.73172e-15 
-4.66942e-15 -6.75445e-16 -6.73172e-15 
-4.66942e-15 -6.75445e-16 -6.73172e-15 
8.49271e-16 -6.55634e-16 5.82131e-15 
8.49271e-16 -6.55634e-16 5.82131e-15 
8.49271e-16 -6.55634e-16 5.82131e-15 
8.49271e-16 -6.55634e-16 5.82131e-15 
0.018073 0.0109129 0.0779177 
0.018073 0.0109129 0.0779177 
0.018073 0.0109129 0.0779177 
0.018073 0.0109129 0.0779177 
-1.66937e-15 -4.70924e-15 -4.30572e-15 
-1.66937e-15 -4.70924e-15 -4.30572e-15 
-1.66937e-15 -4.70924e-15 -4.30572e-15 
-1.66937e-15 -4.70924e-15 -4.30572e-15 
-2.16802e-10 2.16831e-10 -7.0843e-10 
-2.16802e-10 2.16831e-10 -7.0843e-10 
-2.16802e-10 2.16831e-10 -7.0843e-10 
-2.16802e-10 2.16831e-10 -7.0843e-10 
-2.25858e-16 -9.84238e-17 -6.85139e-15 
-2.25858e-16 -9.84238e-17 -6.85139e-15 
-2.25858e-16 -9.84238e-17 -6.85139e-15 
-2.25858e-16 -9.84238e-17 -6.85139e-15 
3.07053e-15 1.977e-16 -8.15012e-16 
3.07053e-15 1.977e-16 -8.15012e-16 
3.07053e-15 1.977e-16 -8.15012e-16 
3.07053e-15 1.977e-16 -8.15012e-16 
-6.97777e-17 -2.0497e-15 -2.22045e-15 
-6.97777e-17 -2.0497e-15 -2.22045e-15 
-6.97777e-17 -2.0497e-15 -2.22045e-15 
-6.97777e-17 -2.0497e-15 -2.22045e-15 
-3.12754e-16 -5.3735e-16 3.88687e-15 
-3.12754e-16 -5.3735e-16 3.88687e-15 
-3.12754e-16 -5.3735e-16 3.88687e-15 
-3.12754e-16 -5.3735e-16 3.88687e-15 
-0.00258762 0.0431055 0.121367 
-0.00258762 0.0431055 0.121367 
-0.00258762 0.0431055 0.121367 
-0.00258762 0.0431055 0.121367 
-8.3821e-15 -3.32206e-15 -7.05723e-16 
-8.3821e-15 -3.32206e-15 -7.05723e-16 
-8.3821e-15 -3.32206e-15 -7.05723e-16 
-8.3821e-15 -3.32206e-15 -7.05723e-16 
4.91135e-07 -2.94884e-08 -1.47907e-06 
4.91135e-07 -2.94884e-08 -1.47907e-06 
4.91135e-07 -2.94884e-08 -1.47907e-06 
4.91135e-07 -2.94884e-08 -1.47907e-06 
6.96498e-15 9.19029e-17 -4.8867e-15 
6.96498e-15 9.19029e-17 -4.8867e-15 
6.96498e-15 9.19029e-17 -4.8867e-15 
6.96498e-15 9.19029e-17 -4.8867e-15 
4.82115e-15 -9.56795e-15 6.97689e-15 
4.82115e-15 -9.56795e-15 6.97689e-15 
4.82115e-15 -9.56795e-15 6.97689e-15 
4.82115e-15 -9.56795e-15 6.97689e-15 
-6.12492e-16 -6.81156e-16 4.54636e-15 
-6.12492e-16 -6.81156e-16 4.54636e-15 
-6.12492e-16 -6.81156e-16 4.54636e-15 
-6.12492e-16 -6.81156e-16 4.54636e-15 
0.00251953 -0.0419682 0.121365 
0.00251953 -0.0419682 0.121365 
0.00251953 -0.0419682 0.121365 
0.00251953 -0.0419682 0.121365 
-9.75134e-18 9.86111e-16 5.12499e-15 
-9.75134e-18 9.86111e-16 5.12499e-15 
-9.75134e-18 9.86111e-16 5.12499e-15 
-9.75134e-18 9.86111e-16 5.12499e-15 
0.0443686 0.0026492 0.121365 
0.0443686 0.0026492 0.121365 
0.0443686 0.0026492 0.121365 
0.0443686 0.0026492 0.121365 
2.18257e-15 -1.29391e-15 -3.79349e-15 
2.18257e-15 -1.29391e-15 -3.79349e-15 
2.18257e-15 -1.29391e-15 -3.79349e-15 
2.18257e-15 -1.29391e-15 -3.79349e-15 
1.58447e-15 1.0849e-16 7.87666e-15 
1.58447e-15 1.0849e-16 7.87666e-15 
1.58447e-15 1.0849e-16 7.87666e-15 
1.58447e-15 1.0849e-16 7.87666e-15 
-8.70386e-15 1.28265e-14 7.63815e-17 
-8.70386e-15 1.28265e-14 7.63815e-17 
-8.70386e-15 1.28265e-14 7.63815e-17 
-8.70386e-15 1.28265e-14 7.63815e-17 
5.82503e-15 -1.79252e-15 -2.88607e-16 
5.82503e-15 -1.79252e-15 -2.88607e-16 
5.82503e-15 -1.79252e-15 -2.88607e-16 
5.82503e-15 -1.79252e-15 -2.88607e-16 
-5.16415e-15 -2.25252e-15 -7.55914e-15 
-5.16415e-15 -2.25252e-15 -7.55914e-15 
-5.16415e-15 -2.25252e-15 -7.55914e-15 
-5.16415e-15 -2.25252e-15 -7.55914e-15 
5.99262e-16 1.04229e-15 3.05721e-15 
5.99262e-16 1.04229e-15 3.05721e-15 
5.99262e-16 1.04229e-15 3.05721e-15 
5.99262e-16 1.04229e-15 3.05721e-15 
-1.23467e-15 1.47585e-15 3.23701e-15 
-1.23467e-15 1.47585e-15 3.23701e-15 
-1.23467e-15 1.47585e-15 3.23701e-15 
-1.23467e-15 1.47585e-15 3.23701e-15 
-9.75454e-16 1.06647e-15 4.40389e-15 
-9.75454e-16 1.06647e-15 4.40389e-15 
-9.75454e-16 1.06647e-15 4.40389e-15 
-9.75454e-16 1.06647e-15 4.40389e-15 
-6.43478e-16 -1.57297e-16 7.18393e-15 
-6.43478e-16 -1.57297e-16 7.18393e-15 
-6.43478e-16 -1.57297e-16 7.18393e-15 
-6.43478e-16 -1.57297e-16 7.18393e-15 
-5.96157e-16 -7.27231e-16 1.99783e-15 
-5.96157e-16 -7.27231e-16 1.99783e-15 
-5.96157e-16 -7.27231e-16 1.99783e-15 
-5.96157e-16 -7.27231e-16 1.99783e-15 
1.74329e-15 -7.91889e-16 4.85072e-15 
1.74329e-15 -7.91889e-16 4.85072e-15 
1.74329e-15 -7.91889e-16 4.85072e-15 
1.74329e-15 -7.91889e-16 4.85072e-15 
-3.67115e-16 -3.96444e-16 4.71044e-15 
-3.67115e-16 -3.96444e-16 4.71044e-15 
-3.67115e-16 -3.96444e-16 4.71044e-15 
-3.67115e-16 -3.96444e-16 4.71044e-15 
-4.20283e-16 -5.25245e-16 4.01013e-15 
-4.20283e-16 -5.25245e-16 4.01013e-15 
-4.20283e-16 -5.25245e-16 4.01013e-15 
-4.20283e-16 -5.25245e-16 4.01013e-15 
-4.99505e-15 2.46583e-15 1.31134e-15 
-4.99505e-15 2.46583e-15 1.31134e-15 
-4.99505e-15 2.46583e-15 1.31134e-15 
-4.99505e-15 2.46583e-15 1.31134e-15 
2.4914e-15 -9.6934e-16 4.78236e-15 
2.4914e-15 -9.6934e-16 4.78236e-15 
2.4914e-15 -9.6934e-16 4.78236e-15 
2.4914e-15 -9.6934e-16 4.78236e-15 
-8.45614e-16 3.52898e-15 -1.11022e-14 
-8.45614e-16 3.52898e-15 -1.11022e-14 
-8.45614e-16 3.52898e-15 -1.11022e-14 
-8.45614e-16 3.52898e-15 -1.11022e-14 
5.08754e-16 -4.63277e-16 6.92188e-15 
5.08754e-16 -4.63277e-16 6.92188e-15 
5.08754e-16 -4.63277e-16 6.92188e-15 
5.08754e-16 -4.63277e-16 6.92188e-15 
-1.40735e-15 -1.75161e-15 -6.66134e-15 
-1.40735e-15 -1.75161e-15 -6.66134e-15 
-1.40735e-15 -1.75161e-15 -6.66134e-15 
-1.40735e-15 -1.75161e-15 -6.66134e-15 
-5.13032e-16 1.55892e-15 7.45313e-15 
-5.13032e-16 1.55892e-15 7.45313e-15 
-5.13032e-16 1.55892e-15 7.45313e-15 
-5.13032e-16 1.55892e-15 7.45313e-15 
-1.4911e-16 -8.75407e-16 -7.07329e-15 
-1.4911e-16 -8.75407e-16 -7.07329e-15 
-1.4911e-16 -8.75407e-16 -7.07329e-15 
-1.4911e-16 -8.75407e-16 -7.07329e-15 
8.61778e-16 1.73444e-15 -2.81954e-15 
8.61778e-16 1.73444e-15 -2.81954e-15 
8.61778e-16 1.73444e-15 -2.81954e-15 
8.61778e-16 1.73444e-15 -2.81954e-15 
5.8152e-15 -8.93878e-16 6.27855e-15 
5.8152e-15 -8.93878e-16 6.27855e-15 
5.8152e-15 -8.93878e-16 6.27855e-15 
5.8152e-15 -8.93878e-16 6.27855e-15 
-4.54748e-16 -3.86497e-16 4.0711e-15 
-4.54748e-16 -3.86497e-16 4.0711e-15 
-4.54748e-16 -3.86497e-16 4.0711e-15 
-4.54748e-16 -3.86497e-16 4.0711e-15 
9.54434e-16 -6.11473e-16 3.97837e-15 
9.54434e-16 -6.11473e-16 3.97837e-15 
9.54434e-16 -6.11473e-16 3.97837e-15 
9.54434e-16 -6.11473e-16 3.97837e-15 
4.28752e-15 2.44067e-15 -2.83329e-15 
4.28752e-15 2.44067e-15 -2.83329e-15 
4.28752e-15 2.44067e-15 -2.83329e-15 
4.28752e-15 2.44067e-15 -2.83329e-15 
5.03616e-16 9.83385e-16 4.09944e-15 
5.03616e-16 9.83385e-16 4.09944e-15 
5.03616e-16 9.83385e-16 4.09944e-15 
5.03616e-16 9.83385e-16 4.09944e-15 
-2.52859e-10 1.27527e-10 -8.67996e-10 
-2.52859e-10 1.27527e-10 -8.67996e-10 
-2.52859e-10 1.27527e-10 -8.67996e-10 
-2.52859e-10 1.27527e-10 -8.67996e-10 
6.57918e-15 -8.66784e-16 -2.94975e-15 
6.57918e-15 -8.66784e-16 -2.94975e-15 
6.57918e-15 -8.66784e-16 -2.94975e-15 
6.57918e-15 -8.66784e-16 -2.94975e-15 
-1.10678e-17 -5.39657e-16 6.07492e-15 
-1.10678e-17 -5.39657e-16 6.07492e-15 
-1.10678e-17 -5.39657e-16 6.07492e-15 
-1.10678e-17 -5.39657e-16 6.07492e-15 
-4.55335e-16 -8.44768e-15 1.33763e-14 
-4.55335e-16 -8.44768e-15 1.33763e-14 
-4.55335e-16 -8.44768e-15 1.33763e-14 
-4.55335e-16 -8.44768e-15 1.33763e-14 
7.60164e-16 3.02233e-16 3.8459e-15 
7.60164e-16 3.02233e-16 3.8459e-15 
7.60164e-16 3.02233e-16 3.8459e-15 
7.60164e-16 3.02233e-16 3.8459e-15 
-0.00300699 -0.050345 0.121365 
-0.00300699 -0.050345 0.121365 
-0.00300699 -0.050345 0.121365 
-0.00300699 -0.050345 0.121365 
2.42603e-15 -2.55905e-15 2.5755e-15 
2.42603e-15 -2.55905e-15 2.5755e-15 
2.42603e-15 -2.55905e-15 2.5755e-15 
2.42603e-15 -2.55905e-15 2.5755e-15 
-2.68924e-16 -2.22008e-16 2.65058e-15 
-2.68924e-16 -2.22008e-16 2.65058e-15 
-2.68924e-16 -2.22008e-16 2.65058e-15 
-2.68924e-16 -2.22008e-16 2.65058e-15 
-1.01118e-16 -5.50367e-16 6.15287e-15 
-1.01118e-16 -5.50367e-16 6.15287e-15 
-1.01118e-16 -5.50367e-16 6.15287e-15 
-1.01118e-16 -5.50367e-16 6.15287e-15 
-7.28997e-16 1.21781e-15 1.99873e-15 
-7.28997e-16 1.21781e-15 1.99873e-15 
-7.28997e-16 1.21781e-15 1.99873e-15 
-7.28997e-16 1.21781e-15 1.99873e-15 
-0.047919 0.00286175 0.121365 
-0.047919 0.00286175 0.121365 
-0.047919 0.00286175 0.121365 
-0.047919 0.00286175 0.121365 
1.28304e-15 7.04571e-16 2.48502e-15 
1.28304e-15 7.04571e-16 2.48502e-15 
1.28304e-15 7.04571e-16 2.48502e-15 
1.28304e-15 7.04571e-16 2.48502e-15 
-4.04469e-15 1.59629e-16 -2.22045e-15 
-4.04469e-15 1.59629e-16 -2.22045e-15 
-4.04469e-15 1.59629e-16 -2.22045e-15 
-4.04469e-15 1.59629e-16 -2.22045e-15 
2.39683e-15 3.55674e-15 3.87665e-16 
2.39683e-15 3.55674e-15 3.87665e-16 
2.39683e-15 3.55674e-15 3.87665e-16 
2.39683e-15 3.55674e-15 3.87665e-16 
-7.85487e-16 1.63004e-15 3.96229e-15 
-7.85487e-16 1.63004e-15 3.96229e-15 
-7.85487e-16 1.63004e-15 3.96229e-15 
-7.85487e-16 1.63004e-15 3.96229e-15 
-0.0311451 0.00871353 0.0986364 
-0.0311451 0.00871353 0.0986364 
-0.0311451 0.00871353 0.0986364 
-0.0311451 0.00871353 0.0986364 
2.64139e-15 1.52639e-15 -1.33998e-15 
2.64139e-15 1.52639e-15 -1.33998e-15 
2.64139e-15 1.52639e-15 -1.33998e-15 
2.64139e-15 1.52639e-15 -1.33998e-15 
0.0519244 -0.00310155 0.121365 
0.0519244 -0.00310155 0.121365 
0.0519244 -0.00310155 0.121365 
0.0519244 -0.00310155 0.121365 
-0.00832911 0.0349803 0.0989838 
-0.00832911 0.0349803 0.0989838 
-0.00832911 0.0349803 0.0989838 
-0.00832911 0.0349803 0.0989838 
-2.34067e-15 -2.77617e-15 -2.36025e-15 
-2.34067e-15 -2.77617e-15 -2.36025e-15 
-2.34067e-15 -2.77617e-15 -2.36025e-15 
-2.34067e-15 -2.77617e-15 -2.36025e-15 
1.77196e-15 -2.81019e-15 1.03749e-15 
1.77196e-15 -2.81019e-15 1.03749e-15 
1.77196e-15 -2.81019e-15 1.03749e-15 
1.77196e-15 -2.81019e-15 1.03749e-15 
3.86602e-15 1.24693e-15 4.73125e-15 
3.86602e-15 1.24693e-15 4.73125e-15 
3.86602e-15 1.24693e-15 4.73125e-15 
3.86602e-15 1.24693e-15 4.73125e-15 
-1.42124e-15 3.62194e-16 7.13737e-15 
-1.42124e-15 3.62194e-16 7.13737e-15 
-1.42124e-15 3.62194e-16 7.13737e-15 
-1.42124e-15 3.62194e-16 7.13737e-15 
1.652e-15 -7.47149e-15 -7.64763e-15 
1.652e-15 -7.47149e-15 -7.64763e-15 
1.652e-15 -7.47149e-15 -7.64763e-15 
1.652e-15 -7.47149e-15 -7.64763e-15 
-8.74777e-15 -6.74145e-15 7.12343e-15 
-8.74777e-15 -6.74145e-15 7.12343e-15 
-8.74777e-15 -6.74145e-15 7.12343e-15 
-8.74777e-15 -6.74145e-15 7.12343e-15 
8.82371e-16 -3.65534e-15 -4.84975e-15 
8.82371e-16 -3.65534e-15 -4.84975e-15 
8.82371e-16 -3.65534e-15 -4.84975e-15 
8.82371e-16 -3.65534e-15 -4.84975e-15 
3.02145e-16 -4.26146e-16 5.02865e-15 
3.02145e-16 -4.26146e-16 5.02865e-15 
3.02145e-16 -4.26146e-16 5.02865e-15 
3.02145e-16 -4.26146e-16 5.02865e-15 
-1.1778e-15 9.56801e-16 -6.9958e-15 
-1.1778e-15 9.56801e-16 -6.9958e-15 
-1.1778e-15 9.56801e-16 -6.9958e-15 
-1.1778e-15 9.56801e-16 -6.9958e-15 
3.10513e-06 -6.99196e-06 -1.60932e-05 
3.10513e-06 -6.99196e-06 -1.60932e-05 
3.10513e-06 -6.99196e-06 -1.60932e-05 
3.10513e-06 -6.99196e-06 -1.60932e-05 
0.018387 0.00982138 0.0655327 
0.018387 0.00982138 0.0655327 
0.018387 0.00982138 0.0655327 
0.018387 0.00982138 0.0655327 
5.15046e-16 -1.1327e-16 1.90559e-15 
5.15046e-16 -1.1327e-16 1.90559e-15 
5.15046e-16 -1.1327e-16 1.90559e-15 
5.15046e-16 -1.1327e-16 1.90559e-15 
2.39165e-07 -3.97638e-07 -5.94317e-07 
2.39165e-07 -3.97638e-07 -5.94317e-07 
2.39165e-07 -3.97638e-07 -5.94317e-07 
2.39165e-07 -3.97638e-07 -5.94317e-07 
-0.00812672 -0.0371032 0.0991305 
-0.00812672 -0.0371032 0.0991305 
-0.00812672 -0.0371032 0.0991305 
-0.00812672 -0.0371032 0.0991305 
3.49424e-06 1.61626e-05 4.23207e-06 
3.49424e-06 1.61626e-05 4.23207e-06 
3.49424e-06 1.61626e-05 4.23207e-06 
3.49424e-06 1.61626e-05 4.23207e-06 
4.04928e-15 1.60764e-15 -4.45425e-15 
4.04928e-15 1.60764e-15 -4.45425e-15 
4.04928e-15 1.60764e-15 -4.45425e-15 
4.04928e-15 1.60764e-15 -4.45425e-15 
0.0105535 0.0128462 0.0652079 
0.0105535 0.0128462 0.0652079 
0.0105535 0.0128462 0.0652079 
0.0105535 0.0128462 0.0652079 
-9.54932e-06 9.0241e-07 1.60262e-05 
-9.54932e-06 9.0241e-07 1.60262e-05 
-9.54932e-06 9.0241e-07 1.60262e-05 
-9.54932e-06 9.0241e-07 1.60262e-05 
-1.95069e-15 -4.33096e-15 9.70625e-15 
-1.95069e-15 -4.33096e-15 9.70625e-15 
-1.95069e-15 -4.33096e-15 9.70625e-15 
-1.95069e-15 -4.33096e-15 9.70625e-15 
0.0388672 -0.00795298 0.0993015 
0.0388672 -0.00795298 0.0993015 
0.0388672 -0.00795298 0.0993015 
0.0388672 -0.00795298 0.0993015 
7.30234e-11 2.5018e-10 -3.21189e-10 
7.30234e-11 2.5018e-10 -3.21189e-10 
7.30234e-11 2.5018e-10 -3.21189e-10 
7.30234e-11 2.5018e-10 -3.21189e-10 
0.0179714 -0.0096059 0.0654772 
0.0179714 -0.0096059 0.0654772 
0.0179714 -0.0096059 0.0654772 
0.0179714 -0.0096059 0.0654772 
-4.99466e-07 -1.05801e-08 7.89124e-07 
-4.99466e-07 -1.05801e-08 7.89124e-07 
-4.99466e-07 -1.05801e-08 7.89124e-07 
-4.99466e-07 -1.05801e-08 7.89124e-07 
-5.23153e-15 -2.47396e-15 6.83406e-15 
-5.23153e-15 -2.47396e-15 6.83406e-15 
-5.23153e-15 -2.47396e-15 6.83406e-15 
-5.23153e-15 -2.47396e-15 6.83406e-15 
5.32009e-15 -5.47221e-16 5.99602e-15 
5.32009e-15 -5.47221e-16 5.99602e-15 
5.32009e-15 -5.47221e-16 5.99602e-15 
5.32009e-15 -5.47221e-16 5.99602e-15 
0.00812204 0.037155 0.0991354 
0.00812204 0.037155 0.0991354 
0.00812204 0.037155 0.0991354 
0.00812204 0.037155 0.0991354 
2.24146e-12 -3.66875e-11 5.68512e-11 
2.24146e-12 -3.66875e-11 5.68512e-11 
2.24146e-12 -3.66875e-11 5.68512e-11 
2.24146e-12 -3.66875e-11 5.68512e-11 
-0.00981955 0.0183711 0.0655165 
-0.00981955 0.0183711 0.0655165 
-0.00981955 0.0183711 0.0655165 
-0.00981955 0.0183711 0.0655165 
-0.018698 -0.00999968 0.0655435 
-0.018698 -0.00999968 0.0655435 
-0.018698 -0.00999968 0.0655435 
-0.018698 -0.00999968 0.0655435 
-0.00242135 -0.0238429 0.0739795 
-0.00242135 -0.0238429 0.0739795 
-0.00242135 -0.0238429 0.0739795 
-0.00242135 -0.0238429 0.0739795 
1.08045e-14 -1.8531e-15 1.17056e-15 
1.08045e-14 -1.8531e-15 1.17056e-15 
1.08045e-14 -1.8531e-15 1.17056e-15 
1.08045e-14 -1.8531e-15 1.17056e-15 
9.79434e-06 -1.23337e-05 1.85155e-06 
9.79434e-06 -1.23337e-05 1.85155e-06 
9.79434e-06 -1.23337e-05 1.85155e-06 
9.79434e-06 -1.23337e-05 1.85155e-06 
4.88265e-06 2.23527e-06 6.5738e-07 
4.88265e-06 2.23527e-06 6.5738e-07 
4.88265e-06 2.23527e-06 6.5738e-07 
4.88265e-06 2.23527e-06 6.5738e-07 
-5.72086e-16 2.43431e-16 4.51495e-15 
-5.72086e-16 2.43431e-16 4.51495e-15 
-5.72086e-16 2.43431e-16 4.51495e-15 
-5.72086e-16 2.43431e-16 4.51495e-15 
-1.69463e-06 -8.76501e-07 1.97147e-06 
-1.69463e-06 -8.76501e-07 1.97147e-06 
-1.69463e-06 -8.76501e-07 1.97147e-06 
-1.69463e-06 -8.76501e-07 1.97147e-06 
5.5848e-07 1.70816e-06 -2.68471e-06 
5.5848e-07 1.70816e-06 -2.68471e-06 
5.5848e-07 1.70816e-06 -2.68471e-06 
5.5848e-07 1.70816e-06 -2.68471e-06 
2.21114e-06 7.85517e-06 -1.60639e-05 
2.21114e-06 7.85517e-06 -1.60639e-05 
2.21114e-06 7.85517e-06 -1.60639e-05 
2.21114e-06 7.85517e-06 -1.60639e-05 
0.00291434 0.0255585 0.0740467 
0.00291434 0.0255585 0.0740467 
0.00291434 0.0255585 0.0740467 
0.00291434 0.0255585 0.0740467 
-0.0218265 0.00180044 0.0737809 
-0.0218265 0.00180044 0.0737809 
-0.0218265 0.00180044 0.0737809 
-0.0218265 0.00180044 0.0737809 
-3.68815e-15 -1.18747e-15 -3.02763e-15 
-3.68815e-15 -1.18747e-15 -3.02763e-15 
-3.68815e-15 -1.18747e-15 -3.02763e-15 
-3.68815e-15 -1.18747e-15 -3.02763e-15 
-0.0118635 -0.0144446 0.0652996 
-0.0118635 -0.0144446 0.0652996 
-0.0118635 -0.0144446 0.0652996 
-0.0118635 -0.0144446 0.0652996 
0.0091805 -0.0171755 0.0653835 
0.0091805 -0.0171755 0.0653835 
0.0091805 -0.0171755 0.0653835 
0.0091805 -0.0171755 0.0653835 
-2.69531e-09 7.58799e-10 -4.29676e-09 
-2.69531e-09 7.58799e-10 -4.29676e-09 
-2.69531e-09 7.58799e-10 -4.29676e-09 
-2.69531e-09 7.58799e-10 -4.29676e-09 
0.0161178 -0.0132276 0.0654807 
0.0161178 -0.0132276 0.0654807 
0.0161178 -0.0132276 0.0654807 
0.0161178 -0.0132276 0.0654807 
-7.81398e-07 -3.35123e-06 -5.41203e-06 
-7.81398e-07 -3.35123e-06 -5.41203e-06 
-7.81398e-07 -3.35123e-06 -5.41203e-06 
-7.81398e-07 -3.35123e-06 -5.41203e-06 
0.0257664 -0.00299561 0.0741381 
0.0257664 -0.00299561 0.0741381 
0.0257664 -0.00299561 0.0741381 
0.0257664 -0.00299561 0.0741381 
-9.72054e-16 -3.25346e-16 3.83979e-15 
-9.72054e-16 -3.25346e-16 3.83979e-15 
-9.72054e-16 -3.25346e-16 3.83979e-15 
-9.72054e-16 -3.25346e-16 3.83979e-15 
-3.2592e-06 8.42619e-07 5.22788e-06 
-3.2592e-06 8.42619e-07 5.22788e-06 
-3.2592e-06 8.42619e-07 5.22788e-06 
-3.2592e-06 8.42619e-07 5.22788e-06 
0.00745095 -0.0439644 0.0997243 
0.00745095 -0.0439644 0.0997243 
0.00745095 -0.0439644 0.0997243 
0.00745095 -0.0439644 0.0997243 
2.74386e-06 -7.82232e-06 -1.38519e-05 
2.74386e-06 -7.82232e-06 -1.38519e-05 
2.74386e-06 -7.82232e-06 -1.38519e-05 
2.74386e-06 -7.82232e-06 -1.38519e-05 
0.0461788 0.00723285 0.099908 
0.0461788 0.00723285 0.099908 
0.0461788 0.00723285 0.099908 
0.0461788 0.00723285 0.099908 
2.56563e-15 5.77077e-16 -4.63946e-15 
2.56563e-15 5.77077e-16 -4.63946e-15 
2.56563e-15 5.77077e-16 -4.63946e-15 
2.56563e-15 5.77077e-16 -4.63946e-15 
-3.86477e-15 4.52557e-16 -3.16278e-15 
-3.86477e-15 4.52557e-16 -3.16278e-15 
-3.86477e-15 4.52557e-16 -3.16278e-15 
-3.86477e-15 4.52557e-16 -3.16278e-15 
1.18505e-15 2.30092e-16 -3.64522e-15 
1.18505e-15 2.30092e-16 -3.64522e-15 
1.18505e-15 2.30092e-16 -3.64522e-15 
1.18505e-15 2.30092e-16 -3.64522e-15 
-2.07342e-15 8.60879e-17 -6.26929e-15 
-2.07342e-15 8.60879e-17 -6.26929e-15 
-2.07342e-15 8.60879e-17 -6.26929e-15 
-2.07342e-15 8.60879e-17 -6.26929e-15 
-1.38434e-05 8.43427e-06 2.67284e-06 
-1.38434e-05 8.43427e-06 2.67284e-06 
-1.38434e-05 8.43427e-06 2.67284e-06 
-1.38434e-05 8.43427e-06 2.67284e-06 
4.63872e-09 1.70578e-09 3.71678e-10 
4.63872e-09 1.70578e-09 3.71678e-10 
4.63872e-09 1.70578e-09 3.71678e-10 
4.63872e-09 1.70578e-09 3.71678e-10 
2.40645e-06 -6.93028e-07 2.78649e-06 
2.40645e-06 -6.93028e-07 2.78649e-06 
2.40645e-06 -6.93028e-07 2.78649e-06 
2.40645e-06 -6.93028e-07 2.78649e-06 
-0.018584 0.0152515 0.0658382 
-0.018584 0.0152515 0.0658382 
-0.018584 0.0152515 0.0658382 
-0.018584 0.0152515 0.0658382 
-0.0292582 -0.0040517 0.0743095 
-0.0292582 -0.0040517 0.0743095 
-0.0292582 -0.0040517 0.0743095 
-0.0292582 -0.0040517 0.0743095 
-0.0418444 -0.00765975 0.0995485 
-0.0418444 -0.00765975 0.0995485 
-0.0418444 -0.00765975 0.0995485 
-0.0418444 -0.00765975 0.0995485 
0.0161846 -0.019721 0.0659469 
0.0161846 -0.019721 0.0659469 
0.0161846 -0.019721 0.0659469 
0.0161846 -0.019721 0.0659469 
-0.00448646 0.0306811 0.0744436 
-0.00448646 0.0306811 0.0744436 
-0.00448646 0.0306811 0.0744436 
-0.00448646 0.0306811 0.0744436 
0.0276255 0.00355802 0.074304 
0.0276255 0.00355802 0.074304 
0.0276255 0.00355802 0.074304 
0.0276255 0.00355802 0.074304 
-1.15347e-15 -5.49077e-16 4.90814e-15 
-1.15347e-15 -5.49077e-16 4.90814e-15 
-1.15347e-15 -5.49077e-16 4.90814e-15 
-1.15347e-15 -5.49077e-16 4.90814e-15 
0.00408363 -0.0293531 0.0743235 
0.00408363 -0.0293531 0.0743235 
0.00408363 -0.0293531 0.0743235 
0.00408363 -0.0293531 0.0743235 
-1.37473e-09 -2.65111e-09 4.20601e-09 
-1.37473e-09 -2.65111e-09 4.20601e-09 
-1.37473e-09 -2.65111e-09 4.20601e-09 
-1.37473e-09 -2.65111e-09 4.20601e-09 
1.08278e-05 5.29426e-06 1.62659e-05 
1.08278e-05 5.29426e-06 1.62659e-05 
1.08278e-05 5.29426e-06 1.62659e-05 
1.08278e-05 5.29426e-06 1.62659e-05 
-0.0226692 0.012117 0.065978 
-0.0226692 0.012117 0.065978 
-0.0226692 0.012117 0.065978 
-0.0226692 0.012117 0.065978 
-0.0187855 -0.0154142 0.0658175 
-0.0187855 -0.0154142 0.0658175 
-0.0187855 -0.0154142 0.0658175 
-0.0187855 -0.0154142 0.0658175 
-3.24951e-06 3.66722e-06 -2.20487e-06 
-3.24951e-06 3.66722e-06 -2.20487e-06 
-3.24951e-06 3.66722e-06 -2.20487e-06 
-3.24951e-06 3.66722e-06 -2.20487e-06 
-0.0197981 0.024124 0.0664661 
-0.0197981 0.024124 0.0664661 
-0.0197981 0.024124 0.0664661 
-0.0197981 0.024124 0.0664661 
-1.23808e-05 -2.44407e-06 1.99452e-05 
-1.23808e-05 -2.44407e-06 1.99452e-05 
-1.23808e-05 -2.44407e-06 1.99452e-05 
-1.23808e-05 -2.44407e-06 1.99452e-05 
0.0199956 0.0164303 0.0659652 
0.0199956 0.0164303 0.0659652 
0.0199956 0.0164303 0.0659652 
0.0199956 0.0164303 0.0659652 
0.012205 0.0228121 0.0659779 
0.012205 0.0228121 0.0659779 
0.012205 0.0228121 0.0659779 
0.012205 0.0228121 0.0659779 
-1.11784e-07 -3.25139e-06 -5.1892e-06 
-1.11784e-07 -3.25139e-06 -5.1892e-06 
-1.11784e-07 -3.25139e-06 -5.1892e-06 
-1.11784e-07 -3.25139e-06 -5.1892e-06 
-0.0143508 -0.0268827 0.0663624 
-0.0143508 -0.0268827 0.0663624 
-0.0143508 -0.0268827 0.0663624 
-0.0143508 -0.0268827 0.0663624 
-4.27455e-15 2.47126e-15 1.58491e-15 
-4.27455e-15 2.47126e-15 1.58491e-15 
-4.27455e-15 2.47126e-15 1.58491e-15 
-4.27455e-15 2.47126e-15 1.58491e-15 
1.36738e-15 1.54105e-15 8.54043e-15 
1.36738e-15 1.54105e-15 8.54043e-15 
1.36738e-15 1.54105e-15 8.54043e-15 
1.36738e-15 1.54105e-15 8.54043e-15 
-1.1831e-16 -1.64983e-15 -4.56346e-15 
-1.1831e-16 -1.64983e-15 -4.56346e-15 
-1.1831e-16 -1.64983e-15 -4.56346e-15 
-1.1831e-16 -1.64983e-15 -4.56346e-15 
3.17518e-15 -2.38079e-15 -8.51563e-15 
3.17518e-15 -2.38079e-15 -8.51563e-15 
3.17518e-15 -2.38079e-15 -8.51563e-15 
3.17518e-15 -2.38079e-15 -8.51563e-15 
-1.7061e-15 1.61389e-16 1.47446e-15 
-1.7061e-15 1.61389e-16 1.47446e-15 
-1.7061e-15 1.61389e-16 1.47446e-15 
-1.7061e-15 1.61389e-16 1.47446e-15 
-1.54716e-15 4.96147e-16 1.74001e-15 
-1.54716e-15 4.96147e-16 1.74001e-15 
-1.54716e-15 4.96147e-16 1.74001e-15 
-1.54716e-15 4.96147e-16 1.74001e-15 
1.0458e-14 -2.16736e-15 4.62444e-15 
1.0458e-14 -2.16736e-15 4.62444e-15 
1.0458e-14 -2.16736e-15 4.62444e-15 
1.0458e-14 -2.16736e-15 4.62444e-15 
1.29009e-14 -2.74717e-16 8.47683e-15 
1.29009e-14 -2.74717e-16 8.47683e-15 
1.29009e-14 -2.74717e-16 8.47683e-15 
1.29009e-14 -2.74717e-16 8.47683e-15 
9.05979e-16 4.22824e-15 -8.85961e-15 
9.05979e-16 4.22824e-15 -8.85961e-15 
9.05979e-16 4.22824e-15 -8.85961e-15 
9.05979e-16 4.22824e-15 -8.85961e-15 
-4.33455e-15 -4.04626e-16 6.70237e-15 
-4.33455e-15 -4.04626e-16 6.70237e-15 
-4.33455e-15 -4.04626e-16 6.70237e-15 
-4.33455e-15 -4.04626e-16 6.70237e-15 
6.83704e-15 2.45795e-15 -3.29336e-15 
6.83704e-15 2.45795e-15 -3.29336e-15 
6.83704e-15 2.45795e-15 -3.29336e-15 
6.83704e-15 2.45795e-15 -3.29336e-15 
6.01571e-15 2.65001e-15 -5.48627e-15 
6.01571e-15 2.65001e-15 -5.48627e-15 
6.01571e-15 2.65001e-15 -5.48627e-15 
6.01571e-15 2.65001e-15 -5.48627e-15 
-1.04304e-16 -7.2952e-15 1.3553e-15 
-1.04304e-16 -7.2952e-15 1.3553e-15 
-1.04304e-16 -7.2952e-15 1.3553e-15 
-1.04304e-16 -7.2952e-15 1.3553e-15 
-4.46826e-17 2.14546e-16 -8.88178e-15 
-4.46826e-17 2.14546e-16 -8.88178e-15 
-4.46826e-17 2.14546e-16 -8.88178e-15 
-4.46826e-17 2.14546e-16 -8.88178e-15 
-5.43929e-15 7.93784e-16 -7.29002e-16 
-5.43929e-15 7.93784e-16 -7.29002e-16 
-5.43929e-15 7.93784e-16 -7.29002e-16 
-5.43929e-15 7.93784e-16 -7.29002e-16 
-2.02803e-15 6.22194e-16 3.328e-15 
-2.02803e-15 6.22194e-16 3.328e-15 
-2.02803e-15 6.22194e-16 3.328e-15 
-2.02803e-15 6.22194e-16 3.328e-15 
-3.86293e-16 -4.36485e-16 5.67083e-15 
-3.86293e-16 -4.36485e-16 5.67083e-15 
-3.86293e-16 -4.36485e-16 5.67083e-15 
-3.86293e-16 -4.36485e-16 5.67083e-15 
-4.53852e-15 -5.92668e-15 -3.0538e-15 
-4.53852e-15 -5.92668e-15 -3.0538e-15 
-4.53852e-15 -5.92668e-15 -3.0538e-15 
-4.53852e-15 -5.92668e-15 -3.0538e-15 
-7.16514e-15 -6.56941e-15 -6.80914e-15 
-7.16514e-15 -6.56941e-15 -6.80914e-15 
-7.16514e-15 -6.56941e-15 -6.80914e-15 
-7.16514e-15 -6.56941e-15 -6.80914e-15 
-7.97537e-15 -6.49714e-15 -5.04721e-15 
-7.97537e-15 -6.49714e-15 -5.04721e-15 
-7.97537e-15 -6.49714e-15 -5.04721e-15 
-7.97537e-15 -6.49714e-15 -5.04721e-15 
7.80778e-15 1.58811e-14 -2.08906e-14 
7.80778e-15 1.58811e-14 -2.08906e-14 
7.80778e-15 1.58811e-14 -2.08906e-14 
7.80778e-15 1.58811e-14 -2.08906e-14 
-5.91184e-15 1.31971e-14 1.13578e-15 
-5.91184e-15 1.31971e-14 1.13578e-15 
-5.91184e-15 1.31971e-14 1.13578e-15 
-5.91184e-15 1.31971e-14 1.13578e-15 
1.04146e-14 -7.87722e-16 1.5062e-14 
1.04146e-14 -7.87722e-16 1.5062e-14 
1.04146e-14 -7.87722e-16 1.5062e-14 
1.04146e-14 -7.87722e-16 1.5062e-14 
1.99299e-16 -3.01152e-17 1.11022e-15 
1.99299e-16 -3.01152e-17 1.11022e-15 
1.99299e-16 -3.01152e-17 1.11022e-15 
1.99299e-16 -3.01152e-17 1.11022e-15 
-2.2049e-16 2.46141e-15 -4.80163e-15 
-2.2049e-16 2.46141e-15 -4.80163e-15 
-2.2049e-16 2.46141e-15 -4.80163e-15 
-2.2049e-16 2.46141e-15 -4.80163e-15 
2.58901e-15 -2.50059e-15 1.63474e-15 
2.58901e-15 -2.50059e-15 1.63474e-15 
2.58901e-15 -2.50059e-15 1.63474e-15 
2.58901e-15 -2.50059e-15 1.63474e-15 
-4.10219e-16 -1.92637e-15 -4.54258e-15 
-4.10219e-16 -1.92637e-15 -4.54258e-15 
-4.10219e-16 -1.92637e-15 -4.54258e-15 
-4.10219e-16 -1.92637e-15 -4.54258e-15 
-3.84924e-15 3.73031e-15 1.49579e-15 
-3.84924e-15 3.73031e-15 1.49579e-15 
-3.84924e-15 3.73031e-15 1.49579e-15 
-3.84924e-15 3.73031e-15 1.49579e-15 
5.10637e-16 7.13258e-15 -6.07366e-15 
5.10637e-16 7.13258e-15 -6.07366e-15 
5.10637e-16 7.13258e-15 -6.07366e-15 
5.10637e-16 7.13258e-15 -6.07366e-15 
-3.30956e-16 5.39609e-16 -4.10159e-15 
-3.30956e-16 5.39609e-16 -4.10159e-15 
-3.30956e-16 5.39609e-16 -4.10159e-15 
-3.30956e-16 5.39609e-16 -4.10159e-15 
-3.86256e-16 3.99186e-16 -3.96546e-15 
-3.86256e-16 3.99186e-16 -3.96546e-15 
-3.86256e-16 3.99186e-16 -3.96546e-15 
-3.86256e-16 3.99186e-16 -3.96546e-15 
1.3042e-16 -2.32047e-15 -3.37386e-16 
1.3042e-16 -2.32047e-15 -3.37386e-16 
1.3042e-16 -2.32047e-15 -3.37386e-16 
1.3042e-16 -2.32047e-15 -3.37386e-16 
6.42528e-15 1.20511e-15 8.47606e-15 
6.42528e-15 1.20511e-15 8.47606e-15 
6.42528e-15 1.20511e-15 8.47606e-15 
6.42528e-15 1.20511e-15 8.47606e-15 
-8.8007e-16 8.74529e-16 -6.50338e-16 
-8.8007e-16 8.74529e-16 -6.50338e-16 
-8.8007e-16 8.74529e-16 -6.50338e-16 
-8.8007e-16 8.74529e-16 -6.50338e-16 
1.05107e-15 4.61643e-16 2.28923e-15 
1.05107e-15 4.61643e-16 2.28923e-15 
1.05107e-15 4.61643e-16 2.28923e-15 
1.05107e-15 4.61643e-16 2.28923e-15 
3.842e-15 -3.36113e-15 7.47931e-16 
3.842e-15 -3.36113e-15 7.47931e-16 
3.842e-15 -3.36113e-15 7.47931e-16 
3.842e-15 -3.36113e-15 7.47931e-16 
1.67349e-15 -7.78223e-15 5.75849e-15 
1.67349e-15 -7.78223e-15 5.75849e-15 
1.67349e-15 -7.78223e-15 5.75849e-15 
1.67349e-15 -7.78223e-15 5.75849e-15 
6.17006e-15 -2.9818e-15 -2.27563e-15 
6.17006e-15 -2.9818e-15 -2.27563e-15 
6.17006e-15 -2.9818e-15 -2.27563e-15 
6.17006e-15 -2.9818e-15 -2.27563e-15 
6.33956e-15 -3.60377e-15 -2.94768e-15 
6.33956e-15 -3.60377e-15 -2.94768e-15 
6.33956e-15 -3.60377e-15 -2.94768e-15 
6.33956e-15 -3.60377e-15 -2.94768e-15 
8.21257e-16 8.17393e-15 -7.03476e-15 
8.21257e-16 8.17393e-15 -7.03476e-15 
8.21257e-16 8.17393e-15 -7.03476e-15 
8.21257e-16 8.17393e-15 -7.03476e-15 
1.06102e-14 3.85008e-15 7.81897e-15 
1.06102e-14 3.85008e-15 7.81897e-15 
1.06102e-14 3.85008e-15 7.81897e-15 
1.06102e-14 3.85008e-15 7.81897e-15 
-0.0119808 -0.0260719 0.0693255 
-0.0119808 -0.0260719 0.0693255 
-0.0119808 -0.0260719 0.0693255 
-0.0119808 -0.0260719 0.0693255 
-0.00512008 -0.0244722 0.0783378 
-0.00512008 -0.0244722 0.0783378 
-0.00512008 -0.0244722 0.0783378 
-0.00512008 -0.0244722 0.0783378 
9.81565e-16 -1.43567e-15 -1.7006e-16 
9.81565e-16 -1.43567e-15 -1.7006e-16 
9.81565e-16 -1.43567e-15 -1.7006e-16 
9.81565e-16 -1.43567e-15 -1.7006e-16 
1.75194e-15 -1.33245e-15 -9.59878e-16 
1.75194e-15 -1.33245e-15 -9.59878e-16 
1.75194e-15 -1.33245e-15 -9.59878e-16 
1.75194e-15 -1.33245e-15 -9.59878e-16 
2.27209e-16 -1.19024e-15 3.39966e-16 
2.27209e-16 -1.19024e-15 3.39966e-16 
2.27209e-16 -1.19024e-15 3.39966e-16 
2.27209e-16 -1.19024e-15 3.39966e-16 
7.89081e-16 -2.20181e-15 -4.45915e-16 
7.89081e-16 -2.20181e-15 -4.45915e-16 
7.89081e-16 -2.20181e-15 -4.45915e-16 
7.89081e-16 -2.20181e-15 -4.45915e-16 
5.70651e-17 -2.52331e-16 -4.44089e-15 
5.70651e-17 -2.52331e-16 -4.44089e-15 
5.70651e-17 -2.52331e-16 -4.44089e-15 
5.70651e-17 -2.52331e-16 -4.44089e-15 
3.38159e-17 1.41298e-16 -4.44089e-15 
3.38159e-17 1.41298e-16 -4.44089e-15 
3.38159e-17 1.41298e-16 -4.44089e-15 
3.38159e-17 1.41298e-16 -4.44089e-15 
1.60185e-16 -2.92702e-16 -4.44089e-15 
1.60185e-16 -2.92702e-16 -4.44089e-15 
1.60185e-16 -2.92702e-16 -4.44089e-15 
1.60185e-16 -2.92702e-16 -4.44089e-15 
3.78469e-17 2.66038e-16 -4.44089e-15 
3.78469e-17 2.66038e-16 -4.44089e-15 
3.78469e-17 2.66038e-16 -4.44089e-15 
3.78469e-17 2.66038e-16 -4.44089e-15 
-4.56856e-15 2.74107e-15 4.63989e-15 
-4.56856e-15 2.74107e-15 4.63989e-15 
-4.56856e-15 2.74107e-15 4.63989e-15 
-4.56856e-15 2.74107e-15 4.63989e-15 
-6.81755e-15 -1.12081e-15 -1.92061e-15 
-6.81755e-15 -1.12081e-15 -1.92061e-15 
-6.81755e-15 -1.12081e-15 -1.92061e-15 
-6.81755e-15 -1.12081e-15 -1.92061e-15 
-2.30821e-15 3.90395e-16 6.20294e-15 
-2.30821e-15 3.90395e-16 6.20294e-15 
-2.30821e-15 3.90395e-16 6.20294e-15 
-2.30821e-15 3.90395e-16 6.20294e-15 
-1.24202e-15 -9.44915e-15 -8.30647e-15 
-1.24202e-15 -9.44915e-15 -8.30647e-15 
-1.24202e-15 -9.44915e-15 -8.30647e-15 
-1.24202e-15 -9.44915e-15 -8.30647e-15 
-3.69554e-15 3.92448e-15 -9.84397e-15 
-3.69554e-15 3.92448e-15 -9.84397e-15 
-3.69554e-15 3.92448e-15 -9.84397e-15 
-3.69554e-15 3.92448e-15 -9.84397e-15 
2.12461e-15 1.25498e-15 1.91751e-16 
2.12461e-15 1.25498e-15 1.91751e-16 
2.12461e-15 1.25498e-15 1.91751e-16 
2.12461e-15 1.25498e-15 1.91751e-16 
4.82165e-16 5.71691e-15 8.18562e-17 
4.82165e-16 5.71691e-15 8.18562e-17 
4.82165e-16 5.71691e-15 8.18562e-17 
4.82165e-16 5.71691e-15 8.18562e-17 
-4.38666e-16 2.6103e-16 -7.66459e-15 
-4.38666e-16 2.6103e-16 -7.66459e-15 
-4.38666e-16 2.6103e-16 -7.66459e-15 
-4.38666e-16 2.6103e-16 -7.66459e-15 
-1.61392e-15 6.13843e-15 2.1446e-15 
-1.61392e-15 6.13843e-15 2.1446e-15 
-1.61392e-15 6.13843e-15 2.1446e-15 
-1.61392e-15 6.13843e-15 2.1446e-15 
-9.41024e-15 -2.43444e-15 -6.33761e-15 
-9.41024e-15 -2.43444e-15 -6.33761e-15 
-9.41024e-15 -2.43444e-15 -6.33761e-15 
-9.41024e-15 -2.43444e-15 -6.33761e-15 
1.81896e-14 -8.5873e-15 1.22472e-14 
1.81896e-14 -8.5873e-15 1.22472e-14 
1.81896e-14 -8.5873e-15 1.22472e-14 
1.81896e-14 -8.5873e-15 1.22472e-14 
6.76412e-15 7.70509e-15 1.05352e-14 
6.76412e-15 7.70509e-15 1.05352e-14 
6.76412e-15 7.70509e-15 1.05352e-14 
6.76412e-15 7.70509e-15 1.05352e-14 
1.08421e-14 -7.06832e-15 9.65252e-15 
1.08421e-14 -7.06832e-15 9.65252e-15 
1.08421e-14 -7.06832e-15 9.65252e-15 
1.08421e-14 -7.06832e-15 9.65252e-15 
-5.57292e-15 1.20837e-14 1.70245e-15 
-5.57292e-15 1.20837e-14 1.70245e-15 
-5.57292e-15 1.20837e-14 1.70245e-15 
-5.57292e-15 1.20837e-14 1.70245e-15 
1.16258e-15 1.38684e-17 1.30444e-15 
1.16258e-15 1.38684e-17 1.30444e-15 
1.16258e-15 1.38684e-17 1.30444e-15 
1.16258e-15 1.38684e-17 1.30444e-15 
8.93962e-15 -1.25467e-14 1.10421e-14 
8.93962e-15 -1.25467e-14 1.10421e-14 
8.93962e-15 -1.25467e-14 1.10421e-14 
8.93962e-15 -1.25467e-14 1.10421e-14 
-3.36659e-15 2.28245e-15 1.97783e-14 
-3.36659e-15 2.28245e-15 1.97783e-14 
-3.36659e-15 2.28245e-15 1.97783e-14 
-3.36659e-15 2.28245e-15 1.97783e-14 
9.64204e-15 -8.38475e-15 4.1238e-15 
9.64204e-15 -8.38475e-15 4.1238e-15 
9.64204e-15 -8.38475e-15 4.1238e-15 
9.64204e-15 -8.38475e-15 4.1238e-15 
1.34663e-14 7.14906e-16 2.64549e-14 
1.34663e-14 7.14906e-16 2.64549e-14 
1.34663e-14 7.14906e-16 2.64549e-14 
1.34663e-14 7.14906e-16 2.64549e-14 
1.63049e-14 -4.3433e-15 -3.68606e-15 
1.63049e-14 -4.3433e-15 -3.68606e-15 
1.63049e-14 -4.3433e-15 -3.68606e-15 
1.63049e-14 -4.3433e-15 -3.68606e-15 
1.35131e-14 2.03001e-14 5.48976e-15 
1.35131e-14 2.03001e-14 5.48976e-15 
1.35131e-14 2.03001e-14 5.48976e-15 
1.35131e-14 2.03001e-14 5.48976e-15 
-3.59305e-15 3.58588e-15 6.92692e-15 
-3.59305e-15 3.58588e-15 6.92692e-15 
-3.59305e-15 3.58588e-15 6.92692e-15 
-3.59305e-15 3.58588e-15 6.92692e-15 
1.02937e-14 -7.05143e-15 5.56348e-15 
1.02937e-14 -7.05143e-15 5.56348e-15 
1.02937e-14 -7.05143e-15 5.56348e-15 
1.02937e-14 -7.05143e-15 5.56348e-15 
-4.26712e-15 1.95042e-15 -6.93291e-15 
-4.26712e-15 1.95042e-15 -6.93291e-15 
-4.26712e-15 1.95042e-15 -6.93291e-15 
-4.26712e-15 1.95042e-15 -6.93291e-15 
-1.13116e-14 2.98399e-15 7.33421e-15 
-1.13116e-14 2.98399e-15 7.33421e-15 
-1.13116e-14 2.98399e-15 7.33421e-15 
-1.13116e-14 2.98399e-15 7.33421e-15 
1.1824e-14 -7.59777e-15 -5.07853e-15 
1.1824e-14 -7.59777e-15 -5.07853e-15 
1.1824e-14 -7.59777e-15 -5.07853e-15 
1.1824e-14 -7.59777e-15 -5.07853e-15 
-1.87511e-15 7.3136e-17 -6.15915e-15 
-1.87511e-15 7.3136e-17 -6.15915e-15 
-1.87511e-15 7.3136e-17 -6.15915e-15 
-1.87511e-15 7.3136e-17 -6.15915e-15 
-9.21769e-15 -6.70704e-15 1.71983e-14 
-9.21769e-15 -6.70704e-15 1.71983e-14 
-9.21769e-15 -6.70704e-15 1.71983e-14 
-9.21769e-15 -6.70704e-15 1.71983e-14 
-1.00833e-14 4.66803e-15 -8.48311e-15 
-1.00833e-14 4.66803e-15 -8.48311e-15 
-1.00833e-14 4.66803e-15 -8.48311e-15 
-1.00833e-14 4.66803e-15 -8.48311e-15 
3.01089e-15 -4.09402e-15 -2.30186e-14 
3.01089e-15 -4.09402e-15 -2.30186e-14 
3.01089e-15 -4.09402e-15 -2.30186e-14 
3.01089e-15 -4.09402e-15 -2.30186e-14 
5.89688e-17 2.53018e-15 -2.84403e-15 
5.89688e-17 2.53018e-15 -2.84403e-15 
5.89688e-17 2.53018e-15 -2.84403e-15 
5.89688e-17 2.53018e-15 -2.84403e-15 
1.84847e-15 2.1755e-15 1.71589e-15 
1.84847e-15 2.1755e-15 1.71589e-15 
1.84847e-15 2.1755e-15 1.71589e-15 
1.84847e-15 2.1755e-15 1.71589e-15 
1.51652e-14 -6.2267e-15 9.16224e-15 
1.51652e-14 -6.2267e-15 9.16224e-15 
1.51652e-14 -6.2267e-15 9.16224e-15 
1.51652e-14 -6.2267e-15 9.16224e-15 
5.06284e-15 6.47701e-15 -5.39701e-15 
5.06284e-15 6.47701e-15 -5.39701e-15 
5.06284e-15 6.47701e-15 -5.39701e-15 
5.06284e-15 6.47701e-15 -5.39701e-15 
-4.3267e-16 -1.48032e-15 -5.30184e-15 
-4.3267e-16 -1.48032e-15 -5.30184e-15 
-4.3267e-16 -1.48032e-15 -5.30184e-15 
-4.3267e-16 -1.48032e-15 -5.30184e-15 
-2.47591e-15 -5.70801e-15 -3.37226e-17 
-2.47591e-15 -5.70801e-15 -3.37226e-17 
-2.47591e-15 -5.70801e-15 -3.37226e-17 
-2.47591e-15 -5.70801e-15 -3.37226e-17 
3.47845e-15 1.16029e-14 3.26063e-15 
3.47845e-15 1.16029e-14 3.26063e-15 
3.47845e-15 1.16029e-14 3.26063e-15 
3.47845e-15 1.16029e-14 3.26063e-15 
1.09951e-14 6.33902e-15 1.20608e-14 
1.09951e-14 6.33902e-15 1.20608e-14 
1.09951e-14 6.33902e-15 1.20608e-14 
1.09951e-14 6.33902e-15 1.20608e-14 
-2.79719e-15 3.4822e-15 -6.8782e-15 
-2.79719e-15 3.4822e-15 -6.8782e-15 
-2.79719e-15 3.4822e-15 -6.8782e-15 
-2.79719e-15 3.4822e-15 -6.8782e-15 
7.99387e-16 6.65175e-16 -4.75836e-15 
7.99387e-16 6.65175e-16 -4.75836e-15 
7.99387e-16 6.65175e-16 -4.75836e-15 
7.99387e-16 6.65175e-16 -4.75836e-15 
5.12778e-15 4.91027e-15 1.42625e-15 
5.12778e-15 4.91027e-15 1.42625e-15 
5.12778e-15 4.91027e-15 1.42625e-15 
5.12778e-15 4.91027e-15 1.42625e-15 
2.34831e-15 -2.19306e-15 1.54182e-14 
2.34831e-15 -2.19306e-15 1.54182e-14 
2.34831e-15 -2.19306e-15 1.54182e-14 
2.34831e-15 -2.19306e-15 1.54182e-14 
-6.99744e-16 1.87633e-15 -6.21283e-15 
-6.99744e-16 1.87633e-15 -6.21283e-15 
-6.99744e-16 1.87633e-15 -6.21283e-15 
-6.99744e-16 1.87633e-15 -6.21283e-15 
-3.09044e-15 6.11232e-16 -1.20269e-14 
-3.09044e-15 6.11232e-16 -1.20269e-14 
-3.09044e-15 6.11232e-16 -1.20269e-14 
-3.09044e-15 6.11232e-16 -1.20269e-14 
-3.68306e-15 8.60739e-15 2.16266e-15 
-3.68306e-15 8.60739e-15 2.16266e-15 
-3.68306e-15 8.60739e-15 2.16266e-15 
-3.68306e-15 8.60739e-15 2.16266e-15 
5.37953e-15 6.06261e-15 1.70598e-14 
5.37953e-15 6.06261e-15 1.70598e-14 
5.37953e-15 6.06261e-15 1.70598e-14 
5.37953e-15 6.06261e-15 1.70598e-14 
7.77475e-16 6.59912e-16 -8.53167e-15 
7.77475e-16 6.59912e-16 -8.53167e-15 
7.77475e-16 6.59912e-16 -8.53167e-15 
7.77475e-16 6.59912e-16 -8.53167e-15 
7.92839e-16 3.54842e-15 1.48461e-15 
7.92839e-16 3.54842e-15 1.48461e-15 
7.92839e-16 3.54842e-15 1.48461e-15 
7.92839e-16 3.54842e-15 1.48461e-15 
1.12855e-14 -5.77334e-15 5.45501e-15 
1.12855e-14 -5.77334e-15 5.45501e-15 
1.12855e-14 -5.77334e-15 5.45501e-15 
1.12855e-14 -5.77334e-15 5.45501e-15 
-2.44909e-15 -6.92389e-15 2.80407e-14 
-2.44909e-15 -6.92389e-15 2.80407e-14 
-2.44909e-15 -6.92389e-15 2.80407e-14 
-2.44909e-15 -6.92389e-15 2.80407e-14 
-1.23873e-14 1.03714e-14 -1.99274e-14 
-1.23873e-14 1.03714e-14 -1.99274e-14 
-1.23873e-14 1.03714e-14 -1.99274e-14 
-1.23873e-14 1.03714e-14 -1.99274e-14 
-4.30118e-15 8.96358e-16 7.67279e-15 
-4.30118e-15 8.96358e-16 7.67279e-15 
-4.30118e-15 8.96358e-16 7.67279e-15 
-4.30118e-15 8.96358e-16 7.67279e-15 
-2.28862e-14 -3.05775e-15 -1.77236e-14 
-2.28862e-14 -3.05775e-15 -1.77236e-14 
-2.28862e-14 -3.05775e-15 -1.77236e-14 
-2.28862e-14 -3.05775e-15 -1.77236e-14 
-9.20507e-16 -7.8458e-15 3.16887e-15 
-9.20507e-16 -7.8458e-15 3.16887e-15 
-9.20507e-16 -7.8458e-15 3.16887e-15 
-9.20507e-16 -7.8458e-15 3.16887e-15 
1.18767e-15 -1.67076e-15 3.5145e-14 
1.18767e-15 -1.67076e-15 3.5145e-14 
1.18767e-15 -1.67076e-15 3.5145e-14 
1.18767e-15 -1.67076e-15 3.5145e-14 
2.26494e-15 -5.4543e-15 -3.37629e-15 
2.26494e-15 -5.4543e-15 -3.37629e-15 
2.26494e-15 -5.4543e-15 -3.37629e-15 
2.26494e-15 -5.4543e-15 -3.37629e-15 
-8.69377e-16 -6.13117e-15 -1.23156e-14 
-8.69377e-16 -6.13117e-15 -1.23156e-14 
-8.69377e-16 -6.13117e-15 -1.23156e-14 
-8.69377e-16 -6.13117e-15 -1.23156e-14 
9.20918e-15 -1.58534e-14 9.37952e-16 
9.20918e-15 -1.58534e-14 9.37952e-16 
9.20918e-15 -1.58534e-14 9.37952e-16 
9.20918e-15 -1.58534e-14 9.37952e-16 
-3.30716e-15 -3.60376e-15 3.19078e-16 
-3.30716e-15 -3.60376e-15 3.19078e-16 
-3.30716e-15 -3.60376e-15 3.19078e-16 
-3.30716e-15 -3.60376e-15 3.19078e-16 
1.14319e-14 2.7326e-15 -1.56849e-15 
1.14319e-14 2.7326e-15 -1.56849e-15 
1.14319e-14 2.7326e-15 -1.56849e-15 
1.14319e-14 2.7326e-15 -1.56849e-15 
-3.54086e-15 -7.11295e-15 -3.43785e-16 
-3.54086e-15 -7.11295e-15 -3.43785e-16 
-3.54086e-15 -7.11295e-15 -3.43785e-16 
-3.54086e-15 -7.11295e-15 -3.43785e-16 
1.66713e-15 -1.02807e-16 2.48016e-15 
1.66713e-15 -1.02807e-16 2.48016e-15 
1.66713e-15 -1.02807e-16 2.48016e-15 
1.66713e-15 -1.02807e-16 2.48016e-15 
-3.2056e-15 -3.63631e-15 3.2359e-16 
-3.2056e-15 -3.63631e-15 3.2359e-16 
-3.2056e-15 -3.63631e-15 3.2359e-16 
-3.2056e-15 -3.63631e-15 3.2359e-16 
7.08912e-15 2.51972e-15 -6.91305e-15 
7.08912e-15 2.51972e-15 -6.91305e-15 
7.08912e-15 2.51972e-15 -6.91305e-15 
7.08912e-15 2.51972e-15 -6.91305e-15 
2.69363e-15 -4.43876e-15 -5.93693e-16 
2.69363e-15 -4.43876e-15 -5.93693e-16 
2.69363e-15 -4.43876e-15 -5.93693e-16 
2.69363e-15 -4.43876e-15 -5.93693e-16 
5.05927e-15 2.2675e-15 2.51543e-14 
5.05927e-15 2.2675e-15 2.51543e-14 
5.05927e-15 2.2675e-15 2.51543e-14 
5.05927e-15 2.2675e-15 2.51543e-14 
-4.84375e-15 1.39807e-15 6.43878e-15 
-4.84375e-15 1.39807e-15 6.43878e-15 
-4.84375e-15 1.39807e-15 6.43878e-15 
-4.84375e-15 1.39807e-15 6.43878e-15 
-6.08854e-15 9.48046e-16 -2.0873e-15 
-6.08854e-15 9.48046e-16 -2.0873e-15 
-6.08854e-15 9.48046e-16 -2.0873e-15 
-6.08854e-15 9.48046e-16 -2.0873e-15 
-9.96234e-15 5.04492e-15 -8.61413e-15 
-9.96234e-15 5.04492e-15 -8.61413e-15 
-9.96234e-15 5.04492e-15 -8.61413e-15 
-9.96234e-15 5.04492e-15 -8.61413e-15 
-6.69109e-15 8.92446e-15 2.20723e-14 
-6.69109e-15 8.92446e-15 2.20723e-14 
-6.69109e-15 8.92446e-15 2.20723e-14 
-6.69109e-15 8.92446e-15 2.20723e-14 
-3.81237e-15 -4.27628e-15 1.50122e-16 
-3.81237e-15 -4.27628e-15 1.50122e-16 
-3.81237e-15 -4.27628e-15 1.50122e-16 
-3.81237e-15 -4.27628e-15 1.50122e-16 
3.71983e-15 1.69126e-14 2.23084e-15 
3.71983e-15 1.69126e-14 2.23084e-15 
3.71983e-15 1.69126e-14 2.23084e-15 
3.71983e-15 1.69126e-14 2.23084e-15 
-4.26946e-15 -2.03188e-15 -1.52526e-14 
-4.26946e-15 -2.03188e-15 -1.52526e-14 
-4.26946e-15 -2.03188e-15 -1.52526e-14 
-4.26946e-15 -2.03188e-15 -1.52526e-14 
7.30618e-15 -3.97078e-15 3.96746e-15 
7.30618e-15 -3.97078e-15 3.96746e-15 
7.30618e-15 -3.97078e-15 3.96746e-15 
7.30618e-15 -3.97078e-15 3.96746e-15 
-5.98573e-15 -6.09592e-15 -2.0601e-15 
-5.98573e-15 -6.09592e-15 -2.0601e-15 
-5.98573e-15 -6.09592e-15 -2.0601e-15 
-5.98573e-15 -6.09592e-15 -2.0601e-15 
-3.14251e-15 -7.40818e-15 3.92798e-15 
-3.14251e-15 -7.40818e-15 3.92798e-15 
-3.14251e-15 -7.40818e-15 3.92798e-15 
-3.14251e-15 -7.40818e-15 3.92798e-15 
-1.93496e-15 4.11645e-15 3.6419e-15 
-1.93496e-15 4.11645e-15 3.6419e-15 
-1.93496e-15 4.11645e-15 3.6419e-15 
-1.93496e-15 4.11645e-15 3.6419e-15 
3.29242e-15 -6.42493e-15 9.03135e-15 
3.29242e-15 -6.42493e-15 9.03135e-15 
3.29242e-15 -6.42493e-15 9.03135e-15 
3.29242e-15 -6.42493e-15 9.03135e-15 
-2.41559e-15 1.62342e-15 -7.23339e-15 
-2.41559e-15 1.62342e-15 -7.23339e-15 
-2.41559e-15 1.62342e-15 -7.23339e-15 
-2.41559e-15 1.62342e-15 -7.23339e-15 
-4.89509e-15 5.3617e-16 3.21456e-16 
-4.89509e-15 5.3617e-16 3.21456e-16 
-4.89509e-15 5.3617e-16 3.21456e-16 
-4.89509e-15 5.3617e-16 3.21456e-16 
1.03045e-14 1.95778e-16 -1.31368e-15 
1.03045e-14 1.95778e-16 -1.31368e-15 
1.03045e-14 1.95778e-16 -1.31368e-15 
1.03045e-14 1.95778e-16 -1.31368e-15 
-1.07564e-14 -4.5399e-16 1.93457e-14 
-1.07564e-14 -4.5399e-16 1.93457e-14 
-1.07564e-14 -4.5399e-16 1.93457e-14 
-1.07564e-14 -4.5399e-16 1.93457e-14 
-6.36233e-15 -1.43203e-14 3.39113e-14 
-6.36233e-15 -1.43203e-14 3.39113e-14 
-6.36233e-15 -1.43203e-14 3.39113e-14 
-6.36233e-15 -1.43203e-14 3.39113e-14 
-2.60722e-16 -5.47356e-15 5.2642e-15 
-2.60722e-16 -5.47356e-15 5.2642e-15 
-2.60722e-16 -5.47356e-15 5.2642e-15 
-2.60722e-16 -5.47356e-15 5.2642e-15 
-3.07355e-15 -7.19381e-15 -3.29951e-16 
-3.07355e-15 -7.19381e-15 -3.29951e-16 
-3.07355e-15 -7.19381e-15 -3.29951e-16 
-3.07355e-15 -7.19381e-15 -3.29951e-16 
-6.31755e-15 -3.69408e-15 7.83343e-15 
-6.31755e-15 -3.69408e-15 7.83343e-15 
-6.31755e-15 -3.69408e-15 7.83343e-15 
-6.31755e-15 -3.69408e-15 7.83343e-15 
-6.85904e-17 -8.75428e-17 4.31977e-15 
-6.85904e-17 -8.75428e-17 4.31977e-15 
-6.85904e-17 -8.75428e-17 4.31977e-15 
-6.85904e-17 -8.75428e-17 4.31977e-15 
-4.1645e-15 -2.66863e-16 -1.08032e-14 
-4.1645e-15 -2.66863e-16 -1.08032e-14 
-4.1645e-15 -2.66863e-16 -1.08032e-14 
-4.1645e-15 -2.66863e-16 -1.08032e-14 
3.17651e-15 1.18051e-14 -7.97974e-15 
3.17651e-15 1.18051e-14 -7.97974e-15 
3.17651e-15 1.18051e-14 -7.97974e-15 
3.17651e-15 1.18051e-14 -7.97974e-15 
6.15218e-15 -1.38747e-14 6.15453e-15 
6.15218e-15 -1.38747e-14 6.15453e-15 
6.15218e-15 -1.38747e-14 6.15453e-15 
6.15218e-15 -1.38747e-14 6.15453e-15 
3.61129e-15 1.08996e-14 1.81078e-14 
3.61129e-15 1.08996e-14 1.81078e-14 
3.61129e-15 1.08996e-14 1.81078e-14 
3.61129e-15 1.08996e-14 1.81078e-14 
1.25966e-14 9.22884e-15 2.4825e-14 
1.25966e-14 9.22884e-15 2.4825e-14 
1.25966e-14 9.22884e-15 2.4825e-14 
1.25966e-14 9.22884e-15 2.4825e-14 
-5.57796e-15 1.58388e-14 7.88953e-16 
-5.57796e-15 1.58388e-14 7.88953e-16 
-5.57796e-15 1.58388e-14 7.88953e-16 
-5.57796e-15 1.58388e-14 7.88953e-16 
8.90087e-15 -1.7519e-15 -6.16035e-15 
8.90087e-15 -1.7519e-15 -6.16035e-15 
8.90087e-15 -1.7519e-15 -6.16035e-15 
8.90087e-15 -1.7519e-15 -6.16035e-15 
8.46069e-17 -4.44153e-15 -4.59343e-15 
8.46069e-17 -4.44153e-15 -4.59343e-15 
8.46069e-17 -4.44153e-15 -4.59343e-15 
8.46069e-17 -4.44153e-15 -4.59343e-15 
-1.00359e-14 2.41756e-16 -8.46818e-16 
-1.00359e-14 2.41756e-16 -8.46818e-16 
-1.00359e-14 2.41756e-16 -8.46818e-16 
-1.00359e-14 2.41756e-16 -8.46818e-16 
1.3514e-15 1.83005e-15 -5.50882e-15 
1.3514e-15 1.83005e-15 -5.50882e-15 
1.3514e-15 1.83005e-15 -5.50882e-15 
1.3514e-15 1.83005e-15 -5.50882e-15 
-1.84282e-15 3.19803e-15 -3.42305e-15 
-1.84282e-15 3.19803e-15 -3.42305e-15 
-1.84282e-15 3.19803e-15 -3.42305e-15 
-1.84282e-15 3.19803e-15 -3.42305e-15 
1.0429e-14 -4.87412e-15 -1.15097e-14 
1.0429e-14 -4.87412e-15 -1.15097e-14 
1.0429e-14 -4.87412e-15 -1.15097e-14 
1.0429e-14 -4.87412e-15 -1.15097e-14 
-1.15296e-14 3.89543e-15 8.19107e-15 
-1.15296e-14 3.89543e-15 8.19107e-15 
-1.15296e-14 3.89543e-15 8.19107e-15 
-1.15296e-14 3.89543e-15 8.19107e-15 
-3.3232e-15 -3.88647e-16 -9.98384e-15 
-3.3232e-15 -3.88647e-16 -9.98384e-15 
-3.3232e-15 -3.88647e-16 -9.98384e-15 
-3.3232e-15 -3.88647e-16 -9.98384e-15 
-6.62308e-15 5.66475e-15 -3.72436e-15 
-6.62308e-15 5.66475e-15 -3.72436e-15 
-6.62308e-15 5.66475e-15 -3.72436e-15 
-6.62308e-15 5.66475e-15 -3.72436e-15 
5.82871e-15 8.00799e-16 7.37806e-15 
5.82871e-15 8.00799e-16 7.37806e-15 
5.82871e-15 8.00799e-16 7.37806e-15 
5.82871e-15 8.00799e-16 7.37806e-15 
-9.42573e-17 3.03609e-15 4.66282e-15 
-9.42573e-17 3.03609e-15 4.66282e-15 
-9.42573e-17 3.03609e-15 4.66282e-15 
-9.42573e-17 3.03609e-15 4.66282e-15 
6.01769e-15 -9.7786e-15 7.70425e-15 
6.01769e-15 -9.7786e-15 7.70425e-15 
6.01769e-15 -9.7786e-15 7.70425e-15 
6.01769e-15 -9.7786e-15 7.70425e-15 
6.4368e-15 -5.53639e-16 6.34625e-15 
6.4368e-15 -5.53639e-16 6.34625e-15 
6.4368e-15 -5.53639e-16 6.34625e-15 
6.4368e-15 -5.53639e-16 6.34625e-15 
1.31447e-14 -1.45189e-14 2.00636e-14 
1.31447e-14 -1.45189e-14 2.00636e-14 
1.31447e-14 -1.45189e-14 2.00636e-14 
1.31447e-14 -1.45189e-14 2.00636e-14 
1.34014e-15 -1.02017e-16 -5.26018e-15 
1.34014e-15 -1.02017e-16 -5.26018e-15 
1.34014e-15 -1.02017e-16 -5.26018e-15 
1.34014e-15 -1.02017e-16 -5.26018e-15 
-1.1539e-14 2.24607e-15 2.67723e-14 
-1.1539e-14 2.24607e-15 2.67723e-14 
-1.1539e-14 2.24607e-15 2.67723e-14 
-1.1539e-14 2.24607e-15 2.67723e-14 
4.8859e-15 -6.54516e-15 3.00186e-15 
4.8859e-15 -6.54516e-15 3.00186e-15 
4.8859e-15 -6.54516e-15 3.00186e-15 
4.8859e-15 -6.54516e-15 3.00186e-15 
-2.43742e-15 3.63543e-15 1.92923e-15 
-2.43742e-15 3.63543e-15 1.92923e-15 
-2.43742e-15 3.63543e-15 1.92923e-15 
-2.43742e-15 3.63543e-15 1.92923e-15 
8.80121e-16 2.00169e-15 -1.43901e-14 
8.80121e-16 2.00169e-15 -1.43901e-14 
8.80121e-16 2.00169e-15 -1.43901e-14 
8.80121e-16 2.00169e-15 -1.43901e-14 
7.10598e-15 -3.91952e-15 8.28215e-15 
7.10598e-15 -3.91952e-15 8.28215e-15 
7.10598e-15 -3.91952e-15 8.28215e-15 
7.10598e-15 -3.91952e-15 8.28215e-15 
6.97228e-16 -4.65911e-15 4.36199e-15 
6.97228e-16 -4.65911e-15 4.36199e-15 
6.97228e-16 -4.65911e-15 4.36199e-15 
6.97228e-16 -4.65911e-15 4.36199e-15 
-2.10883e-16 -1.57846e-16 3.98586e-15 
-2.10883e-16 -1.57846e-16 3.98586e-15 
-2.10883e-16 -1.57846e-16 3.98586e-15 
-2.10883e-16 -1.57846e-16 3.98586e-15 
7.15826e-15 2.62197e-15 -7.74063e-15 
7.15826e-15 2.62197e-15 -7.74063e-15 
7.15826e-15 2.62197e-15 -7.74063e-15 
7.15826e-15 2.62197e-15 -7.74063e-15 
3.88539e-16 3.75355e-15 3.18429e-15 
3.88539e-16 3.75355e-15 3.18429e-15 
3.88539e-16 3.75355e-15 3.18429e-15 
3.88539e-16 3.75355e-15 3.18429e-15 
4.38277e-15 1.24326e-14 -1.921e-16 
4.38277e-15 1.24326e-14 -1.921e-16 
4.38277e-15 1.24326e-14 -1.921e-16 
4.38277e-15 1.24326e-14 -1.921e-16 
4.80088e-15 1.74896e-15 -4.77156e-15 
4.80088e-15 1.74896e-15 -4.77156e-15 
4.80088e-15 1.74896e-15 -4.77156e-15 
4.80088e-15 1.74896e-15 -4.77156e-15 
-4.8181e-15 -1.26076e-15 -1.09342e-14 
-4.8181e-15 -1.26076e-15 -1.09342e-14 
-4.8181e-15 -1.26076e-15 -1.09342e-14 
-4.8181e-15 -1.26076e-15 -1.09342e-14 
7.15701e-15 8.65205e-16 -5.2691e-15 
7.15701e-15 8.65205e-16 -5.2691e-15 
7.15701e-15 8.65205e-16 -5.2691e-15 
7.15701e-15 8.65205e-16 -5.2691e-15 
7.32798e-16 -1.02219e-15 -5.20916e-15 
7.32798e-16 -1.02219e-15 -5.20916e-15 
7.32798e-16 -1.02219e-15 -5.20916e-15 
7.32798e-16 -1.02219e-15 -5.20916e-15 
9.0374e-16 1.90627e-15 7.46862e-16 
9.0374e-16 1.90627e-15 7.46862e-16 
9.0374e-16 1.90627e-15 7.46862e-16 
9.0374e-16 1.90627e-15 7.46862e-16 
6.74516e-16 4.00083e-15 1.5424e-14 
6.74516e-16 4.00083e-15 1.5424e-14 
6.74516e-16 4.00083e-15 1.5424e-14 
6.74516e-16 4.00083e-15 1.5424e-14 
1.18664e-14 -6.10472e-15 -1.06018e-14 
1.18664e-14 -6.10472e-15 -1.06018e-14 
1.18664e-14 -6.10472e-15 -1.06018e-14 
1.18664e-14 -6.10472e-15 -1.06018e-14 
-5.03863e-15 -7.21459e-15 2.07514e-14 
-5.03863e-15 -7.21459e-15 2.07514e-14 
-5.03863e-15 -7.21459e-15 2.07514e-14 
-5.03863e-15 -7.21459e-15 2.07514e-14 
-3.72498e-15 5.23506e-16 -7.84467e-16 
-3.72498e-15 5.23506e-16 -7.84467e-16 
-3.72498e-15 5.23506e-16 -7.84467e-16 
-3.72498e-15 5.23506e-16 -7.84467e-16 
1.36419e-15 2.74422e-15 -9.25357e-15 
1.36419e-15 2.74422e-15 -9.25357e-15 
1.36419e-15 2.74422e-15 -9.25357e-15 
1.36419e-15 2.74422e-15 -9.25357e-15 
-2.95952e-14 -5.96362e-15 -1.78258e-14 
-2.95952e-14 -5.96362e-15 -1.78258e-14 
-2.95952e-14 -5.96362e-15 -1.78258e-14 
-2.95952e-14 -5.96362e-15 -1.78258e-14 
-6.71607e-15 -3.37136e-15 -1.86835e-15 
-6.71607e-15 -3.37136e-15 -1.86835e-15 
-6.71607e-15 -3.37136e-15 -1.86835e-15 
-6.71607e-15 -3.37136e-15 -1.86835e-15 
-4.67236e-15 -1.59245e-15 3.06038e-14 
-4.67236e-15 -1.59245e-15 3.06038e-14 
-4.67236e-15 -1.59245e-15 3.06038e-14 
-4.67236e-15 -1.59245e-15 3.06038e-14 
-2.90672e-15 3.9961e-15 1.91483e-14 
-2.90672e-15 3.9961e-15 1.91483e-14 
-2.90672e-15 3.9961e-15 1.91483e-14 
-2.90672e-15 3.9961e-15 1.91483e-14 
-3.95024e-15 6.72862e-15 1.98227e-16 
-3.95024e-15 6.72862e-15 1.98227e-16 
-3.95024e-15 6.72862e-15 1.98227e-16 
-3.95024e-15 6.72862e-15 1.98227e-16 
1.93565e-15 4.10333e-15 -8.01452e-15 
1.93565e-15 4.10333e-15 -8.01452e-15 
1.93565e-15 4.10333e-15 -8.01452e-15 
1.93565e-15 4.10333e-15 -8.01452e-15 
-3.55889e-15 5.79931e-15 -1.67229e-14 
-3.55889e-15 5.79931e-15 -1.67229e-14 
-3.55889e-15 5.79931e-15 -1.67229e-14 
-3.55889e-15 5.79931e-15 -1.67229e-14 
-4.47931e-16 3.22697e-15 -9.23999e-15 
-4.47931e-16 3.22697e-15 -9.23999e-15 
-4.47931e-16 3.22697e-15 -9.23999e-15 
-4.47931e-16 3.22697e-15 -9.23999e-15 
1.77495e-14 1.6267e-14 -4.2937e-15 
1.77495e-14 1.6267e-14 -4.2937e-15 
1.77495e-14 1.6267e-14 -4.2937e-15 
1.77495e-14 1.6267e-14 -4.2937e-15 
5.03045e-15 -4.25941e-15 2.754e-15 
5.03045e-15 -4.25941e-15 2.754e-15 
5.03045e-15 -4.25941e-15 2.754e-15 
5.03045e-15 -4.25941e-15 2.754e-15 
4.6553e-15 5.24159e-15 1.58978e-15 
4.6553e-15 5.24159e-15 1.58978e-15 
4.6553e-15 5.24159e-15 1.58978e-15 
4.6553e-15 5.24159e-15 1.58978e-15 
-1.80613e-15 -6.37145e-15 3.08001e-15 
-1.80613e-15 -6.37145e-15 3.08001e-15 
-1.80613e-15 -6.37145e-15 3.08001e-15 
-1.80613e-15 -6.37145e-15 3.08001e-15 
-2.19923e-14 -3.69502e-15 1.13462e-14 
-2.19923e-14 -3.69502e-15 1.13462e-14 
-2.19923e-14 -3.69502e-15 1.13462e-14 
-2.19923e-14 -3.69502e-15 1.13462e-14 
-1.56918e-15 -1.96997e-16 -1.87542e-14 
-1.56918e-15 -1.96997e-16 -1.87542e-14 
-1.56918e-15 -1.96997e-16 -1.87542e-14 
-1.56918e-15 -1.96997e-16 -1.87542e-14 
-2.01631e-15 2.07645e-15 -5.29715e-17 
-2.01631e-15 2.07645e-15 -5.29715e-17 
-2.01631e-15 2.07645e-15 -5.29715e-17 
-2.01631e-15 2.07645e-15 -5.29715e-17 
9.02422e-15 -7.44947e-15 7.14696e-15 
9.02422e-15 -7.44947e-15 7.14696e-15 
9.02422e-15 -7.44947e-15 7.14696e-15 
9.02422e-15 -7.44947e-15 7.14696e-15 
-3.7341e-15 6.64339e-15 3.79895e-15 
-3.7341e-15 6.64339e-15 3.79895e-15 
-3.7341e-15 6.64339e-15 3.79895e-15 
-3.7341e-15 6.64339e-15 3.79895e-15 
-2.40174e-15 2.12222e-15 9.69634e-15 
-2.40174e-15 2.12222e-15 9.69634e-15 
-2.40174e-15 2.12222e-15 9.69634e-15 
-2.40174e-15 2.12222e-15 9.69634e-15 
-3.3879e-15 6.74724e-15 -6.29618e-15 
-3.3879e-15 6.74724e-15 -6.29618e-15 
-3.3879e-15 6.74724e-15 -6.29618e-15 
-3.3879e-15 6.74724e-15 -6.29618e-15 
-9.82975e-15 1.21115e-14 1.3618e-14 
-9.82975e-15 1.21115e-14 1.3618e-14 
-9.82975e-15 1.21115e-14 1.3618e-14 
-9.82975e-15 1.21115e-14 1.3618e-14 
7.29936e-15 6.72091e-16 -5.26146e-15 
7.29936e-15 6.72091e-16 -5.26146e-15 
7.29936e-15 6.72091e-16 -5.26146e-15 
7.29936e-15 6.72091e-16 -5.26146e-15 
6.89481e-15 6.97407e-15 1.33991e-14 
6.89481e-15 6.97407e-15 1.33991e-14 
6.89481e-15 6.97407e-15 1.33991e-14 
6.89481e-15 6.97407e-15 1.33991e-14 
-1.36078e-15 7.40487e-15 -4.17901e-15 
-1.36078e-15 7.40487e-15 -4.17901e-15 
-1.36078e-15 7.40487e-15 -4.17901e-15 
-1.36078e-15 7.40487e-15 -4.17901e-15 
-6.14337e-15 -4.68447e-15 -1.06756e-15 
-6.14337e-15 -4.68447e-15 -1.06756e-15 
-6.14337e-15 -4.68447e-15 -1.06756e-15 
-6.14337e-15 -4.68447e-15 -1.06756e-15 
5.85371e-15 1.45366e-14 1.60478e-15 
5.85371e-15 1.45366e-14 1.60478e-15 
5.85371e-15 1.45366e-14 1.60478e-15 
5.85371e-15 1.45366e-14 1.60478e-15 
3.87188e-15 1.11643e-16 -1.03305e-14 
3.87188e-15 1.11643e-16 -1.03305e-14 
3.87188e-15 1.11643e-16 -1.03305e-14 
3.87188e-15 1.11643e-16 -1.03305e-14 
1.74576e-15 -3.48374e-15 -4.69688e-15 
1.74576e-15 -3.48374e-15 -4.69688e-15 
1.74576e-15 -3.48374e-15 -4.69688e-15 
1.74576e-15 -3.48374e-15 -4.69688e-15 
-1.09072e-15 5.88379e-15 -3.82192e-15 
-1.09072e-15 5.88379e-15 -3.82192e-15 
-1.09072e-15 5.88379e-15 -3.82192e-15 
-1.09072e-15 5.88379e-15 -3.82192e-15 
1.73118e-14 -3.92503e-15 1.51303e-14 
1.73118e-14 -3.92503e-15 1.51303e-14 
1.73118e-14 -3.92503e-15 1.51303e-14 
1.73118e-14 -3.92503e-15 1.51303e-14 
-3.28127e-15 4.31999e-15 5.44236e-15 
-3.28127e-15 4.31999e-15 5.44236e-15 
-3.28127e-15 4.31999e-15 5.44236e-15 
-3.28127e-15 4.31999e-15 5.44236e-15 
4.88023e-15 8.71464e-16 3.20609e-15 
4.88023e-15 8.71464e-16 3.20609e-15 
4.88023e-15 8.71464e-16 3.20609e-15 
4.88023e-15 8.71464e-16 3.20609e-15 
-6.82317e-15 1.81921e-14 1.53489e-15 
-6.82317e-15 1.81921e-14 1.53489e-15 
-6.82317e-15 1.81921e-14 1.53489e-15 
-6.82317e-15 1.81921e-14 1.53489e-15 
-3.15709e-15 -7.32669e-15 -1.37752e-15 
-3.15709e-15 -7.32669e-15 -1.37752e-15 
-3.15709e-15 -7.32669e-15 -1.37752e-15 
-3.15709e-15 -7.32669e-15 -1.37752e-15 
9.86888e-15 -6.93148e-15 1.05489e-14 
9.86888e-15 -6.93148e-15 1.05489e-14 
9.86888e-15 -6.93148e-15 1.05489e-14 
9.86888e-15 -6.93148e-15 1.05489e-14 
-1.58455e-15 -1.71132e-15 5.4145e-15 
-1.58455e-15 -1.71132e-15 5.4145e-15 
-1.58455e-15 -1.71132e-15 5.4145e-15 
-1.58455e-15 -1.71132e-15 5.4145e-15 
4.46071e-15 -6.85293e-15 2.81413e-15 
4.46071e-15 -6.85293e-15 2.81413e-15 
4.46071e-15 -6.85293e-15 2.81413e-15 
4.46071e-15 -6.85293e-15 2.81413e-15 
-7.37702e-15 -4.041e-15 -1.79893e-15 
-7.37702e-15 -4.041e-15 -1.79893e-15 
-7.37702e-15 -4.041e-15 -1.79893e-15 
-7.37702e-15 -4.041e-15 -1.79893e-15 
-9.95925e-15 -6.86365e-15 1.38971e-14 
-9.95925e-15 -6.86365e-15 1.38971e-14 
-9.95925e-15 -6.86365e-15 1.38971e-14 
-9.95925e-15 -6.86365e-15 1.38971e-14 
-1.166e-15 4.60084e-15 1.565e-14 
-1.166e-15 4.60084e-15 1.565e-14 
-1.166e-15 4.60084e-15 1.565e-14 
-1.166e-15 4.60084e-15 1.565e-14 
3.44555e-15 9.30341e-15 -3.70783e-15 
3.44555e-15 9.30341e-15 -3.70783e-15 
3.44555e-15 9.30341e-15 -3.70783e-15 
3.44555e-15 9.30341e-15 -3.70783e-15 
-1.02138e-14 -4.02759e-16 -2.72476e-15 
-1.02138e-14 -4.02759e-16 -2.72476e-15 
-1.02138e-14 -4.02759e-16 -2.72476e-15 
-1.02138e-14 -4.02759e-16 -2.72476e-15 
-1.08461e-16 1.47799e-16 1.11022e-15 
-1.08461e-16 1.47799e-16 1.11022e-15 
-1.08461e-16 1.47799e-16 1.11022e-15 
-1.08461e-16 1.47799e-16 1.11022e-15 
5.34635e-15 6.77939e-17 -3.35713e-15 
5.34635e-15 6.77939e-17 -3.35713e-15 
5.34635e-15 6.77939e-17 -3.35713e-15 
5.34635e-15 6.77939e-17 -3.35713e-15 
-4.85025e-15 -7.34463e-15 -3.07545e-15 
-4.85025e-15 -7.34463e-15 -3.07545e-15 
-4.85025e-15 -7.34463e-15 -3.07545e-15 
-4.85025e-15 -7.34463e-15 -3.07545e-15 
-2.40213e-16 7.95934e-15 2.56926e-14 
-2.40213e-16 7.95934e-15 2.56926e-14 
-2.40213e-16 7.95934e-15 2.56926e-14 
-2.40213e-16 7.95934e-15 2.56926e-14 
-3.97137e-15 -1.02861e-14 -2.98279e-15 
-3.97137e-15 -1.02861e-14 -2.98279e-15 
-3.97137e-15 -1.02861e-14 -2.98279e-15 
-3.97137e-15 -1.02861e-14 -2.98279e-15 
-1.72376e-14 1.12681e-14 -1.80559e-15 
-1.72376e-14 1.12681e-14 -1.80559e-15 
-1.72376e-14 1.12681e-14 -1.80559e-15 
-1.72376e-14 1.12681e-14 -1.80559e-15 
-1.86661e-15 -2.63071e-15 -1.07087e-14 
-1.86661e-15 -2.63071e-15 -1.07087e-14 
-1.86661e-15 -2.63071e-15 -1.07087e-14 
-1.86661e-15 -2.63071e-15 -1.07087e-14 
-7.13854e-15 -8.96815e-15 -2.2733e-14 
-7.13854e-15 -8.96815e-15 -2.2733e-14 
-7.13854e-15 -8.96815e-15 -2.2733e-14 
-7.13854e-15 -8.96815e-15 -2.2733e-14 
-2.17935e-15 4.28525e-15 -3.52291e-15 
-2.17935e-15 4.28525e-15 -3.52291e-15 
-2.17935e-15 4.28525e-15 -3.52291e-15 
-2.17935e-15 4.28525e-15 -3.52291e-15 
-4.18517e-15 7.51456e-15 -6.07266e-15 
-4.18517e-15 7.51456e-15 -6.07266e-15 
-4.18517e-15 7.51456e-15 -6.07266e-15 
-4.18517e-15 7.51456e-15 -6.07266e-15 
-4.41188e-15 -2.11974e-15 4.72359e-16 
-4.41188e-15 -2.11974e-15 4.72359e-16 
-4.41188e-15 -2.11974e-15 4.72359e-16 
-4.41188e-15 -2.11974e-15 4.72359e-16 
-1.63673e-15 -5.85913e-15 -3.7273e-16 
-1.63673e-15 -5.85913e-15 -3.7273e-16 
-1.63673e-15 -5.85913e-15 -3.7273e-16 
-1.63673e-15 -5.85913e-15 -3.7273e-16 
-2.22241e-18 -5.17144e-16 5.80113e-16 
-2.22241e-18 -5.17144e-16 5.80113e-16 
-2.22241e-18 -5.17144e-16 5.80113e-16 
-2.22241e-18 -5.17144e-16 5.80113e-16 
-1.42817e-14 2.06038e-14 -1.65924e-14 
-1.42817e-14 2.06038e-14 -1.65924e-14 
-1.42817e-14 2.06038e-14 -1.65924e-14 
-1.42817e-14 2.06038e-14 -1.65924e-14 
6.91617e-15 4.38041e-16 6.32128e-15 
6.91617e-15 4.38041e-16 6.32128e-15 
6.91617e-15 4.38041e-16 6.32128e-15 
6.91617e-15 4.38041e-16 6.32128e-15 
4.40683e-15 3.01545e-16 2.74943e-15 
4.40683e-15 3.01545e-16 2.74943e-15 
4.40683e-15 3.01545e-16 2.74943e-15 
4.40683e-15 3.01545e-16 2.74943e-15 
4.34683e-15 1.28582e-15 1.65681e-14 
4.34683e-15 1.28582e-15 1.65681e-14 
4.34683e-15 1.28582e-15 1.65681e-14 
4.34683e-15 1.28582e-15 1.65681e-14 
-2.03909e-15 3.85083e-15 4.38978e-15 
-2.03909e-15 3.85083e-15 4.38978e-15 
-2.03909e-15 3.85083e-15 4.38978e-15 
-2.03909e-15 3.85083e-15 4.38978e-15 
-1.40599e-15 -1.04885e-14 -2.05396e-14 
-1.40599e-15 -1.04885e-14 -2.05396e-14 
-1.40599e-15 -1.04885e-14 -2.05396e-14 
-1.40599e-15 -1.04885e-14 -2.05396e-14 
-8.36834e-15 -1.03748e-15 -2.09009e-15 
-8.36834e-15 -1.03748e-15 -2.09009e-15 
-8.36834e-15 -1.03748e-15 -2.09009e-15 
-8.36834e-15 -1.03748e-15 -2.09009e-15 
-1.65337e-15 -3.40582e-15 -7.56977e-15 
-1.65337e-15 -3.40582e-15 -7.56977e-15 
-1.65337e-15 -3.40582e-15 -7.56977e-15 
-1.65337e-15 -3.40582e-15 -7.56977e-15 
-7.48754e-15 -8.16553e-15 -1.36402e-16 
-7.48754e-15 -8.16553e-15 -1.36402e-16 
-7.48754e-15 -8.16553e-15 -1.36402e-16 
-7.48754e-15 -8.16553e-15 -1.36402e-16 
-1.52147e-14 -7.30849e-15 1.25255e-14 
-1.52147e-14 -7.30849e-15 1.25255e-14 
-1.52147e-14 -7.30849e-15 1.25255e-14 
-1.52147e-14 -7.30849e-15 1.25255e-14 
-8.75192e-15 -3.95199e-15 -7.04545e-15 
-8.75192e-15 -3.95199e-15 -7.04545e-15 
-8.75192e-15 -3.95199e-15 -7.04545e-15 
-8.75192e-15 -3.95199e-15 -7.04545e-15 
-8.85147e-15 -8.9816e-15 1.59071e-14 
-8.85147e-15 -8.9816e-15 1.59071e-14 
-8.85147e-15 -8.9816e-15 1.59071e-14 
-8.85147e-15 -8.9816e-15 1.59071e-14 
3.93653e-15 -2.56639e-16 -7.51267e-15 
3.93653e-15 -2.56639e-16 -7.51267e-15 
3.93653e-15 -2.56639e-16 -7.51267e-15 
3.93653e-15 -2.56639e-16 -7.51267e-15 
-2.42122e-15 -1.45504e-15 6.37081e-15 
-2.42122e-15 -1.45504e-15 6.37081e-15 
-2.42122e-15 -1.45504e-15 6.37081e-15 
-2.42122e-15 -1.45504e-15 6.37081e-15 
2.1823e-14 7.46426e-15 -6.88476e-15 
2.1823e-14 7.46426e-15 -6.88476e-15 
2.1823e-14 7.46426e-15 -6.88476e-15 
2.1823e-14 7.46426e-15 -6.88476e-15 
1.04601e-14 -3.68003e-15 5.62078e-15 
1.04601e-14 -3.68003e-15 5.62078e-15 
1.04601e-14 -3.68003e-15 5.62078e-15 
1.04601e-14 -3.68003e-15 5.62078e-15 
7.32925e-16 -9.01421e-15 2.52752e-15 
7.32925e-16 -9.01421e-15 2.52752e-15 
7.32925e-16 -9.01421e-15 2.52752e-15 
7.32925e-16 -9.01421e-15 2.52752e-15 
-1.44414e-16 -6.74223e-15 -7.59519e-15 
-1.44414e-16 -6.74223e-15 -7.59519e-15 
-1.44414e-16 -6.74223e-15 -7.59519e-15 
-1.44414e-16 -6.74223e-15 -7.59519e-15 
5.17994e-15 -8.81097e-15 9.17944e-15 
5.17994e-15 -8.81097e-15 9.17944e-15 
5.17994e-15 -8.81097e-15 9.17944e-15 
5.17994e-15 -8.81097e-15 9.17944e-15 
-1.79267e-14 1.89683e-15 -1.03193e-15 
-1.79267e-14 1.89683e-15 -1.03193e-15 
-1.79267e-14 1.89683e-15 -1.03193e-15 
-1.79267e-14 1.89683e-15 -1.03193e-15 
-3.72291e-15 5.62837e-15 -4.9046e-15 
-3.72291e-15 5.62837e-15 -4.9046e-15 
-3.72291e-15 5.62837e-15 -4.9046e-15 
-3.72291e-15 5.62837e-15 -4.9046e-15 
-2.65868e-17 -8.46668e-16 -1.78886e-14 
-2.65868e-17 -8.46668e-16 -1.78886e-14 
-2.65868e-17 -8.46668e-16 -1.78886e-14 
-2.65868e-17 -8.46668e-16 -1.78886e-14 
3.41566e-15 -3.75318e-15 1.0897e-15 
3.41566e-15 -3.75318e-15 1.0897e-15 
3.41566e-15 -3.75318e-15 1.0897e-15 
3.41566e-15 -3.75318e-15 1.0897e-15 
6.02075e-15 6.52273e-15 3.91292e-15 
6.02075e-15 6.52273e-15 3.91292e-15 
6.02075e-15 6.52273e-15 3.91292e-15 
6.02075e-15 6.52273e-15 3.91292e-15 
7.97382e-16 -1.79853e-15 1.63904e-15 
7.97382e-16 -1.79853e-15 1.63904e-15 
7.97382e-16 -1.79853e-15 1.63904e-15 
7.97382e-16 -1.79853e-15 1.63904e-15 
-8.29136e-15 -8.23507e-15 1.46419e-14 
-8.29136e-15 -8.23507e-15 1.46419e-14 
-8.29136e-15 -8.23507e-15 1.46419e-14 
-8.29136e-15 -8.23507e-15 1.46419e-14 
9.76582e-15 3.93537e-16 -3.82907e-15 
9.76582e-15 3.93537e-16 -3.82907e-15 
9.76582e-15 3.93537e-16 -3.82907e-15 
9.76582e-15 3.93537e-16 -3.82907e-15 
-1.43975e-15 -2.31689e-15 -6.23748e-15 
-1.43975e-15 -2.31689e-15 -6.23748e-15 
-1.43975e-15 -2.31689e-15 -6.23748e-15 
-1.43975e-15 -2.31689e-15 -6.23748e-15 
6.1933e-15 -4.33552e-15 2.31622e-15 
6.1933e-15 -4.33552e-15 2.31622e-15 
6.1933e-15 -4.33552e-15 2.31622e-15 
6.1933e-15 -4.33552e-15 2.31622e-15 
1.46971e-14 -2.74385e-15 1.24997e-15 
1.46971e-14 -2.74385e-15 1.24997e-15 
1.46971e-14 -2.74385e-15 1.24997e-15 
1.46971e-14 -2.74385e-15 1.24997e-15 
-6.43657e-15 -3.75361e-15 1.3299e-14 
-6.43657e-15 -3.75361e-15 1.3299e-14 
-6.43657e-15 -3.75361e-15 1.3299e-14 
-6.43657e-15 -3.75361e-15 1.3299e-14 
5.57592e-15 -9.00869e-16 1.06434e-14 
5.57592e-15 -9.00869e-16 1.06434e-14 
5.57592e-15 -9.00869e-16 1.06434e-14 
5.57592e-15 -9.00869e-16 1.06434e-14 
5.87321e-15 -1.07106e-15 -2.41414e-15 
5.87321e-15 -1.07106e-15 -2.41414e-15 
5.87321e-15 -1.07106e-15 -2.41414e-15 
5.87321e-15 -1.07106e-15 -2.41414e-15 
1.23082e-16 3.55551e-15 3.2476e-15 
1.23082e-16 3.55551e-15 3.2476e-15 
1.23082e-16 3.55551e-15 3.2476e-15 
1.23082e-16 3.55551e-15 3.2476e-15 
1.16996e-15 -2.31065e-15 5.57776e-15 
1.16996e-15 -2.31065e-15 5.57776e-15 
1.16996e-15 -2.31065e-15 5.57776e-15 
1.16996e-15 -2.31065e-15 5.57776e-15 
6.67389e-15 8.56726e-15 -5.40014e-15 
6.67389e-15 8.56726e-15 -5.40014e-15 
6.67389e-15 8.56726e-15 -5.40014e-15 
6.67389e-15 8.56726e-15 -5.40014e-15 
6.35618e-16 -5.06533e-15 -9.1142e-15 
6.35618e-16 -5.06533e-15 -9.1142e-15 
6.35618e-16 -5.06533e-15 -9.1142e-15 
6.35618e-16 -5.06533e-15 -9.1142e-15 
2.87221e-15 -1.19494e-14 1.3891e-14 
2.87221e-15 -1.19494e-14 1.3891e-14 
2.87221e-15 -1.19494e-14 1.3891e-14 
2.87221e-15 -1.19494e-14 1.3891e-14 
5.58044e-15 -1.15847e-15 -2.55489e-15 
5.58044e-15 -1.15847e-15 -2.55489e-15 
5.58044e-15 -1.15847e-15 -2.55489e-15 
5.58044e-15 -1.15847e-15 -2.55489e-15 
1.77918e-14 -1.25271e-14 1.84418e-14 
1.77918e-14 -1.25271e-14 1.84418e-14 
1.77918e-14 -1.25271e-14 1.84418e-14 
1.77918e-14 -1.25271e-14 1.84418e-14 
4.65325e-15 5.13834e-15 3.15018e-15 
4.65325e-15 5.13834e-15 3.15018e-15 
4.65325e-15 5.13834e-15 3.15018e-15 
4.65325e-15 5.13834e-15 3.15018e-15 
-2.5491e-15 -2.32717e-15 5.23392e-15 
-2.5491e-15 -2.32717e-15 5.23392e-15 
-2.5491e-15 -2.32717e-15 5.23392e-15 
-2.5491e-15 -2.32717e-15 5.23392e-15 
-1.92526e-14 3.0198e-14 -2.79319e-14 
-1.92526e-14 3.0198e-14 -2.79319e-14 
-1.92526e-14 3.0198e-14 -2.79319e-14 
-1.92526e-14 3.0198e-14 -2.79319e-14 
3.39287e-15 -1.12116e-15 -3.853e-15 
3.39287e-15 -1.12116e-15 -3.853e-15 
3.39287e-15 -1.12116e-15 -3.853e-15 
3.39287e-15 -1.12116e-15 -3.853e-15 
6.2832e-15 -1.56825e-15 5.92566e-15 
6.2832e-15 -1.56825e-15 5.92566e-15 
6.2832e-15 -1.56825e-15 5.92566e-15 
6.2832e-15 -1.56825e-15 5.92566e-15 
-7.19067e-15 -9.7129e-18 -1.08168e-15 
-7.19067e-15 -9.7129e-18 -1.08168e-15 
-7.19067e-15 -9.7129e-18 -1.08168e-15 
-7.19067e-15 -9.7129e-18 -1.08168e-15 
-4.38215e-15 -7.84217e-16 -7.43858e-15 
-4.38215e-15 -7.84217e-16 -7.43858e-15 
-4.38215e-15 -7.84217e-16 -7.43858e-15 
-4.38215e-15 -7.84217e-16 -7.43858e-15 
-1.57933e-14 1.67385e-14 -1.65893e-14 
-1.57933e-14 1.67385e-14 -1.65893e-14 
-1.57933e-14 1.67385e-14 -1.65893e-14 
-1.57933e-14 1.67385e-14 -1.65893e-14 
2.62866e-14 4.26434e-15 1.70761e-14 
2.62866e-14 4.26434e-15 1.70761e-14 
2.62866e-14 4.26434e-15 1.70761e-14 
2.62866e-14 4.26434e-15 1.70761e-14 
1.47856e-15 -3.86597e-15 3.50818e-15 
1.47856e-15 -3.86597e-15 3.50818e-15 
1.47856e-15 -3.86597e-15 3.50818e-15 
1.47856e-15 -3.86597e-15 3.50818e-15 
-3.41823e-15 -4.97048e-15 6.95377e-15 
-3.41823e-15 -4.97048e-15 6.95377e-15 
-3.41823e-15 -4.97048e-15 6.95377e-15 
-3.41823e-15 -4.97048e-15 6.95377e-15 
1.1029e-15 -3.3847e-15 6.7945e-15 
1.1029e-15 -3.3847e-15 6.7945e-15 
1.1029e-15 -3.3847e-15 6.7945e-15 
1.1029e-15 -3.3847e-15 6.7945e-15 
-3.93963e-15 -3.70506e-15 3.11203e-15 
-3.93963e-15 -3.70506e-15 3.11203e-15 
-3.93963e-15 -3.70506e-15 3.11203e-15 
-3.93963e-15 -3.70506e-15 3.11203e-15 
-7.37427e-15 -3.18799e-15 -2.35369e-15 
-7.37427e-15 -3.18799e-15 -2.35369e-15 
-7.37427e-15 -3.18799e-15 -2.35369e-15 
-7.37427e-15 -3.18799e-15 -2.35369e-15 
3.24667e-15 -4.24413e-16 -5.10607e-15 
3.24667e-15 -4.24413e-16 -5.10607e-15 
3.24667e-15 -4.24413e-16 -5.10607e-15 
3.24667e-15 -4.24413e-16 -5.10607e-15 
-1.02444e-14 8.13289e-16 -1.84666e-14 
-1.02444e-14 8.13289e-16 -1.84666e-14 
-1.02444e-14 8.13289e-16 -1.84666e-14 
-1.02444e-14 8.13289e-16 -1.84666e-14 
6.10151e-15 2.55834e-15 6.00812e-15 
6.10151e-15 2.55834e-15 6.00812e-15 
6.10151e-15 2.55834e-15 6.00812e-15 
6.10151e-15 2.55834e-15 6.00812e-15 
-2.14458e-14 2.96787e-15 -8.93289e-15 
-2.14458e-14 2.96787e-15 -8.93289e-15 
-2.14458e-14 2.96787e-15 -8.93289e-15 
-2.14458e-14 2.96787e-15 -8.93289e-15 
1.73123e-16 3.35068e-15 4.10529e-15 
1.73123e-16 3.35068e-15 4.10529e-15 
1.73123e-16 3.35068e-15 4.10529e-15 
1.73123e-16 3.35068e-15 4.10529e-15 
1.20328e-14 1.21372e-15 -1.88045e-15 
1.20328e-14 1.21372e-15 -1.88045e-15 
1.20328e-14 1.21372e-15 -1.88045e-15 
1.20328e-14 1.21372e-15 -1.88045e-15 
-7.80147e-15 1.47139e-14 -1.6808e-14 
-7.80147e-15 1.47139e-14 -1.6808e-14 
-7.80147e-15 1.47139e-14 -1.6808e-14 
-7.80147e-15 1.47139e-14 -1.6808e-14 
-5.78706e-15 1.42122e-14 6.11677e-16 
-5.78706e-15 1.42122e-14 6.11677e-16 
-5.78706e-15 1.42122e-14 6.11677e-16 
-5.78706e-15 1.42122e-14 6.11677e-16 
9.03604e-16 -1.63122e-16 1.49189e-15 
9.03604e-16 -1.63122e-16 1.49189e-15 
9.03604e-16 -1.63122e-16 1.49189e-15 
9.03604e-16 -1.63122e-16 1.49189e-15 
-4.91569e-15 6.49998e-16 3.28082e-16 
-4.91569e-15 6.49998e-16 3.28082e-16 
-4.91569e-15 6.49998e-16 3.28082e-16 
-4.91569e-15 6.49998e-16 3.28082e-16 
-4.69854e-15 -8.4883e-15 -3.17587e-15 
-4.69854e-15 -8.4883e-15 -3.17587e-15 
-4.69854e-15 -8.4883e-15 -3.17587e-15 
-4.69854e-15 -8.4883e-15 -3.17587e-15 
-4.13858e-15 5.58405e-15 -5.11753e-15 
-4.13858e-15 5.58405e-15 -5.11753e-15 
-4.13858e-15 5.58405e-15 -5.11753e-15 
-4.13858e-15 5.58405e-15 -5.11753e-15 
-5.21553e-16 -2.13009e-15 5.14112e-15 
-5.21553e-16 -2.13009e-15 5.14112e-15 
-5.21553e-16 -2.13009e-15 5.14112e-15 
-5.21553e-16 -2.13009e-15 5.14112e-15 
-4.10118e-15 -4.35758e-15 -1.55995e-16 
-4.10118e-15 -4.35758e-15 -1.55995e-16 
-4.10118e-15 -4.35758e-15 -1.55995e-16 
-4.10118e-15 -4.35758e-15 -1.55995e-16 
-4.55483e-15 -3.7231e-15 1.34905e-14 
-4.55483e-15 -3.7231e-15 1.34905e-14 
-4.55483e-15 -3.7231e-15 1.34905e-14 
-4.55483e-15 -3.7231e-15 1.34905e-14 
1.89578e-15 -7.64999e-15 -1.16446e-14 
1.89578e-15 -7.64999e-15 -1.16446e-14 
1.89578e-15 -7.64999e-15 -1.16446e-14 
1.89578e-15 -7.64999e-15 -1.16446e-14 
4.93272e-15 -1.30413e-14 2.08078e-14 
4.93272e-15 -1.30413e-14 2.08078e-14 
4.93272e-15 -1.30413e-14 2.08078e-14 
4.93272e-15 -1.30413e-14 2.08078e-14 
5.60277e-15 -6.87707e-15 9.99918e-16 
5.60277e-15 -6.87707e-15 9.99918e-16 
5.60277e-15 -6.87707e-15 9.99918e-16 
5.60277e-15 -6.87707e-15 9.99918e-16 
-1.64892e-15 -4.9722e-15 1.89574e-15 
-1.64892e-15 -4.9722e-15 1.89574e-15 
-1.64892e-15 -4.9722e-15 1.89574e-15 
-1.64892e-15 -4.9722e-15 1.89574e-15 
8.26215e-15 4.15168e-15 -7.77021e-15 
8.26215e-15 4.15168e-15 -7.77021e-15 
8.26215e-15 4.15168e-15 -7.77021e-15 
8.26215e-15 4.15168e-15 -7.77021e-15 
-3.70077e-15 -3.92849e-15 3.26752e-15 
-3.70077e-15 -3.92849e-15 3.26752e-15 
-3.70077e-15 -3.92849e-15 3.26752e-15 
-3.70077e-15 -3.92849e-15 3.26752e-15 
-1.50237e-15 -8.13394e-15 -7.95131e-15 
-1.50237e-15 -8.13394e-15 -7.95131e-15 
-1.50237e-15 -8.13394e-15 -7.95131e-15 
-1.50237e-15 -8.13394e-15 -7.95131e-15 
1.08937e-15 -1.0958e-14 -2.74032e-15 
1.08937e-15 -1.0958e-14 -2.74032e-15 
1.08937e-15 -1.0958e-14 -2.74032e-15 
1.08937e-15 -1.0958e-14 -2.74032e-15 
-3.23927e-15 4.18909e-15 -7.89919e-15 
-3.23927e-15 4.18909e-15 -7.89919e-15 
-3.23927e-15 4.18909e-15 -7.89919e-15 
-3.23927e-15 4.18909e-15 -7.89919e-15 
6.94862e-15 4.62225e-15 1.17551e-15 
6.94862e-15 4.62225e-15 1.17551e-15 
6.94862e-15 4.62225e-15 1.17551e-15 
6.94862e-15 4.62225e-15 1.17551e-15 
5.40972e-15 1.95889e-15 5.60047e-15 
5.40972e-15 1.95889e-15 5.60047e-15 
5.40972e-15 1.95889e-15 5.60047e-15 
5.40972e-15 1.95889e-15 5.60047e-15 
-1.99755e-14 -7.18833e-15 -8.47328e-15 
-1.99755e-14 -7.18833e-15 -8.47328e-15 
-1.99755e-14 -7.18833e-15 -8.47328e-15 
-1.99755e-14 -7.18833e-15 -8.47328e-15 
-9.59476e-17 2.43991e-15 1.56444e-14 
-9.59476e-17 2.43991e-15 1.56444e-14 
-9.59476e-17 2.43991e-15 1.56444e-14 
-9.59476e-17 2.43991e-15 1.56444e-14 
2.24689e-16 -6.87672e-15 4.17052e-15 
2.24689e-16 -6.87672e-15 4.17052e-15 
2.24689e-16 -6.87672e-15 4.17052e-15 
2.24689e-16 -6.87672e-15 4.17052e-15 
-2.5542e-15 2.48967e-15 -2.79794e-15 
-2.5542e-15 2.48967e-15 -2.79794e-15 
-2.5542e-15 2.48967e-15 -2.79794e-15 
-2.5542e-15 2.48967e-15 -2.79794e-15 
3.88721e-15 -3.47181e-15 -5.96195e-15 
3.88721e-15 -3.47181e-15 -5.96195e-15 
3.88721e-15 -3.47181e-15 -5.96195e-15 
3.88721e-15 -3.47181e-15 -5.96195e-15 
6.38928e-15 7.91605e-16 1.48495e-14 
6.38928e-15 7.91605e-16 1.48495e-14 
6.38928e-15 7.91605e-16 1.48495e-14 
6.38928e-15 7.91605e-16 1.48495e-14 
2.32924e-15 6.3336e-15 -5.99875e-16 
2.32924e-15 6.3336e-15 -5.99875e-16 
2.32924e-15 6.3336e-15 -5.99875e-16 
2.32924e-15 6.3336e-15 -5.99875e-16 
-4.73177e-16 -9.04464e-15 3.50645e-15 
-4.73177e-16 -9.04464e-15 3.50645e-15 
-4.73177e-16 -9.04464e-15 3.50645e-15 
-4.73177e-16 -9.04464e-15 3.50645e-15 
-1.52876e-15 8.27028e-15 7.93497e-15 
-1.52876e-15 8.27028e-15 7.93497e-15 
-1.52876e-15 8.27028e-15 7.93497e-15 
-1.52876e-15 8.27028e-15 7.93497e-15 
-7.04065e-15 -2.45716e-15 -2.23978e-15 
-7.04065e-15 -2.45716e-15 -2.23978e-15 
-7.04065e-15 -2.45716e-15 -2.23978e-15 
-7.04065e-15 -2.45716e-15 -2.23978e-15 
-1.07907e-15 -3.03979e-15 8.26438e-15 
-1.07907e-15 -3.03979e-15 8.26438e-15 
-1.07907e-15 -3.03979e-15 8.26438e-15 
-1.07907e-15 -3.03979e-15 8.26438e-15 
-1.39804e-14 1.36051e-14 -7.39839e-16 
-1.39804e-14 1.36051e-14 -7.39839e-16 
-1.39804e-14 1.36051e-14 -7.39839e-16 
-1.39804e-14 1.36051e-14 -7.39839e-16 
-9.68369e-15 2.16288e-15 -7.12992e-15 
-9.68369e-15 2.16288e-15 -7.12992e-15 
-9.68369e-15 2.16288e-15 -7.12992e-15 
-9.68369e-15 2.16288e-15 -7.12992e-15 
-4.25211e-15 -1.34698e-15 -1.09817e-14 
-4.25211e-15 -1.34698e-15 -1.09817e-14 
-4.25211e-15 -1.34698e-15 -1.09817e-14 
-4.25211e-15 -1.34698e-15 -1.09817e-14 
4.12974e-15 3.05371e-15 6.86393e-15 
4.12974e-15 3.05371e-15 6.86393e-15 
4.12974e-15 3.05371e-15 6.86393e-15 
4.12974e-15 3.05371e-15 6.86393e-15 
1.68109e-15 5.50506e-15 1.38445e-16 
1.68109e-15 5.50506e-15 1.38445e-16 
1.68109e-15 5.50506e-15 1.38445e-16 
1.68109e-15 5.50506e-15 1.38445e-16 
2.63433e-15 1.26088e-14 1.92894e-15 
2.63433e-15 1.26088e-14 1.92894e-15 
2.63433e-15 1.26088e-14 1.92894e-15 
2.63433e-15 1.26088e-14 1.92894e-15 
-1.95937e-14 1.65805e-14 3.32568e-15 
-1.95937e-14 1.65805e-14 3.32568e-15 
-1.95937e-14 1.65805e-14 3.32568e-15 
-1.95937e-14 1.65805e-14 3.32568e-15 
-4.7398e-15 7.00041e-15 -6.08162e-15 
-4.7398e-15 7.00041e-15 -6.08162e-15 
-4.7398e-15 7.00041e-15 -6.08162e-15 
-4.7398e-15 7.00041e-15 -6.08162e-15 
-1.39537e-15 -5.77989e-15 5.83749e-15 
-1.39537e-15 -5.77989e-15 5.83749e-15 
-1.39537e-15 -5.77989e-15 5.83749e-15 
-1.39537e-15 -5.77989e-15 5.83749e-15 
-5.27037e-15 -5.91992e-16 3.112e-15 
-5.27037e-15 -5.91992e-16 3.112e-15 
-5.27037e-15 -5.91992e-16 3.112e-15 
-5.27037e-15 -5.91992e-16 3.112e-15 
-1.65458e-15 4.09693e-15 3.80496e-15 
-1.65458e-15 4.09693e-15 3.80496e-15 
-1.65458e-15 4.09693e-15 3.80496e-15 
-1.65458e-15 4.09693e-15 3.80496e-15 
4.69061e-15 -6.29107e-15 2.91191e-15 
4.69061e-15 -6.29107e-15 2.91191e-15 
4.69061e-15 -6.29107e-15 2.91191e-15 
4.69061e-15 -6.29107e-15 2.91191e-15 
-5.80419e-15 1.37088e-15 5.21101e-15 
-5.80419e-15 1.37088e-15 5.21101e-15 
-5.80419e-15 1.37088e-15 5.21101e-15 
-5.80419e-15 1.37088e-15 5.21101e-15 
3.42117e-15 3.48002e-15 6.33951e-15 
3.42117e-15 3.48002e-15 6.33951e-15 
3.42117e-15 3.48002e-15 6.33951e-15 
3.42117e-15 3.48002e-15 6.33951e-15 
-1.25968e-14 -6.28515e-15 1.03494e-14 
-1.25968e-14 -6.28515e-15 1.03494e-14 
-1.25968e-14 -6.28515e-15 1.03494e-14 
-1.25968e-14 -6.28515e-15 1.03494e-14 
4.68115e-15 1.13676e-14 5.39968e-15 
4.68115e-15 1.13676e-14 5.39968e-15 
4.68115e-15 1.13676e-14 5.39968e-15 
4.68115e-15 1.13676e-14 5.39968e-15 
1.20264e-14 6.82489e-15 -2.27498e-16 
1.20264e-14 6.82489e-15 -2.27498e-16 
1.20264e-14 6.82489e-15 -2.27498e-16 
1.20264e-14 6.82489e-15 -2.27498e-16 
-4.52624e-16 -5.32352e-15 1.32224e-16 
-4.52624e-16 -5.32352e-15 1.32224e-16 
-4.52624e-16 -5.32352e-15 1.32224e-16 
-4.52624e-16 -5.32352e-15 1.32224e-16 
7.36351e-15 1.44177e-14 1.60751e-15 
7.36351e-15 1.44177e-14 1.60751e-15 
7.36351e-15 1.44177e-14 1.60751e-15 
7.36351e-15 1.44177e-14 1.60751e-15 
2.33652e-15 8.43805e-16 -2.55389e-15 
2.33652e-15 8.43805e-16 -2.55389e-15 
2.33652e-15 8.43805e-16 -2.55389e-15 
2.33652e-15 8.43805e-16 -2.55389e-15 
9.44648e-15 -1.75083e-15 6.46594e-16 
9.44648e-15 -1.75083e-15 6.46594e-16 
9.44648e-15 -1.75083e-15 6.46594e-16 
9.44648e-15 -1.75083e-15 6.46594e-16 
-7.91623e-15 1.42868e-15 -9.38231e-15 
-7.91623e-15 1.42868e-15 -9.38231e-15 
-7.91623e-15 1.42868e-15 -9.38231e-15 
-7.91623e-15 1.42868e-15 -9.38231e-15 
7.3291e-15 8.84337e-16 -5.26193e-15 
7.3291e-15 8.84337e-16 -5.26193e-15 
7.3291e-15 8.84337e-16 -5.26193e-15 
7.3291e-15 8.84337e-16 -5.26193e-15 
2.70859e-15 -4.05122e-15 2.01896e-15 
2.70859e-15 -4.05122e-15 2.01896e-15 
2.70859e-15 -4.05122e-15 2.01896e-15 
2.70859e-15 -4.05122e-15 2.01896e-15 
5.40813e-15 -8.31403e-15 1.15465e-14 
5.40813e-15 -8.31403e-15 1.15465e-14 
5.40813e-15 -8.31403e-15 1.15465e-14 
5.40813e-15 -8.31403e-15 1.15465e-14 
1.0325e-14 7.10261e-15 -4.01438e-15 
1.0325e-14 7.10261e-15 -4.01438e-15 
1.0325e-14 7.10261e-15 -4.01438e-15 
1.0325e-14 7.10261e-15 -4.01438e-15 
-3.02864e-15 7.96265e-15 -1.10808e-14 
-3.02864e-15 7.96265e-15 -1.10808e-14 
-3.02864e-15 7.96265e-15 -1.10808e-14 
-3.02864e-15 7.96265e-15 -1.10808e-14 
4.44335e-15 1.79634e-15 2.91851e-15 
4.44335e-15 1.79634e-15 2.91851e-15 
4.44335e-15 1.79634e-15 2.91851e-15 
4.44335e-15 1.79634e-15 2.91851e-15 
-1.2557e-15 -3.86202e-15 8.19363e-15 
-1.2557e-15 -3.86202e-15 8.19363e-15 
-1.2557e-15 -3.86202e-15 8.19363e-15 
-1.2557e-15 -3.86202e-15 8.19363e-15 
5.05343e-15 2.77726e-15 -1.94292e-16 
5.05343e-15 2.77726e-15 -1.94292e-16 
5.05343e-15 2.77726e-15 -1.94292e-16 
5.05343e-15 2.77726e-15 -1.94292e-16 
-2.03937e-15 2.21928e-17 -4.16356e-15 
-2.03937e-15 2.21928e-17 -4.16356e-15 
-2.03937e-15 2.21928e-17 -4.16356e-15 
-2.03937e-15 2.21928e-17 -4.16356e-15 
8.58441e-16 -1.12248e-15 1.43648e-14 
8.58441e-16 -1.12248e-15 1.43648e-14 
8.58441e-16 -1.12248e-15 1.43648e-14 
8.58441e-16 -1.12248e-15 1.43648e-14 
5.83958e-15 -5.14967e-15 6.4515e-15 
5.83958e-15 -5.14967e-15 6.4515e-15 
5.83958e-15 -5.14967e-15 6.4515e-15 
5.83958e-15 -5.14967e-15 6.4515e-15 
5.7239e-15 -8.58086e-15 -2.27133e-15 
5.7239e-15 -8.58086e-15 -2.27133e-15 
5.7239e-15 -8.58086e-15 -2.27133e-15 
5.7239e-15 -8.58086e-15 -2.27133e-15 
5.68627e-15 4.63428e-15 -1.59794e-14 
5.68627e-15 4.63428e-15 -1.59794e-14 
5.68627e-15 4.63428e-15 -1.59794e-14 
5.68627e-15 4.63428e-15 -1.59794e-14 
-6.65663e-15 -3.67374e-15 -1.4075e-14 
-6.65663e-15 -3.67374e-15 -1.4075e-14 
-6.65663e-15 -3.67374e-15 -1.4075e-14 
-6.65663e-15 -3.67374e-15 -1.4075e-14 
-1.06234e-15 3.91507e-15 1.44027e-15 
-1.06234e-15 3.91507e-15 1.44027e-15 
-1.06234e-15 3.91507e-15 1.44027e-15 
-1.06234e-15 3.91507e-15 1.44027e-15 
6.04673e-16 1.41173e-14 -1.0822e-15 
6.04673e-16 1.41173e-14 -1.0822e-15 
6.04673e-16 1.41173e-14 -1.0822e-15 
6.04673e-16 1.41173e-14 -1.0822e-15 
2.47859e-15 5.24287e-15 1.16086e-15 
2.47859e-15 5.24287e-15 1.16086e-15 
2.47859e-15 5.24287e-15 1.16086e-15 
2.47859e-15 5.24287e-15 1.16086e-15 
-5.06662e-16 4.96938e-15 1.20458e-15 
-5.06662e-16 4.96938e-15 1.20458e-15 
-5.06662e-16 4.96938e-15 1.20458e-15 
-5.06662e-16 4.96938e-15 1.20458e-15 
-3.67055e-17 -3.02087e-17 5.55112e-15 
-3.67055e-17 -3.02087e-17 5.55112e-15 
-3.67055e-17 -3.02087e-17 5.55112e-15 
-3.67055e-17 -3.02087e-17 5.55112e-15 
1.12349e-15 -1.17929e-15 -5.6679e-15 
1.12349e-15 -1.17929e-15 -5.6679e-15 
1.12349e-15 -1.17929e-15 -5.6679e-15 
1.12349e-15 -1.17929e-15 -5.6679e-15 
9.16121e-15 -6.64895e-15 -2.26558e-15 
9.16121e-15 -6.64895e-15 -2.26558e-15 
9.16121e-15 -6.64895e-15 -2.26558e-15 
9.16121e-15 -6.64895e-15 -2.26558e-15 
-8.11076e-15 -1.59086e-15 8.81847e-15 
-8.11076e-15 -1.59086e-15 8.81847e-15 
-8.11076e-15 -1.59086e-15 8.81847e-15 
-8.11076e-15 -1.59086e-15 8.81847e-15 
-2.74174e-15 1.3807e-15 4.43301e-15 
-2.74174e-15 1.3807e-15 4.43301e-15 
-2.74174e-15 1.3807e-15 4.43301e-15 
-2.74174e-15 1.3807e-15 4.43301e-15 
1.79822e-14 1.91533e-15 -7.22877e-15 
1.79822e-14 1.91533e-15 -7.22877e-15 
1.79822e-14 1.91533e-15 -7.22877e-15 
1.79822e-14 1.91533e-15 -7.22877e-15 
1.27536e-14 4.76079e-15 -7.9318e-15 
1.27536e-14 4.76079e-15 -7.9318e-15 
1.27536e-14 4.76079e-15 -7.9318e-15 
1.27536e-14 4.76079e-15 -7.9318e-15 
2.72141e-15 -2.87839e-15 2.78557e-15 
2.72141e-15 -2.87839e-15 2.78557e-15 
2.72141e-15 -2.87839e-15 2.78557e-15 
2.72141e-15 -2.87839e-15 2.78557e-15 
-4.11226e-15 -1.0171e-14 -8.96088e-15 
-4.11226e-15 -1.0171e-14 -8.96088e-15 
-4.11226e-15 -1.0171e-14 -8.96088e-15 
-4.11226e-15 -1.0171e-14 -8.96088e-15 
-2.62533e-15 9.52883e-15 -1.08003e-14 
-2.62533e-15 9.52883e-15 -1.08003e-14 
-2.62533e-15 9.52883e-15 -1.08003e-14 
-2.62533e-15 9.52883e-15 -1.08003e-14 
6.60489e-15 8.64739e-17 -2.23381e-14 
6.60489e-15 8.64739e-17 -2.23381e-14 
6.60489e-15 8.64739e-17 -2.23381e-14 
6.60489e-15 8.64739e-17 -2.23381e-14 
6.50865e-15 4.56269e-15 1.36914e-14 
6.50865e-15 4.56269e-15 1.36914e-14 
6.50865e-15 4.56269e-15 1.36914e-14 
6.50865e-15 4.56269e-15 1.36914e-14 
-6.0257e-15 1.95389e-15 -8.53732e-15 
-6.0257e-15 1.95389e-15 -8.53732e-15 
-6.0257e-15 1.95389e-15 -8.53732e-15 
-6.0257e-15 1.95389e-15 -8.53732e-15 
-2.70205e-15 1.72516e-15 -2.06706e-15 
-2.70205e-15 1.72516e-15 -2.06706e-15 
-2.70205e-15 1.72516e-15 -2.06706e-15 
-2.70205e-15 1.72516e-15 -2.06706e-15 
-4.05823e-15 -6.69624e-15 7.54841e-15 
-4.05823e-15 -6.69624e-15 7.54841e-15 
-4.05823e-15 -6.69624e-15 7.54841e-15 
-4.05823e-15 -6.69624e-15 7.54841e-15 
8.05874e-15 -2.43543e-15 -8.69322e-15 
8.05874e-15 -2.43543e-15 -8.69322e-15 
8.05874e-15 -2.43543e-15 -8.69322e-15 
8.05874e-15 -2.43543e-15 -8.69322e-15 
-1.30642e-15 -5.67388e-16 1.46076e-15 
-1.30642e-15 -5.67388e-16 1.46076e-15 
-1.30642e-15 -5.67388e-16 1.46076e-15 
-1.30642e-15 -5.67388e-16 1.46076e-15 
7.19659e-15 9.13762e-15 -1.81983e-16 
7.19659e-15 9.13762e-15 -1.81983e-16 
7.19659e-15 9.13762e-15 -1.81983e-16 
7.19659e-15 9.13762e-15 -1.81983e-16 
4.28347e-15 5.73295e-17 -1.96334e-14 
4.28347e-15 5.73295e-17 -1.96334e-14 
4.28347e-15 5.73295e-17 -1.96334e-14 
4.28347e-15 5.73295e-17 -1.96334e-14 
8.433e-17 -2.26664e-16 7.72076e-16 
8.433e-17 -2.26664e-16 7.72076e-16 
8.433e-17 -2.26664e-16 7.72076e-16 
8.433e-17 -2.26664e-16 7.72076e-16 
4.70198e-15 -7.72172e-15 1.16159e-15 
4.70198e-15 -7.72172e-15 1.16159e-15 
4.70198e-15 -7.72172e-15 1.16159e-15 
4.70198e-15 -7.72172e-15 1.16159e-15 
-5.90964e-15 9.1163e-15 -3.25022e-15 
-5.90964e-15 9.1163e-15 -3.25022e-15 
-5.90964e-15 9.1163e-15 -3.25022e-15 
-5.90964e-15 9.1163e-15 -3.25022e-15 
3.10894e-16 1.33511e-16 1.44114e-17 
3.10894e-16 1.33511e-16 1.44114e-17 
3.10894e-16 1.33511e-16 1.44114e-17 
3.10894e-16 1.33511e-16 1.44114e-17 
5.88727e-15 -3.5761e-16 -1.84279e-15 
5.88727e-15 -3.5761e-16 -1.84279e-15 
5.88727e-15 -3.5761e-16 -1.84279e-15 
5.88727e-15 -3.5761e-16 -1.84279e-15 
9.18362e-16 -1.30585e-15 -4.69086e-16 
9.18362e-16 -1.30585e-15 -4.69086e-16 
9.18362e-16 -1.30585e-15 -4.69086e-16 
9.18362e-16 -1.30585e-15 -4.69086e-16 
-1.85846e-15 2.73952e-15 8.33012e-15 
-1.85846e-15 2.73952e-15 8.33012e-15 
-1.85846e-15 2.73952e-15 8.33012e-15 
-1.85846e-15 2.73952e-15 8.33012e-15 
7.51006e-15 1.58062e-15 1.06597e-14 
7.51006e-15 1.58062e-15 1.06597e-14 
7.51006e-15 1.58062e-15 1.06597e-14 
7.51006e-15 1.58062e-15 1.06597e-14 
-8.70102e-15 3.62017e-15 -6.39796e-15 
-8.70102e-15 3.62017e-15 -6.39796e-15 
-8.70102e-15 3.62017e-15 -6.39796e-15 
-8.70102e-15 3.62017e-15 -6.39796e-15 
3.88723e-15 -8.26629e-15 1.3861e-14 
3.88723e-15 -8.26629e-15 1.3861e-14 
3.88723e-15 -8.26629e-15 1.3861e-14 
3.88723e-15 -8.26629e-15 1.3861e-14 
-3.81627e-16 2.1967e-14 -2.19245e-14 
-3.81627e-16 2.1967e-14 -2.19245e-14 
-3.81627e-16 2.1967e-14 -2.19245e-14 
-3.81627e-16 2.1967e-14 -2.19245e-14 
1.22262e-14 2.35931e-15 3.36785e-16 
1.22262e-14 2.35931e-15 3.36785e-16 
1.22262e-14 2.35931e-15 3.36785e-16 
1.22262e-14 2.35931e-15 3.36785e-16 
-2.18069e-15 -8.74805e-17 9.13141e-17 
-2.18069e-15 -8.74805e-17 9.13141e-17 
-2.18069e-15 -8.74805e-17 9.13141e-17 
-2.18069e-15 -8.74805e-17 9.13141e-17 
9.07667e-15 3.44655e-15 -6.82677e-15 
9.07667e-15 3.44655e-15 -6.82677e-15 
9.07667e-15 3.44655e-15 -6.82677e-15 
9.07667e-15 3.44655e-15 -6.82677e-15 
9.46955e-15 1.0353e-15 -4.32498e-16 
9.46955e-15 1.0353e-15 -4.32498e-16 
9.46955e-15 1.0353e-15 -4.32498e-16 
9.46955e-15 1.0353e-15 -4.32498e-16 
-3.03387e-15 -1.11275e-14 2.4852e-15 
-3.03387e-15 -1.11275e-14 2.4852e-15 
-3.03387e-15 -1.11275e-14 2.4852e-15 
-3.03387e-15 -1.11275e-14 2.4852e-15 
2.50617e-15 -4.99256e-15 2.47129e-15 
2.50617e-15 -4.99256e-15 2.47129e-15 
2.50617e-15 -4.99256e-15 2.47129e-15 
2.50617e-15 -4.99256e-15 2.47129e-15 
3.51719e-15 3.17172e-16 3.45777e-15 
3.51719e-15 3.17172e-16 3.45777e-15 
3.51719e-15 3.17172e-16 3.45777e-15 
3.51719e-15 3.17172e-16 3.45777e-15 
-1.25089e-14 1.26124e-15 -1.18963e-15 
-1.25089e-14 1.26124e-15 -1.18963e-15 
-1.25089e-14 1.26124e-15 -1.18963e-15 
-1.25089e-14 1.26124e-15 -1.18963e-15 
5.01443e-16 -1.77231e-15 1.72072e-15 
5.01443e-16 -1.77231e-15 1.72072e-15 
5.01443e-16 -1.77231e-15 1.72072e-15 
5.01443e-16 -1.77231e-15 1.72072e-15 
7.32377e-15 3.88593e-15 7.30757e-16 
7.32377e-15 3.88593e-15 7.30757e-16 
7.32377e-15 3.88593e-15 7.30757e-16 
7.32377e-15 3.88593e-15 7.30757e-16 
-3.3763e-15 -2.99455e-15 3.85569e-15 
-3.3763e-15 -2.99455e-15 3.85569e-15 
-3.3763e-15 -2.99455e-15 3.85569e-15 
-3.3763e-15 -2.99455e-15 3.85569e-15 
9.04954e-15 1.29107e-14 -1.95034e-14 
9.04954e-15 1.29107e-14 -1.95034e-14 
9.04954e-15 1.29107e-14 -1.95034e-14 
9.04954e-15 1.29107e-14 -1.95034e-14 
-5.95e-15 6.98699e-15 4.98832e-15 
-5.95e-15 6.98699e-15 4.98832e-15 
-5.95e-15 6.98699e-15 4.98832e-15 
-5.95e-15 6.98699e-15 4.98832e-15 
9.6016e-15 -5.94156e-15 8.69175e-15 
9.6016e-15 -5.94156e-15 8.69175e-15 
9.6016e-15 -5.94156e-15 8.69175e-15 
9.6016e-15 -5.94156e-15 8.69175e-15 
-5.60935e-15 -6.54657e-15 2.39219e-14 
-5.60935e-15 -6.54657e-15 2.39219e-14 
-5.60935e-15 -6.54657e-15 2.39219e-14 
-5.60935e-15 -6.54657e-15 2.39219e-14 
-4.09836e-15 1.85554e-14 -8.37701e-15 
-4.09836e-15 1.85554e-14 -8.37701e-15 
-4.09836e-15 1.85554e-14 -8.37701e-15 
-4.09836e-15 1.85554e-14 -8.37701e-15 
1.16423e-14 6.73026e-15 -1.84514e-16 
1.16423e-14 6.73026e-15 -1.84514e-16 
1.16423e-14 6.73026e-15 -1.84514e-16 
1.16423e-14 6.73026e-15 -1.84514e-16 
3.06979e-15 -5.52828e-15 1.06598e-14 
3.06979e-15 -5.52828e-15 1.06598e-14 
3.06979e-15 -5.52828e-15 1.06598e-14 
3.06979e-15 -5.52828e-15 1.06598e-14 
1.38193e-15 3.91576e-15 -1.23126e-14 
1.38193e-15 3.91576e-15 -1.23126e-14 
1.38193e-15 3.91576e-15 -1.23126e-14 
1.38193e-15 3.91576e-15 -1.23126e-14 
-1.04616e-14 2.72655e-15 -3.79961e-15 
-1.04616e-14 2.72655e-15 -3.79961e-15 
-1.04616e-14 2.72655e-15 -3.79961e-15 
-1.04616e-14 2.72655e-15 -3.79961e-15 
8.45863e-15 1.40793e-14 -2.3396e-15 
8.45863e-15 1.40793e-14 -2.3396e-15 
8.45863e-15 1.40793e-14 -2.3396e-15 
8.45863e-15 1.40793e-14 -2.3396e-15 
-1.21199e-15 -1.20241e-15 1.47839e-15 
-1.21199e-15 -1.20241e-15 1.47839e-15 
-1.21199e-15 -1.20241e-15 1.47839e-15 
-1.21199e-15 -1.20241e-15 1.47839e-15 
-3.02385e-15 3.35207e-15 6.39828e-15 
-3.02385e-15 3.35207e-15 6.39828e-15 
-3.02385e-15 3.35207e-15 6.39828e-15 
-3.02385e-15 3.35207e-15 6.39828e-15 
-5.44366e-15 -6.56035e-15 4.46625e-15 
-5.44366e-15 -6.56035e-15 4.46625e-15 
-5.44366e-15 -6.56035e-15 4.46625e-15 
-5.44366e-15 -6.56035e-15 4.46625e-15 
1.43746e-15 3.49503e-15 -1.4317e-14 
1.43746e-15 3.49503e-15 -1.4317e-14 
1.43746e-15 3.49503e-15 -1.4317e-14 
1.43746e-15 3.49503e-15 -1.4317e-14 
-5.4431e-15 3.60913e-15 9.03903e-15 
-5.4431e-15 3.60913e-15 9.03903e-15 
-5.4431e-15 3.60913e-15 9.03903e-15 
-5.4431e-15 3.60913e-15 9.03903e-15 
-1.0561e-14 4.95366e-15 -5.06077e-15 
-1.0561e-14 4.95366e-15 -5.06077e-15 
-1.0561e-14 4.95366e-15 -5.06077e-15 
-1.0561e-14 4.95366e-15 -5.06077e-15 
-8.19014e-16 4.04788e-15 2.07683e-17 
-8.19014e-16 4.04788e-15 2.07683e-17 
-8.19014e-16 4.04788e-15 2.07683e-17 
-8.19014e-16 4.04788e-15 2.07683e-17 
-5.57375e-16 -2.51479e-15 -1.2736e-14 
-5.57375e-16 -2.51479e-15 -1.2736e-14 
-5.57375e-16 -2.51479e-15 -1.2736e-14 
-5.57375e-16 -2.51479e-15 -1.2736e-14 
6.2883e-15 1.08997e-14 -1.08939e-14 
6.2883e-15 1.08997e-14 -1.08939e-14 
6.2883e-15 1.08997e-14 -1.08939e-14 
6.2883e-15 1.08997e-14 -1.08939e-14 
1.78199e-15 -3.3311e-15 3.4171e-15 
1.78199e-15 -3.3311e-15 3.4171e-15 
1.78199e-15 -3.3311e-15 3.4171e-15 
1.78199e-15 -3.3311e-15 3.4171e-15 
-1.0091e-14 7.46045e-16 -6.71397e-15 
-1.0091e-14 7.46045e-16 -6.71397e-15 
-1.0091e-14 7.46045e-16 -6.71397e-15 
-1.0091e-14 7.46045e-16 -6.71397e-15 
1.02604e-16 3.59648e-15 -1.08054e-14 
1.02604e-16 3.59648e-15 -1.08054e-14 
1.02604e-16 3.59648e-15 -1.08054e-14 
1.02604e-16 3.59648e-15 -1.08054e-14 
3.00763e-15 4.94216e-15 -3.72321e-15 
3.00763e-15 4.94216e-15 -3.72321e-15 
3.00763e-15 4.94216e-15 -3.72321e-15 
3.00763e-15 4.94216e-15 -3.72321e-15 
-6.80893e-15 -2.78232e-15 6.91233e-15 
-6.80893e-15 -2.78232e-15 6.91233e-15 
-6.80893e-15 -2.78232e-15 6.91233e-15 
-6.80893e-15 -2.78232e-15 6.91233e-15 
-6.10272e-16 -5.03796e-15 2.21727e-15 
-6.10272e-16 -5.03796e-15 2.21727e-15 
-6.10272e-16 -5.03796e-15 2.21727e-15 
-6.10272e-16 -5.03796e-15 2.21727e-15 
1.10702e-14 -5.42002e-15 -2.10035e-15 
1.10702e-14 -5.42002e-15 -2.10035e-15 
1.10702e-14 -5.42002e-15 -2.10035e-15 
1.10702e-14 -5.42002e-15 -2.10035e-15 
-1.12769e-14 8.96201e-16 -4.49441e-15 
-1.12769e-14 8.96201e-16 -4.49441e-15 
-1.12769e-14 8.96201e-16 -4.49441e-15 
-1.12769e-14 8.96201e-16 -4.49441e-15 
5.61235e-15 2.99538e-15 -7.73485e-15 
5.61235e-15 2.99538e-15 -7.73485e-15 
5.61235e-15 2.99538e-15 -7.73485e-15 
5.61235e-15 2.99538e-15 -7.73485e-15 
-9.93859e-15 4.00695e-16 4.2513e-15 
-9.93859e-15 4.00695e-16 4.2513e-15 
-9.93859e-15 4.00695e-16 4.2513e-15 
-9.93859e-15 4.00695e-16 4.2513e-15 
-1.30305e-14 4.14093e-15 2.01818e-14 
-1.30305e-14 4.14093e-15 2.01818e-14 
-1.30305e-14 4.14093e-15 2.01818e-14 
-1.30305e-14 4.14093e-15 2.01818e-14 
-2.76712e-15 6.87232e-15 -5.93481e-15 
-2.76712e-15 6.87232e-15 -5.93481e-15 
-2.76712e-15 6.87232e-15 -5.93481e-15 
-2.76712e-15 6.87232e-15 -5.93481e-15 
7.51066e-15 -5.49728e-15 -1.97024e-14 
7.51066e-15 -5.49728e-15 -1.97024e-14 
7.51066e-15 -5.49728e-15 -1.97024e-14 
7.51066e-15 -5.49728e-15 -1.97024e-14 
-1.53406e-15 9.53611e-16 7.54851e-15 
-1.53406e-15 9.53611e-16 7.54851e-15 
-1.53406e-15 9.53611e-16 7.54851e-15 
-1.53406e-15 9.53611e-16 7.54851e-15 
-3.82971e-15 7.62495e-15 1.13057e-17 
-3.82971e-15 7.62495e-15 1.13057e-17 
-3.82971e-15 7.62495e-15 1.13057e-17 
-3.82971e-15 7.62495e-15 1.13057e-17 
-1.05381e-14 5.18098e-15 -5.64379e-15 
-1.05381e-14 5.18098e-15 -5.64379e-15 
-1.05381e-14 5.18098e-15 -5.64379e-15 
-1.05381e-14 5.18098e-15 -5.64379e-15 
6.42314e-15 -3.40567e-16 6.61643e-15 
6.42314e-15 -3.40567e-16 6.61643e-15 
6.42314e-15 -3.40567e-16 6.61643e-15 
6.42314e-15 -3.40567e-16 6.61643e-15 
1.50206e-14 -1.51945e-14 -1.62803e-14 
1.50206e-14 -1.51945e-14 -1.62803e-14 
1.50206e-14 -1.51945e-14 -1.62803e-14 
1.50206e-14 -1.51945e-14 -1.62803e-14 
6.66634e-15 7.451e-15 1.78353e-15 
6.66634e-15 7.451e-15 1.78353e-15 
6.66634e-15 7.451e-15 1.78353e-15 
6.66634e-15 7.451e-15 1.78353e-15 
-4.5597e-15 -2.80951e-15 -7.37481e-15 
-4.5597e-15 -2.80951e-15 -7.37481e-15 
-4.5597e-15 -2.80951e-15 -7.37481e-15 
-4.5597e-15 -2.80951e-15 -7.37481e-15 
-3.01228e-15 2.40857e-15 -8.4325e-16 
-3.01228e-15 2.40857e-15 -8.4325e-16 
-3.01228e-15 2.40857e-15 -8.4325e-16 
-3.01228e-15 2.40857e-15 -8.4325e-16 
-3.72237e-15 -8.80092e-15 -2.68726e-16 
-3.72237e-15 -8.80092e-15 -2.68726e-16 
-3.72237e-15 -8.80092e-15 -2.68726e-16 
-3.72237e-15 -8.80092e-15 -2.68726e-16 
-7.86897e-16 1.10526e-15 4.36669e-15 
-7.86897e-16 1.10526e-15 4.36669e-15 
-7.86897e-16 1.10526e-15 4.36669e-15 
-7.86897e-16 1.10526e-15 4.36669e-15 
1.61831e-15 -7.8945e-15 7.74792e-16 
1.61831e-15 -7.8945e-15 7.74792e-16 
1.61831e-15 -7.8945e-15 7.74792e-16 
1.61831e-15 -7.8945e-15 7.74792e-16 
-3.56446e-15 6.79603e-15 4.1013e-15 
-3.56446e-15 6.79603e-15 4.1013e-15 
-3.56446e-15 6.79603e-15 4.1013e-15 
-3.56446e-15 6.79603e-15 4.1013e-15 
-7.89541e-15 8.26958e-15 -4.40524e-15 
-7.89541e-15 8.26958e-15 -4.40524e-15 
-7.89541e-15 8.26958e-15 -4.40524e-15 
-7.89541e-15 8.26958e-15 -4.40524e-15 
-4.83543e-15 4.22537e-15 8.23949e-15 
-4.83543e-15 4.22537e-15 8.23949e-15 
-4.83543e-15 4.22537e-15 8.23949e-15 
-4.83543e-15 4.22537e-15 8.23949e-15 
8.30238e-16 -1.8427e-15 6.88175e-15 
8.30238e-16 -1.8427e-15 6.88175e-15 
8.30238e-16 -1.8427e-15 6.88175e-15 
8.30238e-16 -1.8427e-15 6.88175e-15 
-3.48791e-15 7.70135e-15 -4.10898e-15 
-3.48791e-15 7.70135e-15 -4.10898e-15 
-3.48791e-15 7.70135e-15 -4.10898e-15 
-3.48791e-15 7.70135e-15 -4.10898e-15 
-3.14573e-15 4.95967e-15 5.92841e-15 
-3.14573e-15 4.95967e-15 5.92841e-15 
-3.14573e-15 4.95967e-15 5.92841e-15 
-3.14573e-15 4.95967e-15 5.92841e-15 
-4.46506e-15 6.30713e-15 -2.29757e-14 
-4.46506e-15 6.30713e-15 -2.29757e-14 
-4.46506e-15 6.30713e-15 -2.29757e-14 
-4.46506e-15 6.30713e-15 -2.29757e-14 
-1.73726e-14 -3.53172e-15 -1.27096e-14 
-1.73726e-14 -3.53172e-15 -1.27096e-14 
-1.73726e-14 -3.53172e-15 -1.27096e-14 
-1.73726e-14 -3.53172e-15 -1.27096e-14 
-6.7552e-15 -4.26238e-15 -8.66121e-16 
-6.7552e-15 -4.26238e-15 -8.66121e-16 
-6.7552e-15 -4.26238e-15 -8.66121e-16 
-6.7552e-15 -4.26238e-15 -8.66121e-16 
-1.78649e-16 7.43228e-15 2.73601e-15 
-1.78649e-16 7.43228e-15 2.73601e-15 
-1.78649e-16 7.43228e-15 2.73601e-15 
-1.78649e-16 7.43228e-15 2.73601e-15 
3.42254e-15 -4.56368e-15 -6.47204e-15 
3.42254e-15 -4.56368e-15 -6.47204e-15 
3.42254e-15 -4.56368e-15 -6.47204e-15 
3.42254e-15 -4.56368e-15 -6.47204e-15 
-7.01264e-15 -2.28734e-15 -1.20184e-14 
-7.01264e-15 -2.28734e-15 -1.20184e-14 
-7.01264e-15 -2.28734e-15 -1.20184e-14 
-7.01264e-15 -2.28734e-15 -1.20184e-14 
1.90355e-15 4.5816e-15 -2.7505e-15 
1.90355e-15 4.5816e-15 -2.7505e-15 
1.90355e-15 4.5816e-15 -2.7505e-15 
1.90355e-15 4.5816e-15 -2.7505e-15 
-2.09567e-15 -3.24158e-16 -7.6751e-17 
-2.09567e-15 -3.24158e-16 -7.6751e-17 
-2.09567e-15 -3.24158e-16 -7.6751e-17 
-2.09567e-15 -3.24158e-16 -7.6751e-17 
-1.45856e-14 2.18592e-15 1.00426e-14 
-1.45856e-14 2.18592e-15 1.00426e-14 
-1.45856e-14 2.18592e-15 1.00426e-14 
-1.45856e-14 2.18592e-15 1.00426e-14 
1.28483e-14 1.27796e-14 -1.06455e-14 
1.28483e-14 1.27796e-14 -1.06455e-14 
1.28483e-14 1.27796e-14 -1.06455e-14 
1.28483e-14 1.27796e-14 -1.06455e-14 
-4.22888e-15 -5.1779e-15 -3.12069e-15 
-4.22888e-15 -5.1779e-15 -3.12069e-15 
-4.22888e-15 -5.1779e-15 -3.12069e-15 
-4.22888e-15 -5.1779e-15 -3.12069e-15 
-2.05776e-15 -1.3651e-15 8.43226e-15 
-2.05776e-15 -1.3651e-15 8.43226e-15 
-2.05776e-15 -1.3651e-15 8.43226e-15 
-2.05776e-15 -1.3651e-15 8.43226e-15 
7.98453e-15 -2.75716e-15 8.56116e-15 
7.98453e-15 -2.75716e-15 8.56116e-15 
7.98453e-15 -2.75716e-15 8.56116e-15 
7.98453e-15 -2.75716e-15 8.56116e-15 
-2.18207e-15 6.33637e-16 -7.154e-15 
-2.18207e-15 6.33637e-16 -7.154e-15 
-2.18207e-15 6.33637e-16 -7.154e-15 
-2.18207e-15 6.33637e-16 -7.154e-15 
1.34828e-15 5.18426e-15 6.91393e-15 
1.34828e-15 5.18426e-15 6.91393e-15 
1.34828e-15 5.18426e-15 6.91393e-15 
1.34828e-15 5.18426e-15 6.91393e-15 
-1.26521e-14 5.07925e-15 -5.94483e-15 
-1.26521e-14 5.07925e-15 -5.94483e-15 
-1.26521e-14 5.07925e-15 -5.94483e-15 
-1.26521e-14 5.07925e-15 -5.94483e-15 
-8.34875e-16 1.61259e-15 6.69056e-15 
-8.34875e-16 1.61259e-15 6.69056e-15 
-8.34875e-16 1.61259e-15 6.69056e-15 
-8.34875e-16 1.61259e-15 6.69056e-15 
4.55053e-15 1.23146e-15 1.76079e-15 
4.55053e-15 1.23146e-15 1.76079e-15 
4.55053e-15 1.23146e-15 1.76079e-15 
4.55053e-15 1.23146e-15 1.76079e-15 
-5.38598e-16 -7.1943e-16 6.10588e-15 
-5.38598e-16 -7.1943e-16 6.10588e-15 
-5.38598e-16 -7.1943e-16 6.10588e-15 
-5.38598e-16 -7.1943e-16 6.10588e-15 
-1.97304e-16 4.31929e-15 8.28852e-15 
-1.97304e-16 4.31929e-15 8.28852e-15 
-1.97304e-16 4.31929e-15 8.28852e-15 
-1.97304e-16 4.31929e-15 8.28852e-15 
-8.27283e-15 -7.49453e-15 1.07792e-14 
-8.27283e-15 -7.49453e-15 1.07792e-14 
-8.27283e-15 -7.49453e-15 1.07792e-14 
-8.27283e-15 -7.49453e-15 1.07792e-14 
-8.28266e-15 7.09844e-15 -7.96621e-15 
-8.28266e-15 7.09844e-15 -7.96621e-15 
-8.28266e-15 7.09844e-15 -7.96621e-15 
-8.28266e-15 7.09844e-15 -7.96621e-15 
2.65251e-15 -2.23499e-15 -5.98746e-15 
2.65251e-15 -2.23499e-15 -5.98746e-15 
2.65251e-15 -2.23499e-15 -5.98746e-15 
2.65251e-15 -2.23499e-15 -5.98746e-15 
-6.19222e-15 -6.23999e-15 -1.65168e-15 
-6.19222e-15 -6.23999e-15 -1.65168e-15 
-6.19222e-15 -6.23999e-15 -1.65168e-15 
-6.19222e-15 -6.23999e-15 -1.65168e-15 
-1.90115e-15 -3.13936e-15 -7.30311e-15 
-1.90115e-15 -3.13936e-15 -7.30311e-15 
-1.90115e-15 -3.13936e-15 -7.30311e-15 
-1.90115e-15 -3.13936e-15 -7.30311e-15 
-3.37879e-16 4.29179e-15 1.5378e-15 
-3.37879e-16 4.29179e-15 1.5378e-15 
-3.37879e-16 4.29179e-15 1.5378e-15 
-3.37879e-16 4.29179e-15 1.5378e-15 
-1.57587e-15 -6.76677e-15 1.46608e-14 
-1.57587e-15 -6.76677e-15 1.46608e-14 
-1.57587e-15 -6.76677e-15 1.46608e-14 
-1.57587e-15 -6.76677e-15 1.46608e-14 
6.70252e-15 2.88195e-17 7.21672e-15 
6.70252e-15 2.88195e-17 7.21672e-15 
6.70252e-15 2.88195e-17 7.21672e-15 
6.70252e-15 2.88195e-17 7.21672e-15 
1.68601e-15 -2.50151e-15 7.16998e-15 
1.68601e-15 -2.50151e-15 7.16998e-15 
1.68601e-15 -2.50151e-15 7.16998e-15 
1.68601e-15 -2.50151e-15 7.16998e-15 
1.02302e-15 -6.74775e-15 -8.16995e-15 
1.02302e-15 -6.74775e-15 -8.16995e-15 
1.02302e-15 -6.74775e-15 -8.16995e-15 
1.02302e-15 -6.74775e-15 -8.16995e-15 
-6.62884e-15 1.13719e-14 3.98314e-15 
-6.62884e-15 1.13719e-14 3.98314e-15 
-6.62884e-15 1.13719e-14 3.98314e-15 
-6.62884e-15 1.13719e-14 3.98314e-15 
4.18934e-15 6.01095e-15 3.24978e-15 
4.18934e-15 6.01095e-15 3.24978e-15 
4.18934e-15 6.01095e-15 3.24978e-15 
4.18934e-15 6.01095e-15 3.24978e-15 
-9.89553e-16 6.73601e-15 1.14791e-14 
-9.89553e-16 6.73601e-15 1.14791e-14 
-9.89553e-16 6.73601e-15 1.14791e-14 
-9.89553e-16 6.73601e-15 1.14791e-14 
1.24854e-14 3.32298e-15 4.14401e-15 
1.24854e-14 3.32298e-15 4.14401e-15 
1.24854e-14 3.32298e-15 4.14401e-15 
1.24854e-14 3.32298e-15 4.14401e-15 
4.76365e-15 -3.72034e-15 5.12799e-15 
4.76365e-15 -3.72034e-15 5.12799e-15 
4.76365e-15 -3.72034e-15 5.12799e-15 
4.76365e-15 -3.72034e-15 5.12799e-15 
3.02111e-15 -3.24479e-15 -1.19729e-14 
3.02111e-15 -3.24479e-15 -1.19729e-14 
3.02111e-15 -3.24479e-15 -1.19729e-14 
3.02111e-15 -3.24479e-15 -1.19729e-14 
1.78547e-14 -1.32121e-14 -6.11787e-15 
1.78547e-14 -1.32121e-14 -6.11787e-15 
1.78547e-14 -1.32121e-14 -6.11787e-15 
1.78547e-14 -1.32121e-14 -6.11787e-15 
3.67111e-15 -1.63614e-15 -7.84834e-15 
3.67111e-15 -1.63614e-15 -7.84834e-15 
3.67111e-15 -1.63614e-15 -7.84834e-15 
3.67111e-15 -1.63614e-15 -7.84834e-15 
-5.41421e-15 6.45509e-16 4.55941e-16 
-5.41421e-15 6.45509e-16 4.55941e-16 
-5.41421e-15 6.45509e-16 4.55941e-16 
-5.41421e-15 6.45509e-16 4.55941e-16 
-7.99474e-16 -4.84488e-15 -8.26746e-17 
-7.99474e-16 -4.84488e-15 -8.26746e-17 
-7.99474e-16 -4.84488e-15 -8.26746e-17 
-7.99474e-16 -4.84488e-15 -8.26746e-17 
3.84195e-15 2.19576e-15 -1.42581e-14 
3.84195e-15 2.19576e-15 -1.42581e-14 
3.84195e-15 2.19576e-15 -1.42581e-14 
3.84195e-15 2.19576e-15 -1.42581e-14 
4.84718e-15 -6.95467e-16 1.48175e-14 
4.84718e-15 -6.95467e-16 1.48175e-14 
4.84718e-15 -6.95467e-16 1.48175e-14 
4.84718e-15 -6.95467e-16 1.48175e-14 
2.55267e-15 6.60625e-15 3.27447e-17 
2.55267e-15 6.60625e-15 3.27447e-17 
2.55267e-15 6.60625e-15 3.27447e-17 
2.55267e-15 6.60625e-15 3.27447e-17 
4.06307e-15 -6.19848e-15 -3.79737e-15 
4.06307e-15 -6.19848e-15 -3.79737e-15 
4.06307e-15 -6.19848e-15 -3.79737e-15 
4.06307e-15 -6.19848e-15 -3.79737e-15 
-2.08318e-15 9.70834e-15 5.10421e-16 
-2.08318e-15 9.70834e-15 5.10421e-16 
-2.08318e-15 9.70834e-15 5.10421e-16 
-2.08318e-15 9.70834e-15 5.10421e-16 
-7.66598e-15 9.32201e-15 4.74279e-15 
-7.66598e-15 9.32201e-15 4.74279e-15 
-7.66598e-15 9.32201e-15 4.74279e-15 
-7.66598e-15 9.32201e-15 4.74279e-15 
4.82746e-15 -3.87798e-15 4.64778e-15 
4.82746e-15 -3.87798e-15 4.64778e-15 
4.82746e-15 -3.87798e-15 4.64778e-15 
4.82746e-15 -3.87798e-15 4.64778e-15 
-2.40382e-15 1.1241e-14 -1.22623e-14 
-2.40382e-15 1.1241e-14 -1.22623e-14 
-2.40382e-15 1.1241e-14 -1.22623e-14 
-2.40382e-15 1.1241e-14 -1.22623e-14 
-8.75187e-15 -1.20859e-14 8.4758e-15 
-8.75187e-15 -1.20859e-14 8.4758e-15 
-8.75187e-15 -1.20859e-14 8.4758e-15 
-8.75187e-15 -1.20859e-14 8.4758e-15 
-1.14482e-14 -8.98799e-17 -8.14938e-15 
-1.14482e-14 -8.98799e-17 -8.14938e-15 
-1.14482e-14 -8.98799e-17 -8.14938e-15 
-1.14482e-14 -8.98799e-17 -8.14938e-15 
3.42178e-15 1.15569e-15 -7.24293e-15 
3.42178e-15 1.15569e-15 -7.24293e-15 
3.42178e-15 1.15569e-15 -7.24293e-15 
3.42178e-15 1.15569e-15 -7.24293e-15 
1.07302e-15 3.01492e-15 3.99908e-15 
1.07302e-15 3.01492e-15 3.99908e-15 
1.07302e-15 3.01492e-15 3.99908e-15 
1.07302e-15 3.01492e-15 3.99908e-15 
-4.89436e-15 8.69127e-15 8.80448e-16 
-4.89436e-15 8.69127e-15 8.80448e-16 
-4.89436e-15 8.69127e-15 8.80448e-16 
-4.89436e-15 8.69127e-15 8.80448e-16 
-3.87365e-15 -1.13591e-14 4.13454e-15 
-3.87365e-15 -1.13591e-14 4.13454e-15 
-3.87365e-15 -1.13591e-14 4.13454e-15 
-3.87365e-15 -1.13591e-14 4.13454e-15 
-1.24486e-14 -1.17245e-14 -1.52361e-15 
-1.24486e-14 -1.17245e-14 -1.52361e-15 
-1.24486e-14 -1.17245e-14 -1.52361e-15 
-1.24486e-14 -1.17245e-14 -1.52361e-15 
-1.92645e-15 -5.42019e-15 -5.71151e-16 
-1.92645e-15 -5.42019e-15 -5.71151e-16 
-1.92645e-15 -5.42019e-15 -5.71151e-16 
-1.92645e-15 -5.42019e-15 -5.71151e-16 
-8.19134e-15 -1.63628e-14 -8.34684e-15 
-8.19134e-15 -1.63628e-14 -8.34684e-15 
-8.19134e-15 -1.63628e-14 -8.34684e-15 
-8.19134e-15 -1.63628e-14 -8.34684e-15 
-5.60929e-15 3.01794e-15 -1.37351e-14 
-5.60929e-15 3.01794e-15 -1.37351e-14 
-5.60929e-15 3.01794e-15 -1.37351e-14 
-5.60929e-15 3.01794e-15 -1.37351e-14 
3.67335e-15 1.166e-14 -1.4371e-14 
3.67335e-15 1.166e-14 -1.4371e-14 
3.67335e-15 1.166e-14 -1.4371e-14 
3.67335e-15 1.166e-14 -1.4371e-14 
-4.9484e-15 -5.20141e-16 2.87408e-16 
-4.9484e-15 -5.20141e-16 2.87408e-16 
-4.9484e-15 -5.20141e-16 2.87408e-16 
-4.9484e-15 -5.20141e-16 2.87408e-16 
-9.67074e-17 4.43973e-16 1.342e-15 
-9.67074e-17 4.43973e-16 1.342e-15 
-9.67074e-17 4.43973e-16 1.342e-15 
-9.67074e-17 4.43973e-16 1.342e-15 
4.35755e-15 6.84673e-15 8.98201e-15 
4.35755e-15 6.84673e-15 8.98201e-15 
4.35755e-15 6.84673e-15 8.98201e-15 
4.35755e-15 6.84673e-15 8.98201e-15 
-6.35032e-15 -1.01845e-14 9.0271e-15 
-6.35032e-15 -1.01845e-14 9.0271e-15 
-6.35032e-15 -1.01845e-14 9.0271e-15 
-6.35032e-15 -1.01845e-14 9.0271e-15 
5.04068e-15 5.5724e-15 2.62084e-15 
5.04068e-15 5.5724e-15 2.62084e-15 
5.04068e-15 5.5724e-15 2.62084e-15 
5.04068e-15 5.5724e-15 2.62084e-15 
-6.8211e-15 -4.48172e-15 -8.05508e-16 
-6.8211e-15 -4.48172e-15 -8.05508e-16 
-6.8211e-15 -4.48172e-15 -8.05508e-16 
-6.8211e-15 -4.48172e-15 -8.05508e-16 
-3.7913e-15 -1.04615e-14 2.25446e-16 
-3.7913e-15 -1.04615e-14 2.25446e-16 
-3.7913e-15 -1.04615e-14 2.25446e-16 
-3.7913e-15 -1.04615e-14 2.25446e-16 
-9.94152e-15 -7.26297e-16 4.62868e-15 
-9.94152e-15 -7.26297e-16 4.62868e-15 
-9.94152e-15 -7.26297e-16 4.62868e-15 
-9.94152e-15 -7.26297e-16 4.62868e-15 
-2.46674e-14 -2.0348e-15 8.20024e-15 
-2.46674e-14 -2.0348e-15 8.20024e-15 
-2.46674e-14 -2.0348e-15 8.20024e-15 
-2.46674e-14 -2.0348e-15 8.20024e-15 
2.64757e-15 8.62374e-15 4.66925e-15 
2.64757e-15 8.62374e-15 4.66925e-15 
2.64757e-15 8.62374e-15 4.66925e-15 
2.64757e-15 8.62374e-15 4.66925e-15 
-2.63837e-15 1.05704e-14 -4.01465e-15 
-2.63837e-15 1.05704e-14 -4.01465e-15 
-2.63837e-15 1.05704e-14 -4.01465e-15 
-2.63837e-15 1.05704e-14 -4.01465e-15 
6.14783e-15 -1.54273e-14 1.23118e-14 
6.14783e-15 -1.54273e-14 1.23118e-14 
6.14783e-15 -1.54273e-14 1.23118e-14 
6.14783e-15 -1.54273e-14 1.23118e-14 
3.33006e-15 3.8829e-15 -1.30077e-14 
3.33006e-15 3.8829e-15 -1.30077e-14 
3.33006e-15 3.8829e-15 -1.30077e-14 
3.33006e-15 3.8829e-15 -1.30077e-14 
-5.91548e-15 2.68155e-15 -5.05907e-15 
-5.91548e-15 2.68155e-15 -5.05907e-15 
-5.91548e-15 2.68155e-15 -5.05907e-15 
-5.91548e-15 2.68155e-15 -5.05907e-15 
2.15968e-16 1.54216e-17 2.22045e-15 
2.15968e-16 1.54216e-17 2.22045e-15 
2.15968e-16 1.54216e-17 2.22045e-15 
2.15968e-16 1.54216e-17 2.22045e-15 
-6.51265e-15 -7.65901e-15 4.31266e-15 
-6.51265e-15 -7.65901e-15 4.31266e-15 
-6.51265e-15 -7.65901e-15 4.31266e-15 
-6.51265e-15 -7.65901e-15 4.31266e-15 
1.41473e-16 5.34233e-15 6.17427e-15 
1.41473e-16 5.34233e-15 6.17427e-15 
1.41473e-16 5.34233e-15 6.17427e-15 
1.41473e-16 5.34233e-15 6.17427e-15 
1.80288e-15 -8.39471e-15 7.372e-15 
1.80288e-15 -8.39471e-15 7.372e-15 
1.80288e-15 -8.39471e-15 7.372e-15 
1.80288e-15 -8.39471e-15 7.372e-15 
5.34927e-15 8.99399e-15 -2.52116e-15 
5.34927e-15 8.99399e-15 -2.52116e-15 
5.34927e-15 8.99399e-15 -2.52116e-15 
5.34927e-15 8.99399e-15 -2.52116e-15 
-1.02869e-15 2.20389e-15 1.66408e-15 
-1.02869e-15 2.20389e-15 1.66408e-15 
-1.02869e-15 2.20389e-15 1.66408e-15 
-1.02869e-15 2.20389e-15 1.66408e-15 
-3.33596e-15 8.1584e-15 9.14903e-15 
-3.33596e-15 8.1584e-15 9.14903e-15 
-3.33596e-15 8.1584e-15 9.14903e-15 
-3.33596e-15 8.1584e-15 9.14903e-15 
1.33595e-14 -2.24297e-14 1.29855e-14 
1.33595e-14 -2.24297e-14 1.29855e-14 
1.33595e-14 -2.24297e-14 1.29855e-14 
1.33595e-14 -2.24297e-14 1.29855e-14 
2.90256e-15 -1.6244e-15 8.01891e-15 
2.90256e-15 -1.6244e-15 8.01891e-15 
2.90256e-15 -1.6244e-15 8.01891e-15 
2.90256e-15 -1.6244e-15 8.01891e-15 
-8.35039e-15 9.8147e-15 5.60264e-16 
-8.35039e-15 9.8147e-15 5.60264e-16 
-8.35039e-15 9.8147e-15 5.60264e-16 
-8.35039e-15 9.8147e-15 5.60264e-16 
-2.69762e-15 3.34421e-15 9.6488e-16 
-2.69762e-15 3.34421e-15 9.6488e-16 
-2.69762e-15 3.34421e-15 9.6488e-16 
-2.69762e-15 3.34421e-15 9.6488e-16 
-4.50078e-15 -5.23348e-15 -8.68181e-15 
-4.50078e-15 -5.23348e-15 -8.68181e-15 
-4.50078e-15 -5.23348e-15 -8.68181e-15 
-4.50078e-15 -5.23348e-15 -8.68181e-15 
2.04534e-14 1.1317e-14 -1.13775e-14 
2.04534e-14 1.1317e-14 -1.13775e-14 
2.04534e-14 1.1317e-14 -1.13775e-14 
2.04534e-14 1.1317e-14 -1.13775e-14 
3.4626e-16 3.44037e-15 1.09575e-14 
3.4626e-16 3.44037e-15 1.09575e-14 
3.4626e-16 3.44037e-15 1.09575e-14 
3.4626e-16 3.44037e-15 1.09575e-14 
9.17796e-15 3.08517e-15 -1.51369e-14 
9.17796e-15 3.08517e-15 -1.51369e-14 
9.17796e-15 3.08517e-15 -1.51369e-14 
9.17796e-15 3.08517e-15 -1.51369e-14 
3.86307e-14 2.81311e-14 3.02357e-15 
3.86307e-14 2.81311e-14 3.02357e-15 
3.86307e-14 2.81311e-14 3.02357e-15 
3.86307e-14 2.81311e-14 3.02357e-15 
-1.86121e-15 2.56983e-15 -5.26298e-15 
-1.86121e-15 2.56983e-15 -5.26298e-15 
-1.86121e-15 2.56983e-15 -5.26298e-15 
-1.86121e-15 2.56983e-15 -5.26298e-15 
9.99923e-15 -1.62561e-14 1.04723e-14 
9.99923e-15 -1.62561e-14 1.04723e-14 
9.99923e-15 -1.62561e-14 1.04723e-14 
9.99923e-15 -1.62561e-14 1.04723e-14 
-1.90979e-14 -5.42347e-15 -1.22329e-14 
-1.90979e-14 -5.42347e-15 -1.22329e-14 
-1.90979e-14 -5.42347e-15 -1.22329e-14 
-1.90979e-14 -5.42347e-15 -1.22329e-14 
-3.94785e-16 1.21143e-15 4.89284e-15 
-3.94785e-16 1.21143e-15 4.89284e-15 
-3.94785e-16 1.21143e-15 4.89284e-15 
-3.94785e-16 1.21143e-15 4.89284e-15 
5.32878e-15 1.04618e-14 5.1379e-15 
5.32878e-15 1.04618e-14 5.1379e-15 
5.32878e-15 1.04618e-14 5.1379e-15 
5.32878e-15 1.04618e-14 5.1379e-15 
-3.55436e-15 -1.98359e-15 -1.46992e-14 
-3.55436e-15 -1.98359e-15 -1.46992e-14 
-3.55436e-15 -1.98359e-15 -1.46992e-14 
-3.55436e-15 -1.98359e-15 -1.46992e-14 
4.37727e-16 -2.18703e-15 7.57684e-16 
4.37727e-16 -2.18703e-15 7.57684e-16 
4.37727e-16 -2.18703e-15 7.57684e-16 
4.37727e-16 -2.18703e-15 7.57684e-16 
-5.48313e-15 2.75012e-15 -8.77457e-15 
-5.48313e-15 2.75012e-15 -8.77457e-15 
-5.48313e-15 2.75012e-15 -8.77457e-15 
-5.48313e-15 2.75012e-15 -8.77457e-15 
-3.52017e-16 -9.11837e-15 4.02169e-15 
-3.52017e-16 -9.11837e-15 4.02169e-15 
-3.52017e-16 -9.11837e-15 4.02169e-15 
-3.52017e-16 -9.11837e-15 4.02169e-15 
-9.88162e-16 2.6509e-15 1.14578e-15 
-9.88162e-16 2.6509e-15 1.14578e-15 
-9.88162e-16 2.6509e-15 1.14578e-15 
-9.88162e-16 2.6509e-15 1.14578e-15 
-1.11892e-14 1.71074e-14 -9.5039e-15 
-1.11892e-14 1.71074e-14 -9.5039e-15 
-1.11892e-14 1.71074e-14 -9.5039e-15 
-1.11892e-14 1.71074e-14 -9.5039e-15 
1.66604e-15 -3.63126e-15 3.41788e-15 
1.66604e-15 -3.63126e-15 3.41788e-15 
1.66604e-15 -3.63126e-15 3.41788e-15 
1.66604e-15 -3.63126e-15 3.41788e-15 
1.83421e-16 -3.81259e-15 3.55239e-15 
1.83421e-16 -3.81259e-15 3.55239e-15 
1.83421e-16 -3.81259e-15 3.55239e-15 
1.83421e-16 -3.81259e-15 3.55239e-15 
3.61521e-15 5.57478e-15 4.00543e-15 
3.61521e-15 5.57478e-15 4.00543e-15 
3.61521e-15 5.57478e-15 4.00543e-15 
3.61521e-15 5.57478e-15 4.00543e-15 
-3.75883e-15 -4.09037e-15 3.16803e-15 
-3.75883e-15 -4.09037e-15 3.16803e-15 
-3.75883e-15 -4.09037e-15 3.16803e-15 
-3.75883e-15 -4.09037e-15 3.16803e-15 
4.20141e-15 6.84583e-16 -3.28083e-15 
4.20141e-15 6.84583e-16 -3.28083e-15 
4.20141e-15 6.84583e-16 -3.28083e-15 
4.20141e-15 6.84583e-16 -3.28083e-15 
-1.98389e-14 3.81778e-15 -1.77528e-15 
-1.98389e-14 3.81778e-15 -1.77528e-15 
-1.98389e-14 3.81778e-15 -1.77528e-15 
-1.98389e-14 3.81778e-15 -1.77528e-15 
-4.03005e-15 -2.71682e-15 4.17071e-15 
-4.03005e-15 -2.71682e-15 4.17071e-15 
-4.03005e-15 -2.71682e-15 4.17071e-15 
-4.03005e-15 -2.71682e-15 4.17071e-15 
7.91198e-15 -5.77204e-15 -4.64508e-15 
7.91198e-15 -5.77204e-15 -4.64508e-15 
7.91198e-15 -5.77204e-15 -4.64508e-15 
7.91198e-15 -5.77204e-15 -4.64508e-15 
-6.94397e-16 3.29971e-15 -1.09704e-14 
-6.94397e-16 3.29971e-15 -1.09704e-14 
-6.94397e-16 3.29971e-15 -1.09704e-14 
-6.94397e-16 3.29971e-15 -1.09704e-14 
2.77619e-15 1.07841e-15 -4.74788e-15 
2.77619e-15 1.07841e-15 -4.74788e-15 
2.77619e-15 1.07841e-15 -4.74788e-15 
2.77619e-15 1.07841e-15 -4.74788e-15 
-3.66571e-15 6.70342e-15 4.11332e-15 
-3.66571e-15 6.70342e-15 4.11332e-15 
-3.66571e-15 6.70342e-15 4.11332e-15 
-3.66571e-15 6.70342e-15 4.11332e-15 
-1.92647e-16 -8.17031e-15 -4.33488e-15 
-1.92647e-16 -8.17031e-15 -4.33488e-15 
-1.92647e-16 -8.17031e-15 -4.33488e-15 
-1.92647e-16 -8.17031e-15 -4.33488e-15 
1.8749e-15 -3.73039e-15 -4.49641e-15 
1.8749e-15 -3.73039e-15 -4.49641e-15 
1.8749e-15 -3.73039e-15 -4.49641e-15 
1.8749e-15 -3.73039e-15 -4.49641e-15 
2.59599e-15 9.88876e-16 -5.01706e-15 
2.59599e-15 9.88876e-16 -5.01706e-15 
2.59599e-15 9.88876e-16 -5.01706e-15 
2.59599e-15 9.88876e-16 -5.01706e-15 
-8.44818e-16 1.6498e-16 6.0363e-15 
-8.44818e-16 1.6498e-16 6.0363e-15 
-8.44818e-16 1.6498e-16 6.0363e-15 
-8.44818e-16 1.6498e-16 6.0363e-15 
2.82743e-15 -6.10304e-16 2.71814e-15 
2.82743e-15 -6.10304e-16 2.71814e-15 
2.82743e-15 -6.10304e-16 2.71814e-15 
2.82743e-15 -6.10304e-16 2.71814e-15 
1.0894e-15 3.40666e-15 1.41901e-14 
1.0894e-15 3.40666e-15 1.41901e-14 
1.0894e-15 3.40666e-15 1.41901e-14 
1.0894e-15 3.40666e-15 1.41901e-14 
3.40827e-15 3.28351e-15 1.17394e-14 
3.40827e-15 3.28351e-15 1.17394e-14 
3.40827e-15 3.28351e-15 1.17394e-14 
3.40827e-15 3.28351e-15 1.17394e-14 
1.31442e-15 9.4389e-15 3.08197e-16 
1.31442e-15 9.4389e-15 3.08197e-16 
1.31442e-15 9.4389e-15 3.08197e-16 
1.31442e-15 9.4389e-15 3.08197e-16 
-3.70927e-15 -3.20052e-15 -8.67796e-15 
-3.70927e-15 -3.20052e-15 -8.67796e-15 
-3.70927e-15 -3.20052e-15 -8.67796e-15 
-3.70927e-15 -3.20052e-15 -8.67796e-15 
1.34895e-14 3.84659e-15 1.69808e-15 
1.34895e-14 3.84659e-15 1.69808e-15 
1.34895e-14 3.84659e-15 1.69808e-15 
1.34895e-14 3.84659e-15 1.69808e-15 
3.18275e-15 3.69427e-15 -4.85801e-15 
3.18275e-15 3.69427e-15 -4.85801e-15 
3.18275e-15 3.69427e-15 -4.85801e-15 
3.18275e-15 3.69427e-15 -4.85801e-15 
8.48259e-15 -2.97247e-15 1.4704e-15 
8.48259e-15 -2.97247e-15 1.4704e-15 
8.48259e-15 -2.97247e-15 1.4704e-15 
8.48259e-15 -2.97247e-15 1.4704e-15 
-1.4104e-14 -2.96389e-15 -1.07062e-14 
-1.4104e-14 -2.96389e-15 -1.07062e-14 
-1.4104e-14 -2.96389e-15 -1.07062e-14 
-1.4104e-14 -2.96389e-15 -1.07062e-14 
-5.34907e-15 -7.31153e-15 8.64744e-15 
-5.34907e-15 -7.31153e-15 8.64744e-15 
-5.34907e-15 -7.31153e-15 8.64744e-15 
-5.34907e-15 -7.31153e-15 8.64744e-15 
2.21533e-15 -5.10246e-16 2.60843e-15 
2.21533e-15 -5.10246e-16 2.60843e-15 
2.21533e-15 -5.10246e-16 2.60843e-15 
2.21533e-15 -5.10246e-16 2.60843e-15 
2.19459e-16 1.339e-14 -1.47202e-14 
2.19459e-16 1.339e-14 -1.47202e-14 
2.19459e-16 1.339e-14 -1.47202e-14 
2.19459e-16 1.339e-14 -1.47202e-14 
4.15811e-15 -3.89601e-15 -9.783e-15 
4.15811e-15 -3.89601e-15 -9.783e-15 
4.15811e-15 -3.89601e-15 -9.783e-15 
4.15811e-15 -3.89601e-15 -9.783e-15 
-6.44841e-15 -1.33595e-15 -1.36081e-14 
-6.44841e-15 -1.33595e-15 -1.36081e-14 
-6.44841e-15 -1.33595e-15 -1.36081e-14 
-6.44841e-15 -1.33595e-15 -1.36081e-14 
1.51116e-16 3.12926e-15 4.3024e-15 
1.51116e-16 3.12926e-15 4.3024e-15 
1.51116e-16 3.12926e-15 4.3024e-15 
1.51116e-16 3.12926e-15 4.3024e-15 
7.24553e-15 2.07009e-15 1.33941e-15 
7.24553e-15 2.07009e-15 1.33941e-15 
7.24553e-15 2.07009e-15 1.33941e-15 
7.24553e-15 2.07009e-15 1.33941e-15 
3.99974e-16 -1.92629e-16 2.22045e-15 
3.99974e-16 -1.92629e-16 2.22045e-15 
3.99974e-16 -1.92629e-16 2.22045e-15 
3.99974e-16 -1.92629e-16 2.22045e-15 
1.13082e-15 3.97066e-15 7.22161e-15 
1.13082e-15 3.97066e-15 7.22161e-15 
1.13082e-15 3.97066e-15 7.22161e-15 
1.13082e-15 3.97066e-15 7.22161e-15 
-1.05471e-15 -2.99294e-15 -1.9474e-14 
-1.05471e-15 -2.99294e-15 -1.9474e-14 
-1.05471e-15 -2.99294e-15 -1.9474e-14 
-1.05471e-15 -2.99294e-15 -1.9474e-14 
1.40562e-15 -8.23046e-15 8.84851e-16 
1.40562e-15 -8.23046e-15 8.84851e-16 
1.40562e-15 -8.23046e-15 8.84851e-16 
1.40562e-15 -8.23046e-15 8.84851e-16 
5.69921e-15 2.23365e-15 5.27701e-15 
5.69921e-15 2.23365e-15 5.27701e-15 
5.69921e-15 2.23365e-15 5.27701e-15 
5.69921e-15 2.23365e-15 5.27701e-15 
6.77429e-15 -6.18117e-15 -8.76753e-15 
6.77429e-15 -6.18117e-15 -8.76753e-15 
6.77429e-15 -6.18117e-15 -8.76753e-15 
6.77429e-15 -6.18117e-15 -8.76753e-15 
2.83562e-15 -7.03306e-16 -2.06875e-15 
2.83562e-15 -7.03306e-16 -2.06875e-15 
2.83562e-15 -7.03306e-16 -2.06875e-15 
2.83562e-15 -7.03306e-16 -2.06875e-15 
4.97616e-15 4.86842e-15 -4.62869e-15 
4.97616e-15 4.86842e-15 -4.62869e-15 
4.97616e-15 4.86842e-15 -4.62869e-15 
4.97616e-15 4.86842e-15 -4.62869e-15 
2.28874e-15 -7.09146e-15 -6.95428e-16 
2.28874e-15 -7.09146e-15 -6.95428e-16 
2.28874e-15 -7.09146e-15 -6.95428e-16 
2.28874e-15 -7.09146e-15 -6.95428e-16 
6.23138e-16 3.0352e-15 1.3084e-15 
6.23138e-16 3.0352e-15 1.3084e-15 
6.23138e-16 3.0352e-15 1.3084e-15 
6.23138e-16 3.0352e-15 1.3084e-15 
-7.12759e-15 5.73355e-15 4.96157e-15 
-7.12759e-15 5.73355e-15 4.96157e-15 
-7.12759e-15 5.73355e-15 4.96157e-15 
-7.12759e-15 5.73355e-15 4.96157e-15 
-5.56859e-15 -3.71571e-15 1.49244e-14 
-5.56859e-15 -3.71571e-15 1.49244e-14 
-5.56859e-15 -3.71571e-15 1.49244e-14 
-5.56859e-15 -3.71571e-15 1.49244e-14 
-5.03845e-15 -2.81918e-15 -1.84246e-15 
-5.03845e-15 -2.81918e-15 -1.84246e-15 
-5.03845e-15 -2.81918e-15 -1.84246e-15 
-5.03845e-15 -2.81918e-15 -1.84246e-15 
4.53424e-15 -2.41692e-15 -8.68592e-15 
4.53424e-15 -2.41692e-15 -8.68592e-15 
4.53424e-15 -2.41692e-15 -8.68592e-15 
4.53424e-15 -2.41692e-15 -8.68592e-15 
-4.76003e-15 -1.05129e-14 1.50479e-14 
-4.76003e-15 -1.05129e-14 1.50479e-14 
-4.76003e-15 -1.05129e-14 1.50479e-14 
-4.76003e-15 -1.05129e-14 1.50479e-14 
-4.07781e-15 -1.02432e-14 -6.08247e-15 
-4.07781e-15 -1.02432e-14 -6.08247e-15 
-4.07781e-15 -1.02432e-14 -6.08247e-15 
-4.07781e-15 -1.02432e-14 -6.08247e-15 
-6.31038e-15 -5.81647e-15 6.93745e-15 
-6.31038e-15 -5.81647e-15 6.93745e-15 
-6.31038e-15 -5.81647e-15 6.93745e-15 
-6.31038e-15 -5.81647e-15 6.93745e-15 
-7.77391e-15 3.17069e-15 -6.06977e-15 
-7.77391e-15 3.17069e-15 -6.06977e-15 
-7.77391e-15 3.17069e-15 -6.06977e-15 
-7.77391e-15 3.17069e-15 -6.06977e-15 
-4.89915e-15 -4.50831e-15 -3.14349e-15 
-4.89915e-15 -4.50831e-15 -3.14349e-15 
-4.89915e-15 -4.50831e-15 -3.14349e-15 
-4.89915e-15 -4.50831e-15 -3.14349e-15 
-4.13062e-15 -3.01922e-15 -5.8028e-15 
-4.13062e-15 -3.01922e-15 -5.8028e-15 
-4.13062e-15 -3.01922e-15 -5.8028e-15 
-4.13062e-15 -3.01922e-15 -5.8028e-15 
-1.15265e-15 3.54623e-15 6.27943e-15 
-1.15265e-15 3.54623e-15 6.27943e-15 
-1.15265e-15 3.54623e-15 6.27943e-15 
-1.15265e-15 3.54623e-15 6.27943e-15 
4.25521e-15 -7.96899e-15 -3.15266e-15 
4.25521e-15 -7.96899e-15 -3.15266e-15 
4.25521e-15 -7.96899e-15 -3.15266e-15 
4.25521e-15 -7.96899e-15 -3.15266e-15 
-2.54729e-15 3.85366e-15 7.78642e-15 
-2.54729e-15 3.85366e-15 7.78642e-15 
-2.54729e-15 3.85366e-15 7.78642e-15 
-2.54729e-15 3.85366e-15 7.78642e-15 
2.38469e-15 1.17073e-15 -3.22464e-15 
2.38469e-15 1.17073e-15 -3.22464e-15 
2.38469e-15 1.17073e-15 -3.22464e-15 
2.38469e-15 1.17073e-15 -3.22464e-15 
6.65135e-15 2.47738e-15 -1.70229e-16 
6.65135e-15 2.47738e-15 -1.70229e-16 
6.65135e-15 2.47738e-15 -1.70229e-16 
6.65135e-15 2.47738e-15 -1.70229e-16 
5.1684e-15 -2.4316e-15 5.45564e-15 
5.1684e-15 -2.4316e-15 5.45564e-15 
5.1684e-15 -2.4316e-15 5.45564e-15 
5.1684e-15 -2.4316e-15 5.45564e-15 
-7.13382e-15 6.61489e-16 -1.783e-15 
-7.13382e-15 6.61489e-16 -1.783e-15 
-7.13382e-15 6.61489e-16 -1.783e-15 
-7.13382e-15 6.61489e-16 -1.783e-15 
-3.69489e-15 5.75464e-18 4.24122e-15 
-3.69489e-15 5.75464e-18 4.24122e-15 
-3.69489e-15 5.75464e-18 4.24122e-15 
-3.69489e-15 5.75464e-18 4.24122e-15 
-2.77928e-07 -4.04018e-07 -1.48335e-06 
-2.77928e-07 -4.04018e-07 -1.48335e-06 
-2.77928e-07 -4.04018e-07 -1.48335e-06 
-2.77928e-07 -4.04018e-07 -1.48335e-06 
-3.62099e-15 1.2159e-15 5.65877e-15 
-3.62099e-15 1.2159e-15 5.65877e-15 
-3.62099e-15 1.2159e-15 5.65877e-15 
-3.62099e-15 1.2159e-15 5.65877e-15 
-8.86805e-16 2.0572e-15 1.50916e-15 
-8.86805e-16 2.0572e-15 1.50916e-15 
-8.86805e-16 2.0572e-15 1.50916e-15 
-8.86805e-16 2.0572e-15 1.50916e-15 
-1.73679e-15 -2.88923e-16 6.99037e-15 
-1.73679e-15 -2.88923e-16 6.99037e-15 
-1.73679e-15 -2.88923e-16 6.99037e-15 
-1.73679e-15 -2.88923e-16 6.99037e-15 
-2.7593e-15 2.51678e-15 3.91566e-15 
-2.7593e-15 2.51678e-15 3.91566e-15 
-2.7593e-15 2.51678e-15 3.91566e-15 
-2.7593e-15 2.51678e-15 3.91566e-15 
-4.62028e-15 -2.76838e-15 -7.00815e-15 
-4.62028e-15 -2.76838e-15 -7.00815e-15 
-4.62028e-15 -2.76838e-15 -7.00815e-15 
-4.62028e-15 -2.76838e-15 -7.00815e-15 
3.04168e-16 8.85787e-16 -4.05343e-15 
3.04168e-16 8.85787e-16 -4.05343e-15 
3.04168e-16 8.85787e-16 -4.05343e-15 
3.04168e-16 8.85787e-16 -4.05343e-15 
1.15872e-14 8.4134e-15 -2.58219e-15 
1.15872e-14 8.4134e-15 -2.58219e-15 
1.15872e-14 8.4134e-15 -2.58219e-15 
1.15872e-14 8.4134e-15 -2.58219e-15 
3.95091e-15 -8.59853e-16 -1.00343e-14 
3.95091e-15 -8.59853e-16 -1.00343e-14 
3.95091e-15 -8.59853e-16 -1.00343e-14 
3.95091e-15 -8.59853e-16 -1.00343e-14 
-1.288e-15 3.20067e-15 1.13237e-14 
-1.288e-15 3.20067e-15 1.13237e-14 
-1.288e-15 3.20067e-15 1.13237e-14 
-1.288e-15 3.20067e-15 1.13237e-14 
1.10604e-15 -5.85665e-16 1.11001e-15 
1.10604e-15 -5.85665e-16 1.11001e-15 
1.10604e-15 -5.85665e-16 1.11001e-15 
1.10604e-15 -5.85665e-16 1.11001e-15 
-8.12304e-15 7.46564e-15 -5.85976e-15 
-8.12304e-15 7.46564e-15 -5.85976e-15 
-8.12304e-15 7.46564e-15 -5.85976e-15 
-8.12304e-15 7.46564e-15 -5.85976e-15 
1.04132e-14 5.58448e-15 -1.41949e-14 
1.04132e-14 5.58448e-15 -1.41949e-14 
1.04132e-14 5.58448e-15 -1.41949e-14 
1.04132e-14 5.58448e-15 -1.41949e-14 
7.37002e-15 -2.35978e-15 2.48912e-15 
7.37002e-15 -2.35978e-15 2.48912e-15 
7.37002e-15 -2.35978e-15 2.48912e-15 
7.37002e-15 -2.35978e-15 2.48912e-15 
-2.70635e-07 -4.05045e-07 -1.49534e-06 
-2.70635e-07 -4.05045e-07 -1.49534e-06 
-2.70635e-07 -4.05045e-07 -1.49534e-06 
-2.70635e-07 -4.05045e-07 -1.49534e-06 
4.409e-16 7.10835e-15 9.64016e-15 
4.409e-16 7.10835e-15 9.64016e-15 
4.409e-16 7.10835e-15 9.64016e-15 
4.409e-16 7.10835e-15 9.64016e-15 
5.7326e-15 8.33547e-15 3.24395e-15 
5.7326e-15 8.33547e-15 3.24395e-15 
5.7326e-15 8.33547e-15 3.24395e-15 
5.7326e-15 8.33547e-15 3.24395e-15 
2.052e-15 3.47975e-15 1.07646e-15 
2.052e-15 3.47975e-15 1.07646e-15 
2.052e-15 3.47975e-15 1.07646e-15 
2.052e-15 3.47975e-15 1.07646e-15 
4.40646e-15 5.73851e-16 -9.13825e-15 
4.40646e-15 5.73851e-16 -9.13825e-15 
4.40646e-15 5.73851e-16 -9.13825e-15 
4.40646e-15 5.73851e-16 -9.13825e-15 
-5.13861e-15 -5.26918e-15 -1.53925e-14 
-5.13861e-15 -5.26918e-15 -1.53925e-14 
-5.13861e-15 -5.26918e-15 -1.53925e-14 
-5.13861e-15 -5.26918e-15 -1.53925e-14 
-3.28687e-15 -4.08044e-15 -1.01977e-14 
-3.28687e-15 -4.08044e-15 -1.01977e-14 
-3.28687e-15 -4.08044e-15 -1.01977e-14 
-3.28687e-15 -4.08044e-15 -1.01977e-14 
-9.63391e-16 -2.2085e-16 6.06401e-15 
-9.63391e-16 -2.2085e-16 6.06401e-15 
-9.63391e-16 -2.2085e-16 6.06401e-15 
-9.63391e-16 -2.2085e-16 6.06401e-15 
5.12321e-15 1.18227e-15 2.54976e-15 
5.12321e-15 1.18227e-15 2.54976e-15 
5.12321e-15 1.18227e-15 2.54976e-15 
5.12321e-15 1.18227e-15 2.54976e-15 
-5.77751e-15 -5.13736e-15 1.69571e-14 
-5.77751e-15 -5.13736e-15 1.69571e-14 
-5.77751e-15 -5.13736e-15 1.69571e-14 
-5.77751e-15 -5.13736e-15 1.69571e-14 
-6.89328e-15 1.1655e-15 7.69486e-15 
-6.89328e-15 1.1655e-15 7.69486e-15 
-6.89328e-15 1.1655e-15 7.69486e-15 
-6.89328e-15 1.1655e-15 7.69486e-15 
-1.83127e-15 3.82616e-15 4.51846e-15 
-1.83127e-15 3.82616e-15 4.51846e-15 
-1.83127e-15 3.82616e-15 4.51846e-15 
-1.83127e-15 3.82616e-15 4.51846e-15 
8.23869e-15 -1.96588e-14 -2.99039e-14 
8.23869e-15 -1.96588e-14 -2.99039e-14 
8.23869e-15 -1.96588e-14 -2.99039e-14 
8.23869e-15 -1.96588e-14 -2.99039e-14 
1.003e-14 6.09016e-15 -1.48933e-14 
1.003e-14 6.09016e-15 -1.48933e-14 
1.003e-14 6.09016e-15 -1.48933e-14 
1.003e-14 6.09016e-15 -1.48933e-14 
3.7149e-15 -1.85605e-15 -6.63967e-15 
3.7149e-15 -1.85605e-15 -6.63967e-15 
3.7149e-15 -1.85605e-15 -6.63967e-15 
3.7149e-15 -1.85605e-15 -6.63967e-15 
-1.87808e-15 9.07359e-15 -1.26546e-14 
-1.87808e-15 9.07359e-15 -1.26546e-14 
-1.87808e-15 9.07359e-15 -1.26546e-14 
-1.87808e-15 9.07359e-15 -1.26546e-14 
-4.24323e-15 3.05356e-15 5.26153e-15 
-4.24323e-15 3.05356e-15 5.26153e-15 
-4.24323e-15 3.05356e-15 5.26153e-15 
-4.24323e-15 3.05356e-15 5.26153e-15 
3.97214e-15 -1.17576e-15 -7.93236e-15 
3.97214e-15 -1.17576e-15 -7.93236e-15 
3.97214e-15 -1.17576e-15 -7.93236e-15 
3.97214e-15 -1.17576e-15 -7.93236e-15 
1.38553e-15 6.45851e-16 -1.27241e-15 
1.38553e-15 6.45851e-16 -1.27241e-15 
1.38553e-15 6.45851e-16 -1.27241e-15 
1.38553e-15 6.45851e-16 -1.27241e-15 
-2.94451e-15 -4.6825e-15 -1.18681e-14 
-2.94451e-15 -4.6825e-15 -1.18681e-14 
-2.94451e-15 -4.6825e-15 -1.18681e-14 
-2.94451e-15 -4.6825e-15 -1.18681e-14 
-6.95645e-15 -7.43003e-15 6.11322e-15 
-6.95645e-15 -7.43003e-15 6.11322e-15 
-6.95645e-15 -7.43003e-15 6.11322e-15 
-6.95645e-15 -7.43003e-15 6.11322e-15 
5.40269e-16 6.29157e-15 1.08038e-14 
5.40269e-16 6.29157e-15 1.08038e-14 
5.40269e-16 6.29157e-15 1.08038e-14 
5.40269e-16 6.29157e-15 1.08038e-14 
3.51371e-15 5.9248e-17 3.41751e-15 
3.51371e-15 5.9248e-17 3.41751e-15 
3.51371e-15 5.9248e-17 3.41751e-15 
3.51371e-15 5.9248e-17 3.41751e-15 
1.07965e-14 -8.45986e-16 -1.77674e-14 
1.07965e-14 -8.45986e-16 -1.77674e-14 
1.07965e-14 -8.45986e-16 -1.77674e-14 
1.07965e-14 -8.45986e-16 -1.77674e-14 
-4.50107e-15 -6.29307e-15 7.26702e-15 
-4.50107e-15 -6.29307e-15 7.26702e-15 
-4.50107e-15 -6.29307e-15 7.26702e-15 
-4.50107e-15 -6.29307e-15 7.26702e-15 
-8.15493e-16 2.02412e-15 1.60035e-15 
-8.15493e-16 2.02412e-15 1.60035e-15 
-8.15493e-16 2.02412e-15 1.60035e-15 
-8.15493e-16 2.02412e-15 1.60035e-15 
-3.74502e-15 -4.56704e-15 -7.24433e-15 
-3.74502e-15 -4.56704e-15 -7.24433e-15 
-3.74502e-15 -4.56704e-15 -7.24433e-15 
-3.74502e-15 -4.56704e-15 -7.24433e-15 
-3.22299e-15 -5.91907e-16 7.6888e-16 
-3.22299e-15 -5.91907e-16 7.6888e-16 
-3.22299e-15 -5.91907e-16 7.6888e-16 
-3.22299e-15 -5.91907e-16 7.6888e-16 
1.43013e-15 4.64071e-15 -5.71996e-15 
1.43013e-15 4.64071e-15 -5.71996e-15 
1.43013e-15 4.64071e-15 -5.71996e-15 
1.43013e-15 4.64071e-15 -5.71996e-15 
-1.44537e-14 -1.83377e-15 -5.74537e-15 
-1.44537e-14 -1.83377e-15 -5.74537e-15 
-1.44537e-14 -1.83377e-15 -5.74537e-15 
-1.44537e-14 -1.83377e-15 -5.74537e-15 
-1.25382e-14 -5.0859e-15 -1.03123e-14 
-1.25382e-14 -5.0859e-15 -1.03123e-14 
-1.25382e-14 -5.0859e-15 -1.03123e-14 
-1.25382e-14 -5.0859e-15 -1.03123e-14 
-1.37686e-15 -5.81704e-15 6.29747e-15 
-1.37686e-15 -5.81704e-15 6.29747e-15 
-1.37686e-15 -5.81704e-15 6.29747e-15 
-1.37686e-15 -5.81704e-15 6.29747e-15 
-1.00453e-09 2.75644e-09 7.85358e-09 
-1.00453e-09 2.75644e-09 7.85358e-09 
-1.00453e-09 2.75644e-09 7.85358e-09 
-1.00453e-09 2.75644e-09 7.85358e-09 
7.55528e-16 -6.16756e-15 5.34831e-15 
7.55528e-16 -6.16756e-15 5.34831e-15 
7.55528e-16 -6.16756e-15 5.34831e-15 
7.55528e-16 -6.16756e-15 5.34831e-15 
1.08817e-15 -3.67739e-15 -1.65178e-14 
1.08817e-15 -3.67739e-15 -1.65178e-14 
1.08817e-15 -3.67739e-15 -1.65178e-14 
1.08817e-15 -3.67739e-15 -1.65178e-14 
-1.72089e-15 -4.99553e-15 2.10148e-15 
-1.72089e-15 -4.99553e-15 2.10148e-15 
-1.72089e-15 -4.99553e-15 2.10148e-15 
-1.72089e-15 -4.99553e-15 2.10148e-15 
1.06242e-14 -1.09244e-14 -5.21994e-15 
1.06242e-14 -1.09244e-14 -5.21994e-15 
1.06242e-14 -1.09244e-14 -5.21994e-15 
1.06242e-14 -1.09244e-14 -5.21994e-15 
3.02061e-15 9.8297e-15 -7.96633e-15 
3.02061e-15 9.8297e-15 -7.96633e-15 
3.02061e-15 9.8297e-15 -7.96633e-15 
3.02061e-15 9.8297e-15 -7.96633e-15 
-7.1549e-15 4.46105e-15 7.96092e-15 
-7.1549e-15 4.46105e-15 7.96092e-15 
-7.1549e-15 4.46105e-15 7.96092e-15 
-7.1549e-15 4.46105e-15 7.96092e-15 
-3.02534e-15 -9.43638e-15 -5.41716e-15 
-3.02534e-15 -9.43638e-15 -5.41716e-15 
-3.02534e-15 -9.43638e-15 -5.41716e-15 
-3.02534e-15 -9.43638e-15 -5.41716e-15 
1.84597e-15 -5.03269e-15 2.60566e-15 
1.84597e-15 -5.03269e-15 2.60566e-15 
1.84597e-15 -5.03269e-15 2.60566e-15 
1.84597e-15 -5.03269e-15 2.60566e-15 
-7.29707e-15 -8.65215e-15 -1.88096e-15 
-7.29707e-15 -8.65215e-15 -1.88096e-15 
-7.29707e-15 -8.65215e-15 -1.88096e-15 
-7.29707e-15 -8.65215e-15 -1.88096e-15 
1.56049e-15 5.50222e-15 -9.98721e-15 
1.56049e-15 5.50222e-15 -9.98721e-15 
1.56049e-15 5.50222e-15 -9.98721e-15 
1.56049e-15 5.50222e-15 -9.98721e-15 
2.41375e-15 6.44636e-15 1.52594e-15 
2.41375e-15 6.44636e-15 1.52594e-15 
2.41375e-15 6.44636e-15 1.52594e-15 
2.41375e-15 6.44636e-15 1.52594e-15 
-0.0132136 0.0197891 0.0616906 
-0.0132136 0.0197891 0.0616906 
-0.0132136 0.0197891 0.0616906 
-0.0132136 0.0197891 0.0616906 
-2.44868e-15 2.44312e-15 8.34097e-15 
-2.44868e-15 2.44312e-15 8.34097e-15 
-2.44868e-15 2.44312e-15 8.34097e-15 
-2.44868e-15 2.44312e-15 8.34097e-15 
-1.25261e-14 -3.77259e-15 -6.06033e-15 
-1.25261e-14 -3.77259e-15 -6.06033e-15 
-1.25261e-14 -3.77259e-15 -6.06033e-15 
-1.25261e-14 -3.77259e-15 -6.06033e-15 
3.66175e-16 2.04245e-15 -9.97559e-15 
3.66175e-16 2.04245e-15 -9.97559e-15 
3.66175e-16 2.04245e-15 -9.97559e-15 
3.66175e-16 2.04245e-15 -9.97559e-15 
-2.18259e-15 8.05468e-15 -1.66075e-15 
-2.18259e-15 8.05468e-15 -1.66075e-15 
-2.18259e-15 8.05468e-15 -1.66075e-15 
-2.18259e-15 8.05468e-15 -1.66075e-15 
-6.06393e-15 -2.6273e-15 3.59667e-15 
-6.06393e-15 -2.6273e-15 3.59667e-15 
-6.06393e-15 -2.6273e-15 3.59667e-15 
-6.06393e-15 -2.6273e-15 3.59667e-15 
-1.04526e-15 2.19694e-15 1.65566e-15 
-1.04526e-15 2.19694e-15 1.65566e-15 
-1.04526e-15 2.19694e-15 1.65566e-15 
-1.04526e-15 2.19694e-15 1.65566e-15 
7.69009e-15 -6.11787e-15 -4.77179e-16 
7.69009e-15 -6.11787e-15 -4.77179e-16 
7.69009e-15 -6.11787e-15 -4.77179e-16 
7.69009e-15 -6.11787e-15 -4.77179e-16 
-6.52795e-06 -7.00474e-06 -2.81987e-05 
-6.52795e-06 -7.00474e-06 -2.81987e-05 
-6.52795e-06 -7.00474e-06 -2.81987e-05 
-6.52795e-06 -7.00474e-06 -2.81987e-05 
6.40259e-15 7.74805e-15 4.44634e-15 
6.40259e-15 7.74805e-15 4.44634e-15 
6.40259e-15 7.74805e-15 4.44634e-15 
6.40259e-15 7.74805e-15 4.44634e-15 
3.0265e-11 -2.02228e-11 -1.07374e-10 
3.0265e-11 -2.02228e-11 -1.07374e-10 
3.0265e-11 -2.02228e-11 -1.07374e-10 
3.0265e-11 -2.02228e-11 -1.07374e-10 
4.58398e-15 -2.51522e-15 1.74675e-14 
4.58398e-15 -2.51522e-15 1.74675e-14 
4.58398e-15 -2.51522e-15 1.74675e-14 
4.58398e-15 -2.51522e-15 1.74675e-14 
-2.06674e-15 9.4799e-16 1.09577e-14 
-2.06674e-15 9.4799e-16 1.09577e-14 
-2.06674e-15 9.4799e-16 1.09577e-14 
-2.06674e-15 9.4799e-16 1.09577e-14 
3.27383e-15 1.00638e-15 -8.32799e-15 
3.27383e-15 1.00638e-15 -8.32799e-15 
3.27383e-15 1.00638e-15 -8.32799e-15 
3.27383e-15 1.00638e-15 -8.32799e-15 
-1.83163e-14 -1.30265e-14 -4.74978e-16 
-1.83163e-14 -1.30265e-14 -4.74978e-16 
-1.83163e-14 -1.30265e-14 -4.74978e-16 
-1.83163e-14 -1.30265e-14 -4.74978e-16 
4.01429e-15 3.53768e-15 -1.00618e-14 
4.01429e-15 3.53768e-15 -1.00618e-14 
4.01429e-15 3.53768e-15 -1.00618e-14 
4.01429e-15 3.53768e-15 -1.00618e-14 
8.49997e-15 -4.72508e-15 -8.68519e-15 
8.49997e-15 -4.72508e-15 -8.68519e-15 
8.49997e-15 -4.72508e-15 -8.68519e-15 
8.49997e-15 -4.72508e-15 -8.68519e-15 
3.42411e-16 7.6105e-16 2.80456e-15 
3.42411e-16 7.6105e-16 2.80456e-15 
3.42411e-16 7.6105e-16 2.80456e-15 
3.42411e-16 7.6105e-16 2.80456e-15 
6.88336e-15 -2.68521e-15 3.43051e-15 
6.88336e-15 -2.68521e-15 3.43051e-15 
6.88336e-15 -2.68521e-15 3.43051e-15 
6.88336e-15 -2.68521e-15 3.43051e-15 
1.76584e-15 -7.21519e-15 4.63339e-15 
1.76584e-15 -7.21519e-15 4.63339e-15 
1.76584e-15 -7.21519e-15 4.63339e-15 
1.76584e-15 -7.21519e-15 4.63339e-15 
-5.64759e-15 -8.32905e-15 1.12651e-14 
-5.64759e-15 -8.32905e-15 1.12651e-14 
-5.64759e-15 -8.32905e-15 1.12651e-14 
-5.64759e-15 -8.32905e-15 1.12651e-14 
-2.73873e-15 3.73424e-15 -2.31278e-14 
-2.73873e-15 3.73424e-15 -2.31278e-14 
-2.73873e-15 3.73424e-15 -2.31278e-14 
-2.73873e-15 3.73424e-15 -2.31278e-14 
8.266e-15 -7.55944e-15 1.20535e-14 
8.266e-15 -7.55944e-15 1.20535e-14 
8.266e-15 -7.55944e-15 1.20535e-14 
8.266e-15 -7.55944e-15 1.20535e-14 
-1.09666e-09 2.64758e-09 8.08314e-09 
-1.09666e-09 2.64758e-09 8.08314e-09 
-1.09666e-09 2.64758e-09 8.08314e-09 
-1.09666e-09 2.64758e-09 8.08314e-09 
5.73927e-15 5.97888e-15 -1.57176e-14 
5.73927e-15 5.97888e-15 -1.57176e-14 
5.73927e-15 5.97888e-15 -1.57176e-14 
5.73927e-15 5.97888e-15 -1.57176e-14 
7.81402e-15 1.77064e-15 -1.56548e-14 
7.81402e-15 1.77064e-15 -1.56548e-14 
7.81402e-15 1.77064e-15 -1.56548e-14 
7.81402e-15 1.77064e-15 -1.56548e-14 
-1.31163e-06 3.17177e-06 -9.83895e-06 
-1.31163e-06 3.17177e-06 -9.83895e-06 
-1.31163e-06 3.17177e-06 -9.83895e-06 
-1.31163e-06 3.17177e-06 -9.83895e-06 
-6.65945e-06 -6.6606e-06 -2.88055e-05 
-6.65945e-06 -6.6606e-06 -2.88055e-05 
-6.65945e-06 -6.6606e-06 -2.88055e-05 
-6.65945e-06 -6.6606e-06 -2.88055e-05 
4.21791e-16 -3.99892e-15 3.7379e-15 
4.21791e-16 -3.99892e-15 3.7379e-15 
4.21791e-16 -3.99892e-15 3.7379e-15 
4.21791e-16 -3.99892e-15 3.7379e-15 
1.91472e-15 -1.36855e-15 6.97109e-15 
1.91472e-15 -1.36855e-15 6.97109e-15 
1.91472e-15 -1.36855e-15 6.97109e-15 
1.91472e-15 -1.36855e-15 6.97109e-15 
7.23565e-15 -4.25889e-15 -1.09693e-15 
7.23565e-15 -4.25889e-15 -1.09693e-15 
7.23565e-15 -4.25889e-15 -1.09693e-15 
7.23565e-15 -4.25889e-15 -1.09693e-15 
8.69867e-15 1.62558e-15 -5.75635e-16 
8.69867e-15 1.62558e-15 -5.75635e-16 
8.69867e-15 1.62558e-15 -5.75635e-16 
8.69867e-15 1.62558e-15 -5.75635e-16 
-9.87664e-16 9.11932e-15 7.82702e-15 
-9.87664e-16 9.11932e-15 7.82702e-15 
-9.87664e-16 9.11932e-15 7.82702e-15 
-9.87664e-16 9.11932e-15 7.82702e-15 
7.11521e-06 4.89136e-06 2.54327e-05 
7.11521e-06 4.89136e-06 2.54327e-05 
7.11521e-06 4.89136e-06 2.54327e-05 
7.11521e-06 4.89136e-06 2.54327e-05 
6.89891e-15 1.84011e-15 7.47271e-15 
6.89891e-15 1.84011e-15 7.47271e-15 
6.89891e-15 1.84011e-15 7.47271e-15 
6.89891e-15 1.84011e-15 7.47271e-15 
3.29461e-15 -5.935e-15 -6.81992e-15 
3.29461e-15 -5.935e-15 -6.81992e-15 
3.29461e-15 -5.935e-15 -6.81992e-15 
3.29461e-15 -5.935e-15 -6.81992e-15 
-4.92983e-15 5.50436e-15 -1.3805e-14 
-4.92983e-15 5.50436e-15 -1.3805e-14 
-4.92983e-15 5.50436e-15 -1.3805e-14 
-4.92983e-15 5.50436e-15 -1.3805e-14 
-7.71055e-15 -8.94213e-15 -1.06854e-14 
-7.71055e-15 -8.94213e-15 -1.06854e-14 
-7.71055e-15 -8.94213e-15 -1.06854e-14 
-7.71055e-15 -8.94213e-15 -1.06854e-14 
1.55667e-15 -2.68725e-15 7.06316e-15 
1.55667e-15 -2.68725e-15 7.06316e-15 
1.55667e-15 -2.68725e-15 7.06316e-15 
1.55667e-15 -2.68725e-15 7.06316e-15 
-0.00918112 0.0221318 0.0616657 
-0.00918112 0.0221318 0.0616657 
-0.00918112 0.0221318 0.0616657 
-0.00918112 0.0221318 0.0616657 
9.29164e-15 4.80541e-15 5.91641e-15 
9.29164e-15 4.80541e-15 5.91641e-15 
9.29164e-15 4.80541e-15 5.91641e-15 
9.29164e-15 4.80541e-15 5.91641e-15 
4.37084e-15 -3.44691e-15 -2.33151e-14 
4.37084e-15 -3.44691e-15 -2.33151e-14 
4.37084e-15 -3.44691e-15 -2.33151e-14 
4.37084e-15 -3.44691e-15 -2.33151e-14 
5.74623e-15 2.40112e-15 -2.91311e-15 
5.74623e-15 2.40112e-15 -2.91311e-15 
5.74623e-15 2.40112e-15 -2.91311e-15 
5.74623e-15 2.40112e-15 -2.91311e-15 
4.26609e-16 -2.14653e-15 2.52804e-14 
4.26609e-16 -2.14653e-15 2.52804e-14 
4.26609e-16 -2.14653e-15 2.52804e-14 
4.26609e-16 -2.14653e-15 2.52804e-14 
2.74779e-15 1.66442e-15 -4.36182e-15 
2.74779e-15 1.66442e-15 -4.36182e-15 
2.74779e-15 1.66442e-15 -4.36182e-15 
2.74779e-15 1.66442e-15 -4.36182e-15 
-2.79349e-15 -1.816e-15 7.89165e-15 
-2.79349e-15 -1.816e-15 7.89165e-15 
-2.79349e-15 -1.816e-15 7.89165e-15 
-2.79349e-15 -1.816e-15 7.89165e-15 
2.43917e-15 -6.85994e-15 -8.06188e-15 
2.43917e-15 -6.85994e-15 -8.06188e-15 
2.43917e-15 -6.85994e-15 -8.06188e-15 
2.43917e-15 -6.85994e-15 -8.06188e-15 
4.81841e-15 -3.65655e-17 -3.17782e-15 
4.81841e-15 -3.65655e-17 -3.17782e-15 
4.81841e-15 -3.65655e-17 -3.17782e-15 
4.81841e-15 -3.65655e-17 -3.17782e-15 
7.22685e-06 4.8239e-06 2.52194e-05 
7.22685e-06 4.8239e-06 2.52194e-05 
7.22685e-06 4.8239e-06 2.52194e-05 
7.22685e-06 4.8239e-06 2.52194e-05 
7.37454e-15 -2.36476e-15 2.4891e-15 
7.37454e-15 -2.36476e-15 2.4891e-15 
7.37454e-15 -2.36476e-15 2.4891e-15 
7.37454e-15 -2.36476e-15 2.4891e-15 
-5.40099e-15 -5.72164e-15 2.86004e-15 
-5.40099e-15 -5.72164e-15 2.86004e-15 
-5.40099e-15 -5.72164e-15 2.86004e-15 
-5.40099e-15 -5.72164e-15 2.86004e-15 
0.0224969 0.00931853 0.0615488 
0.0224969 0.00931853 0.0615488 
0.0224969 0.00931853 0.0615488 
0.0224969 0.00931853 0.0615488 
-8.53842e-17 3.71777e-15 6.374e-15 
-8.53842e-17 3.71777e-15 6.374e-15 
-8.53842e-17 3.71777e-15 6.374e-15 
-8.53842e-17 3.71777e-15 6.374e-15 
0.0096915 -0.0233974 0.0614644 
0.0096915 -0.0233974 0.0614644 
0.0096915 -0.0233974 0.0614644 
0.0096915 -0.0233974 0.0614644 
-3.70796e-15 4.04004e-15 8.46093e-15 
-3.70796e-15 4.04004e-15 8.46093e-15 
-3.70796e-15 4.04004e-15 8.46093e-15 
-3.70796e-15 4.04004e-15 8.46093e-15 
-1.90526e-15 1.14112e-14 -4.71958e-15 
-1.90526e-15 1.14112e-14 -4.71958e-15 
-1.90526e-15 1.14112e-14 -4.71958e-15 
-1.90526e-15 1.14112e-14 -4.71958e-15 
-0.00622456 -0.0220248 0.0664353 
-0.00622456 -0.0220248 0.0664353 
-0.00622456 -0.0220248 0.0664353 
-0.00622456 -0.0220248 0.0664353 
-2.59667e-15 -4.03506e-16 -7.21905e-15 
-2.59667e-15 -4.03506e-16 -7.21905e-15 
-2.59667e-15 -4.03506e-16 -7.21905e-15 
-2.59667e-15 -4.03506e-16 -7.21905e-15 
2.0284e-16 -3.47703e-16 6.04289e-16 
2.0284e-16 -3.47703e-16 6.04289e-16 
2.0284e-16 -3.47703e-16 6.04289e-16 
2.0284e-16 -3.47703e-16 6.04289e-16 
-1.10237e-15 2.73399e-15 8.18551e-15 
-1.10237e-15 2.73399e-15 8.18551e-15 
-1.10237e-15 2.73399e-15 8.18551e-15 
-1.10237e-15 2.73399e-15 8.18551e-15 
0.0296471 -0.00624856 0.0779035 
0.0296471 -0.00624856 0.0779035 
0.0296471 -0.00624856 0.0779035 
0.0296471 -0.00624856 0.0779035 
7.58121e-15 2.75347e-15 -1.48543e-14 
7.58121e-15 2.75347e-15 -1.48543e-14 
7.58121e-15 2.75347e-15 -1.48543e-14 
7.58121e-15 2.75347e-15 -1.48543e-14 
-8.12402e-15 5.61781e-15 -1.82744e-15 
-8.12402e-15 5.61781e-15 -1.82744e-15 
-8.12402e-15 5.61781e-15 -1.82744e-15 
-8.12402e-15 5.61781e-15 -1.82744e-15 
-5.17511e-06 -7.7451e-06 2.51866e-05 
-5.17511e-06 -7.7451e-06 2.51866e-05 
-5.17511e-06 -7.7451e-06 2.51866e-05 
-5.17511e-06 -7.7451e-06 2.51866e-05 
3.29508e-16 -8.94881e-15 -1.01499e-14 
3.29508e-16 -8.94881e-15 -1.01499e-14 
3.29508e-16 -8.94881e-15 -1.01499e-14 
3.29508e-16 -8.94881e-15 -1.01499e-14 
8.8016e-15 -4.35735e-15 1.0991e-15 
8.8016e-15 -4.35735e-15 1.0991e-15 
8.8016e-15 -4.35735e-15 1.0991e-15 
8.8016e-15 -4.35735e-15 1.0991e-15 
-5.35203e-06 -7.41486e-06 2.57857e-05 
-5.35203e-06 -7.41486e-06 2.57857e-05 
-5.35203e-06 -7.41486e-06 2.57857e-05 
-5.35203e-06 -7.41486e-06 2.57857e-05 
2.04389e-15 -3.05277e-15 -1.02462e-14 
2.04389e-15 -3.05277e-15 -1.02462e-14 
2.04389e-15 -3.05277e-15 -1.02462e-14 
2.04389e-15 -3.05277e-15 -1.02462e-14 
-4.78565e-15 -9.8875e-16 -6.591e-15 
-4.78565e-15 -9.8875e-16 -6.591e-15 
-4.78565e-15 -9.8875e-16 -6.591e-15 
-4.78565e-15 -9.8875e-16 -6.591e-15 
-5.63624e-16 7.83577e-15 9.50036e-15 
-5.63624e-16 7.83577e-15 9.50036e-15 
-5.63624e-16 7.83577e-15 9.50036e-15 
-5.63624e-16 7.83577e-15 9.50036e-15 
9.7549e-15 -5.40347e-15 -7.7153e-15 
9.7549e-15 -5.40347e-15 -7.7153e-15 
9.7549e-15 -5.40347e-15 -7.7153e-15 
9.7549e-15 -5.40347e-15 -7.7153e-15 
2.81769e-11 -2.14503e-11 -1.11315e-10 
2.81769e-11 -2.14503e-11 -1.11315e-10 
2.81769e-11 -2.14503e-11 -1.11315e-10 
2.81769e-11 -2.14503e-11 -1.11315e-10 
-0.0201958 -0.0135064 0.0615879 
-0.0201958 -0.0135064 0.0615879 
-0.0201958 -0.0135064 0.0615879 
-0.0201958 -0.0135064 0.0615879 
1.63547e-15 1.3679e-16 5.71911e-15 
1.63547e-15 1.3679e-16 5.71911e-15 
1.63547e-15 1.3679e-16 5.71911e-15 
1.63547e-15 1.3679e-16 5.71911e-15 
-0.00424675 -0.0259713 0.07987 
-0.00424675 -0.0259713 0.07987 
-0.00424675 -0.0259713 0.07987 
-0.00424675 -0.0259713 0.07987 
-0.00553926 -0.0263717 0.0781938 
-0.00553926 -0.0263717 0.0781938 
-0.00553926 -0.0263717 0.0781938 
-0.00553926 -0.0263717 0.0781938 
-1.03768e-15 2.68132e-15 8.31535e-15 
-1.03768e-15 2.68132e-15 8.31535e-15 
-1.03768e-15 2.68132e-15 8.31535e-15 
-1.03768e-15 2.68132e-15 8.31535e-15 
-1.81838e-14 -9.313e-15 -1.08276e-14 
-1.81838e-14 -9.313e-15 -1.08276e-14 
-1.81838e-14 -9.313e-15 -1.08276e-14 
-1.81838e-14 -9.313e-15 -1.08276e-14 
3.17867e-15 -6.26521e-15 -1.85402e-14 
3.17867e-15 -6.26521e-15 -1.85402e-14 
3.17867e-15 -6.26521e-15 -1.85402e-14 
3.17867e-15 -6.26521e-15 -1.85402e-14 
4.57897e-16 9.34011e-15 -7.95994e-16 
4.57897e-16 9.34011e-15 -7.95994e-16 
4.57897e-16 9.34011e-15 -7.95994e-16 
4.57897e-16 9.34011e-15 -7.95994e-16 
2.26064e-16 -1.63999e-15 -3.89436e-16 
2.26064e-16 -1.63999e-15 -3.89436e-16 
2.26064e-16 -1.63999e-15 -3.89436e-16 
2.26064e-16 -1.63999e-15 -3.89436e-16 
-0.00930063 -0.0224297 0.0615582 
-0.00930063 -0.0224297 0.0615582 
-0.00930063 -0.0224297 0.0615582 
-0.00930063 -0.0224297 0.0615582 
-6.87928e-15 1.18239e-14 4.89911e-15 
-6.87928e-15 1.18239e-14 4.89911e-15 
-6.87928e-15 1.18239e-14 4.89911e-15 
-6.87928e-15 1.18239e-14 4.89911e-15 
-4.67149e-15 -1.43211e-15 -9.51786e-15 
-4.67149e-15 -1.43211e-15 -9.51786e-15 
-4.67149e-15 -1.43211e-15 -9.51786e-15 
-4.67149e-15 -1.43211e-15 -9.51786e-15 
-7.5493e-15 3.19469e-15 -6.10303e-15 
-7.5493e-15 3.19469e-15 -6.10303e-15 
-7.5493e-15 3.19469e-15 -6.10303e-15 
-7.5493e-15 3.19469e-15 -6.10303e-15 
1.76182e-14 1.57257e-14 -1.7587e-14 
1.76182e-14 1.57257e-14 -1.7587e-14 
1.76182e-14 1.57257e-14 -1.7587e-14 
1.76182e-14 1.57257e-14 -1.7587e-14 
-5.3122e-15 8.26807e-15 1.69933e-15 
-5.3122e-15 8.26807e-15 1.69933e-15 
-5.3122e-15 8.26807e-15 1.69933e-15 
-5.3122e-15 8.26807e-15 1.69933e-15 
-5.82303e-16 -1.50899e-15 -8.90072e-15 
-5.82303e-16 -1.50899e-15 -8.90072e-15 
-5.82303e-16 -1.50899e-15 -8.90072e-15 
-5.82303e-16 -1.50899e-15 -8.90072e-15 
-4.4274e-15 4.81904e-15 8.17584e-15 
-4.4274e-15 4.81904e-15 8.17584e-15 
-4.4274e-15 4.81904e-15 8.17584e-15 
-4.4274e-15 4.81904e-15 8.17584e-15 
-1.33908e-14 -5.55144e-15 -8.92126e-16 
-1.33908e-14 -5.55144e-15 -8.92126e-16 
-1.33908e-14 -5.55144e-15 -8.92126e-16 
-1.33908e-14 -5.55144e-15 -8.92126e-16 
-3.65688e-15 -1.70337e-14 -1.47573e-15 
-3.65688e-15 -1.70337e-14 -1.47573e-15 
-3.65688e-15 -1.70337e-14 -1.47573e-15 
-3.65688e-15 -1.70337e-14 -1.47573e-15 
-1.50593e-06 2.9394e-06 -1.03247e-05 
-1.50593e-06 2.9394e-06 -1.03247e-05 
-1.50593e-06 2.9394e-06 -1.03247e-05 
-1.50593e-06 2.9394e-06 -1.03247e-05 
-5.02148e-15 -1.52774e-15 -1.26586e-14 
-5.02148e-15 -1.52774e-15 -1.26586e-14 
-5.02148e-15 -1.52774e-15 -1.26586e-14 
-5.02148e-15 -1.52774e-15 -1.26586e-14 
-5.89943e-15 2.86552e-15 1.06756e-14 
-5.89943e-15 2.86552e-15 1.06756e-14 
-5.89943e-15 2.86552e-15 1.06756e-14 
-5.89943e-15 2.86552e-15 1.06756e-14 
-0.016483 0.011007 0.0620267 
-0.016483 0.011007 0.0620267 
-0.016483 0.011007 0.0620267 
-0.016483 0.011007 0.0620267 
9.90841e-15 1.18306e-15 -4.87421e-16 
9.90841e-15 1.18306e-15 -4.87421e-16 
9.90841e-15 1.18306e-15 -4.87421e-16 
9.90841e-15 1.18306e-15 -4.87421e-16 
5.30225e-16 3.10208e-16 -3.76833e-14 
5.30225e-16 3.10208e-16 -3.76833e-14 
5.30225e-16 3.10208e-16 -3.76833e-14 
5.30225e-16 3.10208e-16 -3.76833e-14 
-6.80909e-15 -1.0652e-15 1.18261e-15 
-6.80909e-15 -1.0652e-15 1.18261e-15 
-6.80909e-15 -1.0652e-15 1.18261e-15 
-6.80909e-15 -1.0652e-15 1.18261e-15 
7.63685e-06 -1.60408e-06 2.44295e-05 
7.63685e-06 -1.60408e-06 2.44295e-05 
7.63685e-06 -1.60408e-06 2.44295e-05 
7.63685e-06 -1.60408e-06 2.44295e-05 
7.47894e-16 5.05468e-15 -1.06959e-14 
7.47894e-16 5.05468e-15 -1.06959e-14 
7.47894e-16 5.05468e-15 -1.06959e-14 
7.47894e-16 5.05468e-15 -1.06959e-14 
-0.0205239 -0.00850126 0.0694685 
-0.0205239 -0.00850126 0.0694685 
-0.0205239 -0.00850126 0.0694685 
-0.0205239 -0.00850126 0.0694685 
4.55903e-15 1.12365e-15 -3.11425e-15 
4.55903e-15 1.12365e-15 -3.11425e-15 
4.55903e-15 1.12365e-15 -3.11425e-15 
4.55903e-15 1.12365e-15 -3.11425e-15 
-1.65044e-15 -1.73703e-15 2.71367e-15 
-1.65044e-15 -1.73703e-15 2.71367e-15 
-1.65044e-15 -1.73703e-15 2.71367e-15 
-1.65044e-15 -1.73703e-15 2.71367e-15 
-1.11687e-15 5.57372e-15 -2.48558e-15 
-1.11687e-15 5.57372e-15 -2.48558e-15 
-1.11687e-15 5.57372e-15 -2.48558e-15 
-1.11687e-15 5.57372e-15 -2.48558e-15 
-0.018055 0.00747111 0.0620013 
-0.018055 0.00747111 0.0620013 
-0.018055 0.00747111 0.0620013 
-0.018055 0.00747111 0.0620013 
1.14545e-15 3.66476e-15 7.10391e-15 
1.14545e-15 3.66476e-15 7.10391e-15 
1.14545e-15 3.66476e-15 7.10391e-15 
1.14545e-15 3.66476e-15 7.10391e-15 
-2.50425e-15 3.44746e-15 -2.53066e-16 
-2.50425e-15 3.44746e-15 -2.53066e-16 
-2.50425e-15 3.44746e-15 -2.53066e-16 
-2.50425e-15 3.44746e-15 -2.53066e-16 
0.0222363 -0.00921059 0.0615732 
0.0222363 -0.00921059 0.0615732 
0.0222363 -0.00921059 0.0615732 
0.0222363 -0.00921059 0.0615732 
6.28882e-16 -2.19553e-16 -6.09093e-15 
6.28882e-16 -2.19553e-16 -6.09093e-15 
6.28882e-16 -2.19553e-16 -6.09093e-15 
6.28882e-16 -2.19553e-16 -6.09093e-15 
2.58034e-15 -7.01991e-15 -8.88808e-15 
2.58034e-15 -7.01991e-15 -8.88808e-15 
2.58034e-15 -7.01991e-15 -8.88808e-15 
2.58034e-15 -7.01991e-15 -8.88808e-15 
0.0201261 -0.0134478 0.0615614 
0.0201261 -0.0134478 0.0615614 
0.0201261 -0.0134478 0.0615614 
0.0201261 -0.0134478 0.0615614 
0.0161238 0.0161238 0.0616829 
0.0161238 0.0161238 0.0616829 
0.0161238 0.0161238 0.0616829 
0.0161238 0.0161238 0.0616829 
2.45048e-15 6.16249e-15 -7.9307e-16 
2.45048e-15 6.16249e-15 -7.9307e-16 
2.45048e-15 6.16249e-15 -7.9307e-16 
2.45048e-15 6.16249e-15 -7.9307e-16 
4.76693e-15 2.24269e-15 2.07275e-16 
4.76693e-15 2.24269e-15 2.07275e-16 
4.76693e-15 2.24269e-15 2.07275e-16 
4.76693e-15 2.24269e-15 2.07275e-16 
-5.86409e-15 1.94437e-15 -8.21667e-15 
-5.86409e-15 1.94437e-15 -8.21667e-15 
-5.86409e-15 1.94437e-15 -8.21667e-15 
-5.86409e-15 1.94437e-15 -8.21667e-15 
9.83818e-15 -4.32578e-15 1.49331e-15 
9.83818e-15 -4.32578e-15 1.49331e-15 
9.83818e-15 -4.32578e-15 1.49331e-15 
9.83818e-15 -4.32578e-15 1.49331e-15 
-5.36578e-15 -4.64339e-15 -6.75618e-15 
-5.36578e-15 -4.64339e-15 -6.75618e-15 
-5.36578e-15 -4.64339e-15 -6.75618e-15 
-5.36578e-15 -4.64339e-15 -6.75618e-15 
9.81378e-15 -2.55003e-15 1.68772e-14 
9.81378e-15 -2.55003e-15 1.68772e-14 
9.81378e-15 -2.55003e-15 1.68772e-14 
9.81378e-15 -2.55003e-15 1.68772e-14 
-2.58252e-15 3.6002e-15 -2.89009e-16 
-2.58252e-15 3.6002e-15 -2.89009e-16 
-2.58252e-15 3.6002e-15 -2.89009e-16 
-2.58252e-15 3.6002e-15 -2.89009e-16 
0.0187677 0.012221 0.0689931 
0.0187677 0.012221 0.0689931 
0.0187677 0.012221 0.0689931 
0.0187677 0.012221 0.0689931 
2.01904e-15 -3.54444e-15 -7.21331e-15 
2.01904e-15 -3.54444e-15 -7.21331e-15 
2.01904e-15 -3.54444e-15 -7.21331e-15 
2.01904e-15 -3.54444e-15 -7.21331e-15 
-1.26396e-14 5.21845e-15 -6.00691e-15 
-1.26396e-14 5.21845e-15 -6.00691e-15 
-1.26396e-14 5.21845e-15 -6.00691e-15 
-1.26396e-14 5.21845e-15 -6.00691e-15 
-2.76487e-15 2.38542e-15 1.932e-15 
-2.76487e-15 2.38542e-15 1.932e-15 
-2.76487e-15 2.38542e-15 1.932e-15 
-2.76487e-15 2.38542e-15 1.932e-15 
5.69613e-16 3.63824e-15 -3.61185e-15 
5.69613e-16 3.63824e-15 -3.61185e-15 
5.69613e-16 3.63824e-15 -3.61185e-15 
5.69613e-16 3.63824e-15 -3.61185e-15 
-8.51221e-16 1.77223e-15 5.1502e-15 
-8.51221e-16 1.77223e-15 5.1502e-15 
-8.51221e-16 1.77223e-15 5.1502e-15 
-8.51221e-16 1.77223e-15 5.1502e-15 
2.56323e-15 5.09326e-15 1.05296e-15 
2.56323e-15 5.09326e-15 1.05296e-15 
2.56323e-15 5.09326e-15 1.05296e-15 
2.56323e-15 5.09326e-15 1.05296e-15 
5.32892e-15 -4.61442e-15 -6.73878e-15 
5.32892e-15 -4.61442e-15 -6.73878e-15 
5.32892e-15 -4.61442e-15 -6.73878e-15 
5.32892e-15 -4.61442e-15 -6.73878e-15 
-1.00977e-15 3.83047e-15 4.97644e-15 
-1.00977e-15 3.83047e-15 4.97644e-15 
-1.00977e-15 3.83047e-15 4.97644e-15 
-1.00977e-15 3.83047e-15 4.97644e-15 
-5.64276e-15 -2.59522e-15 7.55889e-15 
-5.64276e-15 -2.59522e-15 7.55889e-15 
-5.64276e-15 -2.59522e-15 7.55889e-15 
-5.64276e-15 -2.59522e-15 7.55889e-15 
2.99955e-15 -1.11087e-14 7.07605e-15 
2.99955e-15 -1.11087e-14 7.07605e-15 
2.99955e-15 -1.11087e-14 7.07605e-15 
2.99955e-15 -1.11087e-14 7.07605e-15 
0.0132045 -0.0184814 0.0707781 
0.0132045 -0.0184814 0.0707781 
0.0132045 -0.0184814 0.0707781 
0.0132045 -0.0184814 0.0707781 
-1.26294e-06 1.5361e-06 -5.84348e-06 
-1.26294e-06 1.5361e-06 -5.84348e-06 
-1.26294e-06 1.5361e-06 -5.84348e-06 
-1.26294e-06 1.5361e-06 -5.84348e-06 
-0.0073405 0.0199182 0.0707073 
-0.0073405 0.0199182 0.0707073 
-0.0073405 0.0199182 0.0707073 
-0.0073405 0.0199182 0.0707073 
-2.2808e-15 -2.13467e-15 1.4811e-15 
-2.2808e-15 -2.13467e-15 1.4811e-15 
-2.2808e-15 -2.13467e-15 1.4811e-15 
-2.2808e-15 -2.13467e-15 1.4811e-15 
7.09313e-15 -1.50563e-17 -5.7216e-15 
7.09313e-15 -1.50563e-17 -5.7216e-15 
7.09313e-15 -1.50563e-17 -5.7216e-15 
7.09313e-15 -1.50563e-17 -5.7216e-15 
-9.30621e-16 5.63902e-15 -2.40984e-15 
-9.30621e-16 5.63902e-15 -2.40984e-15 
-9.30621e-16 5.63902e-15 -2.40984e-15 
-9.30621e-16 5.63902e-15 -2.40984e-15 
1.15421e-16 -1.00852e-14 -6.38713e-15 
1.15421e-16 -1.00852e-14 -6.38713e-15 
1.15421e-16 -1.00852e-14 -6.38713e-15 
1.15421e-16 -1.00852e-14 -6.38713e-15 
-1.93703e-06 1.29478e-06 -4.79248e-06 
-1.93703e-06 1.29478e-06 -4.79248e-06 
-1.93703e-06 1.29478e-06 -4.79248e-06 
-1.93703e-06 1.29478e-06 -4.79248e-06 
4.24233e-15 3.28974e-15 -3.78425e-15 
4.24233e-15 3.28974e-15 -3.78425e-15 
4.24233e-15 3.28974e-15 -3.78425e-15 
4.24233e-15 3.28974e-15 -3.78425e-15 
7.65968e-06 -1.70201e-06 2.43009e-05 
7.65968e-06 -1.70201e-06 2.43009e-05 
7.65968e-06 -1.70201e-06 2.43009e-05 
7.65968e-06 -1.70201e-06 2.43009e-05 
1.57508e-06 6.50821e-07 5.04602e-06 
1.57508e-06 6.50821e-07 5.04602e-06 
1.57508e-06 6.50821e-07 5.04602e-06 
1.57508e-06 6.50821e-07 5.04602e-06 
0.0160438 -0.0240113 0.0611567 
0.0160438 -0.0240113 0.0611567 
0.0160438 -0.0240113 0.0611567 
0.0160438 -0.0240113 0.0611567 
-0.0212444 -0.0088193 0.0617496 
-0.0212444 -0.0088193 0.0617496 
-0.0212444 -0.0088193 0.0617496 
-0.0212444 -0.0088193 0.0617496 
9.18755e-16 -1.77401e-15 7.02343e-15 
9.18755e-16 -1.77401e-15 7.02343e-15 
9.18755e-16 -1.77401e-15 7.02343e-15 
9.18755e-16 -1.77401e-15 7.02343e-15 
-1.31197e-15 2.56185e-15 7.148e-15 
-1.31197e-15 2.56185e-15 7.148e-15 
-1.31197e-15 2.56185e-15 7.148e-15 
-1.31197e-15 2.56185e-15 7.148e-15 
1.34412e-15 -8.67991e-15 1.47303e-14 
1.34412e-15 -8.67991e-15 1.47303e-14 
1.34412e-15 -8.67991e-15 1.47303e-14 
1.34412e-15 -8.67991e-15 1.47303e-14 
-1.02605e-15 3.36089e-15 -1.08443e-14 
-1.02605e-15 3.36089e-15 -1.08443e-14 
-1.02605e-15 3.36089e-15 -1.08443e-14 
-1.02605e-15 3.36089e-15 -1.08443e-14 
-4.13857e-15 -2.75554e-15 5.51918e-15 
-4.13857e-15 -2.75554e-15 5.51918e-15 
-4.13857e-15 -2.75554e-15 5.51918e-15 
-4.13857e-15 -2.75554e-15 5.51918e-15 
-9.5876e-16 4.37205e-15 7.61574e-15 
-9.5876e-16 4.37205e-15 7.61574e-15 
-9.5876e-16 4.37205e-15 7.61574e-15 
-9.5876e-16 4.37205e-15 7.61574e-15 
4.83502e-16 -2.877e-16 -9.99201e-15 
4.83502e-16 -2.877e-16 -9.99201e-15 
4.83502e-16 -2.877e-16 -9.99201e-15 
4.83502e-16 -2.877e-16 -9.99201e-15 
-2.41517e-07 -2.41517e-07 9.46752e-07 
-2.41517e-07 -2.41517e-07 9.46752e-07 
-2.41517e-07 -2.41517e-07 9.46752e-07 
-2.41517e-07 -2.41517e-07 9.46752e-07 
0.0186487 -0.0142209 0.0642104 
0.0186487 -0.0142209 0.0642104 
0.0186487 -0.0142209 0.0642104 
0.0186487 -0.0142209 0.0642104 
-5.7453e-15 -3.30374e-16 -3.51849e-15 
-5.7453e-15 -3.30374e-16 -3.51849e-15 
-5.7453e-15 -3.30374e-16 -3.51849e-15 
-5.7453e-15 -3.30374e-16 -3.51849e-15 
-4.27407e-15 5.84984e-15 6.4166e-15 
-4.27407e-15 5.84984e-15 6.4166e-15 
-4.27407e-15 5.84984e-15 6.4166e-15 
-4.27407e-15 5.84984e-15 6.4166e-15 
0.0191208 0.0127761 0.0616661 
0.0191208 0.0127761 0.0616661 
0.0191208 0.0127761 0.0616661 
0.0191208 0.0127761 0.0616661 
-0.0170707 0.0170713 0.061667 
-0.0170707 0.0170713 0.061667 
-0.0170707 0.0170713 0.061667 
-0.0170707 0.0170713 0.061667 
2.2053e-15 1.07264e-15 1.05072e-15 
2.2053e-15 1.07264e-15 1.05072e-15 
2.2053e-15 1.07264e-15 1.05072e-15 
2.2053e-15 1.07264e-15 1.05072e-15 
-3.03847e-15 -4.1469e-15 -1.45371e-16 
-3.03847e-15 -4.1469e-15 -1.45371e-16 
-3.03847e-15 -4.1469e-15 -1.45371e-16 
-3.03847e-15 -4.1469e-15 -1.45371e-16 
-4.28385e-15 -1.69225e-15 3.42114e-15 
-4.28385e-15 -1.69225e-15 3.42114e-15 
-4.28385e-15 -1.69225e-15 3.42114e-15 
-4.28385e-15 -1.69225e-15 3.42114e-15 
0.0108325 0.0261519 0.0612062 
0.0108325 0.0261519 0.0612062 
0.0108325 0.0261519 0.0612062 
0.0108325 0.0261519 0.0612062 
-1.98296e-15 -2.70537e-15 8.74295e-15 
-1.98296e-15 -2.70537e-15 8.74295e-15 
-1.98296e-15 -2.70537e-15 8.74295e-15 
-1.98296e-15 -2.70537e-15 8.74295e-15 
5.17378e-15 3.10034e-15 1.8651e-15 
5.17378e-15 3.10034e-15 1.8651e-15 
5.17378e-15 3.10034e-15 1.8651e-15 
5.17378e-15 3.10034e-15 1.8651e-15 
0.0204499 -0.0204499 0.0611531 
0.0204499 -0.0204499 0.0611531 
0.0204499 -0.0204499 0.0611531 
0.0204499 -0.0204499 0.0611531 
-4.36627e-06 -1.80857e-06 1.01155e-05 
-4.36627e-06 -1.80857e-06 1.01155e-05 
-4.36627e-06 -1.80857e-06 1.01155e-05 
-4.36627e-06 -1.80857e-06 1.01155e-05 
-1.99805e-15 -2.99871e-15 -5.95966e-15 
-1.99805e-15 -2.99871e-15 -5.95966e-15 
-1.99805e-15 -2.99871e-15 -5.95966e-15 
-1.99805e-15 -2.99871e-15 -5.95966e-15 
-7.14514e-16 8.39689e-16 6.44029e-15 
-7.14514e-16 8.39689e-16 6.44029e-15 
-7.14514e-16 8.39689e-16 6.44029e-15 
-7.14514e-16 8.39689e-16 6.44029e-15 
1.59527e-06 6.2983e-07 4.99725e-06 
1.59527e-06 6.2983e-07 4.99725e-06 
1.59527e-06 6.2983e-07 4.99725e-06 
1.59527e-06 6.2983e-07 4.99725e-06 
-0.0165886 0.0103677 0.0630918 
-0.0165886 0.0103677 0.0630918 
-0.0165886 0.0103677 0.0630918 
-0.0165886 0.0103677 0.0630918 
3.74634e-15 -6.11449e-15 4.44089e-15 
3.74634e-15 -6.11449e-15 4.44089e-15 
3.74634e-15 -6.11449e-15 4.44089e-15 
3.74634e-15 -6.11449e-15 4.44089e-15 
1.71738e-14 -4.42449e-15 -1.25423e-15 
1.71738e-14 -4.42449e-15 -1.25423e-15 
1.71738e-14 -4.42449e-15 -1.25423e-15 
1.71738e-14 -4.42449e-15 -1.25423e-15 
4.06551e-07 -2.34614e-07 1.36161e-06 
4.06551e-07 -2.34614e-07 1.36161e-06 
4.06551e-07 -2.34614e-07 1.36161e-06 
4.06551e-07 -2.34614e-07 1.36161e-06 
3.81342e-07 -3.81331e-07 1.13983e-06 
3.81342e-07 -3.81331e-07 1.13983e-06 
3.81342e-07 -3.81331e-07 1.13983e-06 
3.81342e-07 -3.81331e-07 1.13983e-06 
2.21452e-06 -3.31234e-06 8.42159e-06 
2.21452e-06 -3.31234e-06 8.42159e-06 
2.21452e-06 -3.31234e-06 8.42159e-06 
2.21452e-06 -3.31234e-06 8.42159e-06 
-1.43398e-05 5.943e-06 -3.18449e-05 
-1.43398e-05 5.943e-06 -3.18449e-05 
-1.43398e-05 5.943e-06 -3.18449e-05 
-1.43398e-05 5.943e-06 -3.18449e-05 
-4.86583e-17 8.5419e-16 3.54055e-15 
-4.86583e-17 8.5419e-16 3.54055e-15 
-4.86583e-17 8.5419e-16 3.54055e-15 
-4.86583e-17 8.5419e-16 3.54055e-15 
-0.00244278 -0.0403105 0.121367 
-0.00244278 -0.0403105 0.121367 
-0.00244278 -0.0403105 0.121367 
-0.00244278 -0.0403105 0.121367 
-0.0184316 -0.0111376 0.0675754 
-0.0184316 -0.0111376 0.0675754 
-0.0184316 -0.0111376 0.0675754 
-0.0184316 -0.0111376 0.0675754 
-0.01266 0.0172073 0.0709433 
-0.01266 0.0172073 0.0709433 
-0.01266 0.0172073 0.0709433 
-0.01266 0.0172073 0.0709433 
0.0215557 -0.0142159 0.0706153 
0.0215557 -0.0142159 0.0706153 
0.0215557 -0.0142159 0.0706153 
0.0215557 -0.0142159 0.0706153 
-6.35431e-15 -9.00989e-15 -1.66303e-14 
-6.35431e-15 -9.00989e-15 -1.66303e-14 
-6.35431e-15 -9.00989e-15 -1.66303e-14 
-6.35431e-15 -9.00989e-15 -1.66303e-14 
-1.0328e-14 4.34405e-15 1.67863e-14 
-1.0328e-14 4.34405e-15 1.67863e-14 
-1.0328e-14 4.34405e-15 1.67863e-14 
-1.0328e-14 4.34405e-15 1.67863e-14 
0.0156857 0.0234753 0.0612126 
0.0156857 0.0234753 0.0612126 
0.0156857 0.0234753 0.0612126 
0.0156857 0.0234753 0.0612126 
0.0398446 0.0111234 0.121365 
0.0398446 0.0111234 0.121365 
0.0398446 0.0111234 0.121365 
0.0398446 0.0111234 0.121365 
-3.13845e-15 3.71311e-15 -8.24626e-16 
-3.13845e-15 3.71311e-15 -8.24626e-16 
-3.13845e-15 3.71311e-15 -8.24626e-16 
-3.13845e-15 3.71311e-15 -8.24626e-16 
-1.30972e-05 6.23011e-07 -3.99569e-05 
-1.30972e-05 6.23011e-07 -3.99569e-05 
-1.30972e-05 6.23011e-07 -3.99569e-05 
-1.30972e-05 6.23011e-07 -3.99569e-05 
-6.27528e-15 -1.37995e-14 -3.00992e-15 
-6.27528e-15 -1.37995e-14 -3.00992e-15 
-6.27528e-15 -1.37995e-14 -3.00992e-15 
-6.27528e-15 -1.37995e-14 -3.00992e-15 
-4.81935e-15 -1.68476e-15 -1.51053e-14 
-4.81935e-15 -1.68476e-15 -1.51053e-14 
-4.81935e-15 -1.68476e-15 -1.51053e-14 
-4.81935e-15 -1.68476e-15 -1.51053e-14 
-5.61883e-15 2.8136e-15 -7.20615e-15 
-5.61883e-15 2.8136e-15 -7.20615e-15 
-5.61883e-15 2.8136e-15 -7.20615e-15 
-5.61883e-15 2.8136e-15 -7.20615e-15 
0.0300539 0.00633402 0.0778754 
0.0300539 0.00633402 0.0778754 
0.0300539 0.00633402 0.0778754 
0.0300539 0.00633402 0.0778754 
-3.88911e-15 -7.03589e-15 3.20784e-15 
-3.88911e-15 -7.03589e-15 3.20784e-15 
-3.88911e-15 -7.03589e-15 3.20784e-15 
-3.88911e-15 -7.03589e-15 3.20784e-15 
-1.36964e-14 -2.82093e-15 -4.28008e-15 
-1.36964e-14 -2.82093e-15 -4.28008e-15 
-1.36964e-14 -2.82093e-15 -4.28008e-15 
-1.36964e-14 -2.82093e-15 -4.28008e-15 
1.83839e-09 -2.75134e-09 -8.67029e-09 
1.83839e-09 -2.75134e-09 -8.67029e-09 
1.83839e-09 -2.75134e-09 -8.67029e-09 
1.83839e-09 -2.75134e-09 -8.67029e-09 
-5.24212e-15 9.1798e-15 -5.3356e-15 
-5.24212e-15 9.1798e-15 -5.3356e-15 
-5.24212e-15 9.1798e-15 -5.3356e-15 
-5.24212e-15 9.1798e-15 -5.3356e-15 
-3.16111e-15 -7.44495e-16 2.00225e-16 
-3.16111e-15 -7.44495e-16 2.00225e-16 
-3.16111e-15 -7.44495e-16 2.00225e-16 
-3.16111e-15 -7.44495e-16 2.00225e-16 
-0.0179925 0.00890207 0.0595832 
-0.0179925 0.00890207 0.0595832 
-0.0179925 0.00890207 0.0595832 
-0.0179925 0.00890207 0.0595832 
-0.0281049 -0.0050709 0.0791944 
-0.0281049 -0.0050709 0.0791944 
-0.0281049 -0.0050709 0.0791944 
-0.0281049 -0.0050709 0.0791944 
7.95921e-15 1.34347e-15 7.97741e-15 
7.95921e-15 1.34347e-15 7.97741e-15 
7.95921e-15 1.34347e-15 7.97741e-15 
7.95921e-15 1.34347e-15 7.97741e-15 
-2.37028e-07 -2.52918e-07 9.26485e-07 
-2.37028e-07 -2.52918e-07 9.26485e-07 
-2.37028e-07 -2.52918e-07 9.26485e-07 
-2.37028e-07 -2.52918e-07 9.26485e-07 
-2.76774e-15 3.08578e-15 -9.45705e-15 
-2.76774e-15 3.08578e-15 -9.45705e-15 
-2.76774e-15 3.08578e-15 -9.45705e-15 
-2.76774e-15 3.08578e-15 -9.45705e-15 
0.00648562 -0.0237243 0.0753646 
0.00648562 -0.0237243 0.0753646 
0.00648562 -0.0237243 0.0753646 
0.00648562 -0.0237243 0.0753646 
8.1334e-15 5.32577e-15 -2.7302e-14 
8.1334e-15 5.32577e-15 -2.7302e-14 
8.1334e-15 5.32577e-15 -2.7302e-14 
8.1334e-15 5.32577e-15 -2.7302e-14 
6.09386e-15 5.96169e-15 2.41608e-14 
6.09386e-15 5.96169e-15 2.41608e-14 
6.09386e-15 5.96169e-15 2.41608e-14 
6.09386e-15 5.96169e-15 2.41608e-14 
-0.0171777 -0.0171752 0.0615736 
-0.0171777 -0.0171752 0.0615736 
-0.0171777 -0.0171752 0.0615736 
-0.0171777 -0.0171752 0.0615736 
-1.86269e-15 5.9333e-15 -1.81058e-14 
-1.86269e-15 5.9333e-15 -1.81058e-14 
-1.86269e-15 5.9333e-15 -1.81058e-14 
-1.86269e-15 5.9333e-15 -1.81058e-14 
4.39307e-15 4.8937e-15 3.92966e-15 
4.39307e-15 4.8937e-15 3.92966e-15 
4.39307e-15 4.8937e-15 3.92966e-15 
4.39307e-15 4.8937e-15 3.92966e-15 
3.19931e-15 -1.40611e-15 1.40951e-14 
3.19931e-15 -1.40611e-15 1.40951e-14 
3.19931e-15 -1.40611e-15 1.40951e-14 
3.19931e-15 -1.40611e-15 1.40951e-14 
8.26833e-07 -3.27598e-06 1.04904e-05 
8.26833e-07 -3.27598e-06 1.04904e-05 
8.26833e-07 -3.27598e-06 1.04904e-05 
8.26833e-07 -3.27598e-06 1.04904e-05 
-0.0134946 -0.0201958 0.0615755 
-0.0134946 -0.0201958 0.0615755 
-0.0134946 -0.0201958 0.0615755 
-0.0134946 -0.0201958 0.0615755 
1.93491e-15 -9.14719e-15 -7.24933e-15 
1.93491e-15 -9.14719e-15 -7.24933e-15 
1.93491e-15 -9.14719e-15 -7.24933e-15 
1.93491e-15 -9.14719e-15 -7.24933e-15 
1.7135e-09 -2.95012e-09 -8.28357e-09 
1.7135e-09 -2.95012e-09 -8.28357e-09 
1.7135e-09 -2.95012e-09 -8.28357e-09 
1.7135e-09 -2.95012e-09 -8.28357e-09 
0.0270501 -0.00228105 0.0889731 
0.0270501 -0.00228105 0.0889731 
0.0270501 -0.00228105 0.0889731 
0.0270501 -0.00228105 0.0889731 
5.1303e-06 1.23856e-05 -3.00054e-05 
5.1303e-06 1.23856e-05 -3.00054e-05 
5.1303e-06 1.23856e-05 -3.00054e-05 
5.1303e-06 1.23856e-05 -3.00054e-05 
0.00662322 -0.0314308 0.0777801 
0.00662322 -0.0314308 0.0777801 
0.00662322 -0.0314308 0.0777801 
0.00662322 -0.0314308 0.0777801 
2.17813e-15 3.92381e-15 -1.7727e-14 
2.17813e-15 3.92381e-15 -1.7727e-14 
2.17813e-15 3.92381e-15 -1.7727e-14 
2.17813e-15 3.92381e-15 -1.7727e-14 
0.0195407 0.00949348 0.0670159 
0.0195407 0.00949348 0.0670159 
0.0195407 0.00949348 0.0670159 
0.0195407 0.00949348 0.0670159 
3.75939e-15 5.96834e-16 1.11022e-14 
3.75939e-15 5.96834e-16 1.11022e-14 
3.75939e-15 5.96834e-16 1.11022e-14 
3.75939e-15 5.96834e-16 1.11022e-14 
-0.0283807 -0.0059412 0.078067 
-0.0283807 -0.0059412 0.078067 
-0.0283807 -0.0059412 0.078067 
-0.0283807 -0.0059412 0.078067 
0.0359124 0.00215699 0.121365 
0.0359124 0.00215699 0.121365 
0.0359124 0.00215699 0.121365 
0.0359124 0.00215699 0.121365 
-3.51634e-15 -9.03613e-15 -1.11008e-14 
-3.51634e-15 -9.03613e-15 -1.11008e-14 
-3.51634e-15 -9.03613e-15 -1.11008e-14 
-3.51634e-15 -9.03613e-15 -1.11008e-14 
0.00194766 0.0243358 0.0748896 
0.00194766 0.0243358 0.0748896 
0.00194766 0.0243358 0.0748896 
0.00194766 0.0243358 0.0748896 
-0.0271753 0.0109428 0.0709968 
-0.0271753 0.0109428 0.0709968 
-0.0271753 0.0109428 0.0709968 
-0.0271753 0.0109428 0.0709968 
5.84471e-15 -2.56973e-16 3.25792e-17 
5.84471e-15 -2.56973e-16 3.25792e-17 
5.84471e-15 -2.56973e-16 3.25792e-17 
5.84471e-15 -2.56973e-16 3.25792e-17 
4.80593e-07 -1.41002e-09 1.47907e-06 
4.80593e-07 -1.41002e-09 1.47907e-06 
4.80593e-07 -1.41002e-09 1.47907e-06 
4.80593e-07 -1.41002e-09 1.47907e-06 
0.00189013 -0.0297702 0.0838749 
0.00189013 -0.0297702 0.0838749 
0.00189013 -0.0297702 0.0838749 
0.00189013 -0.0297702 0.0838749 
-2.19192e-15 5.75372e-16 1.14838e-14 
-2.19192e-15 5.75372e-16 1.14838e-14 
-2.19192e-15 5.75372e-16 1.14838e-14 
-2.19192e-15 5.75372e-16 1.14838e-14 
-2.65036e-14 -2.21722e-14 1.82709e-14 
-2.65036e-14 -2.21722e-14 1.82709e-14 
-2.65036e-14 -2.21722e-14 1.82709e-14 
-2.65036e-14 -2.21722e-14 1.82709e-14 
6.60349e-06 1.05521e-05 -3.37462e-05 
6.60349e-06 1.05521e-05 -3.37462e-05 
6.60349e-06 1.05521e-05 -3.37462e-05 
6.60349e-06 1.05521e-05 -3.37462e-05 
-1.42946e-15 5.49293e-15 6.68616e-15 
-1.42946e-15 5.49293e-15 6.68616e-15 
-1.42946e-15 5.49293e-15 6.68616e-15 
-1.42946e-15 5.49293e-15 6.68616e-15 
-5.93829e-15 1.41779e-14 -1.76705e-14 
-5.93829e-15 1.41779e-14 -1.76705e-14 
-5.93829e-15 1.41779e-14 -1.76705e-14 
-5.93829e-15 1.41779e-14 -1.76705e-14 
-1.78561e-15 -9.15144e-15 4.44089e-15 
-1.78561e-15 -9.15144e-15 4.44089e-15 
-1.78561e-15 -9.15144e-15 4.44089e-15 
-1.78561e-15 -9.15144e-15 4.44089e-15 
0.0212205 -0.00239039 0.0723018 
0.0212205 -0.00239039 0.0723018 
0.0212205 -0.00239039 0.0723018 
0.0212205 -0.00239039 0.0723018 
1.87594e-06 1.74234e-06 -5.37058e-06 
1.87594e-06 1.74234e-06 -5.37058e-06 
1.87594e-06 1.74234e-06 -5.37058e-06 
1.87594e-06 1.74234e-06 -5.37058e-06 
4.88245e-17 3.14854e-15 1.50964e-14 
4.88245e-17 3.14854e-15 1.50964e-14 
4.88245e-17 3.14854e-15 1.50964e-14 
4.88245e-17 3.14854e-15 1.50964e-14 
-4.67162e-15 -3.46437e-15 2.12522e-14 
-4.67162e-15 -3.46437e-15 2.12522e-14 
-4.67162e-15 -3.46437e-15 2.12522e-14 
-4.67162e-15 -3.46437e-15 2.12522e-14 
3.99873e-15 4.56668e-15 3.89414e-15 
3.99873e-15 4.56668e-15 3.89414e-15 
3.99873e-15 4.56668e-15 3.89414e-15 
3.99873e-15 4.56668e-15 3.89414e-15 
1.2396e-14 2.75605e-15 1.83516e-15 
1.2396e-14 2.75605e-15 1.83516e-15 
1.2396e-14 2.75605e-15 1.83516e-15 
1.2396e-14 2.75605e-15 1.83516e-15 
-0.00720981 0.0441115 0.121365 
-0.00720981 0.0441115 0.121365 
-0.00720981 0.0441115 0.121365 
-0.00720981 0.0441115 0.121365 
-0.0464733 -0.00670425 0.121367 
-0.0464733 -0.00670425 0.121367 
-0.0464733 -0.00670425 0.121367 
-0.0464733 -0.00670425 0.121367 
0.0105878 0.0175989 0.07067 
0.0105878 0.0175989 0.07067 
0.0105878 0.0175989 0.07067 
0.0105878 0.0175989 0.07067 
0.0236804 -0.0130522 0.0921092 
0.0236804 -0.0130522 0.0921092 
0.0236804 -0.0130522 0.0921092 
0.0236804 -0.0130522 0.0921092 
-1.26289e-14 3.47933e-15 -2.38219e-14 
-1.26289e-14 3.47933e-15 -2.38219e-14 
-1.26289e-14 3.47933e-15 -2.38219e-14 
-1.26289e-14 3.47933e-15 -2.38219e-14 
4.99734e-07 3.00032e-08 1.47907e-06 
4.99734e-07 3.00032e-08 1.47907e-06 
4.99734e-07 3.00032e-08 1.47907e-06 
4.99734e-07 3.00032e-08 1.47907e-06 
1.9689e-06 1.31558e-06 -6.10229e-06 
1.9689e-06 1.31558e-06 -6.10229e-06 
1.9689e-06 1.31558e-06 -6.10229e-06 
1.9689e-06 1.31558e-06 -6.10229e-06 
5.41157e-15 -8.16295e-15 -6.89738e-15 
5.41157e-15 -8.16295e-15 -6.89738e-15 
5.41157e-15 -8.16295e-15 -6.89738e-15 
5.41157e-15 -8.16295e-15 -6.89738e-15 
2.50729e-15 3.05521e-15 -5.23866e-15 
2.50729e-15 3.05521e-15 -5.23866e-15 
2.50729e-15 3.05521e-15 -5.23866e-15 
2.50729e-15 3.05521e-15 -5.23866e-15 
-0.0186776 0.0122645 0.06987 
-0.0186776 0.0122645 0.06987 
-0.0186776 0.0122645 0.06987 
-0.0186776 0.0122645 0.06987 
-0.00627695 0.0299788 0.0779563 
-0.00627695 0.0299788 0.0779563 
-0.00627695 0.0299788 0.0779563 
-0.00627695 0.0299788 0.0779563 
-4.05549e-06 -2.84711e-07 1.24672e-05 
-4.05549e-06 -2.84711e-07 1.24672e-05 
-4.05549e-06 -2.84711e-07 1.24672e-05 
-4.05549e-06 -2.84711e-07 1.24672e-05 
-0.026217 0.00550676 0.0782045 
-0.026217 0.00550676 0.0782045 
-0.026217 0.00550676 0.0782045 
-0.026217 0.00550676 0.0782045 
-0.00241226 -0.0402954 0.121367 
-0.00241226 -0.0402954 0.121367 
-0.00241226 -0.0402954 0.121367 
-0.00241226 -0.0402954 0.121367 
-0.00204265 0.028771 0.0834705 
-0.00204265 0.028771 0.0834705 
-0.00204265 0.028771 0.0834705 
-0.00204265 0.028771 0.0834705 
-1.52521e-14 -1.64393e-14 1.07109e-15 
-1.52521e-14 -1.64393e-14 1.07109e-15 
-1.52521e-14 -1.64393e-14 1.07109e-15 
-1.52521e-14 -1.64393e-14 1.07109e-15 
-2.32794e-15 3.69423e-15 2.22045e-15 
-2.32794e-15 3.69423e-15 2.22045e-15 
-2.32794e-15 3.69423e-15 2.22045e-15 
-2.32794e-15 3.69423e-15 2.22045e-15 
-7.18283e-15 -3.06967e-15 1.11022e-14 
-7.18283e-15 -3.06967e-15 1.11022e-14 
-7.18283e-15 -3.06967e-15 1.11022e-14 
-7.18283e-15 -3.06967e-15 1.11022e-14 
-8.4907e-17 7.24299e-16 -8.62182e-15 
-8.4907e-17 7.24299e-16 -8.62182e-15 
-8.4907e-17 7.24299e-16 -8.62182e-15 
-8.4907e-17 7.24299e-16 -8.62182e-15 
0.0199339 0.0125493 0.0787205 
0.0199339 0.0125493 0.0787205 
0.0199339 0.0125493 0.0787205 
0.0199339 0.0125493 0.0787205 
1.27136e-15 -7.35253e-15 -1.38653e-14 
1.27136e-15 -7.35253e-15 -1.38653e-14 
1.27136e-15 -7.35253e-15 -1.38653e-14 
1.27136e-15 -7.35253e-15 -1.38653e-14 
-3.05979e-15 1.36071e-15 -1.78258e-14 
-3.05979e-15 1.36071e-15 -1.78258e-14 
-3.05979e-15 1.36071e-15 -1.78258e-14 
-3.05979e-15 1.36071e-15 -1.78258e-14 
-0.007093 -0.0198774 0.077969 
-0.007093 -0.0198774 0.077969 
-0.007093 -0.0198774 0.077969 
-0.007093 -0.0198774 0.077969 
7.8083e-15 1.63711e-15 8.95234e-15 
7.8083e-15 1.63711e-15 8.95234e-15 
7.8083e-15 1.63711e-15 8.95234e-15 
7.8083e-15 1.63711e-15 8.95234e-15 
-3.81976e-15 -1.35799e-15 2.35554e-14 
-3.81976e-15 -1.35799e-15 2.35554e-14 
-3.81976e-15 -1.35799e-15 2.35554e-14 
-3.81976e-15 -1.35799e-15 2.35554e-14 
-5.86397e-15 -2.1049e-16 3.70791e-14 
-5.86397e-15 -2.1049e-16 3.70791e-14 
-5.86397e-15 -2.1049e-16 3.70791e-14 
-5.86397e-15 -2.1049e-16 3.70791e-14 
5.52841e-15 8.41581e-17 7.43073e-15 
5.52841e-15 8.41581e-17 7.43073e-15 
5.52841e-15 8.41581e-17 7.43073e-15 
5.52841e-15 8.41581e-17 7.43073e-15 
-0.0180726 -0.0109126 0.0778298 
-0.0180726 -0.0109126 0.0778298 
-0.0180726 -0.0109126 0.0778298 
-0.0180726 -0.0109126 0.0778298 
1.32377e-15 -1.06292e-14 1.36571e-14 
1.32377e-15 -1.06292e-14 1.36571e-14 
1.32377e-15 -1.06292e-14 1.36571e-14 
1.32377e-15 -1.06292e-14 1.36571e-14 
-2.1681e-10 2.1681e-10 7.09531e-10 
-2.1681e-10 2.1681e-10 7.09531e-10 
-2.1681e-10 2.1681e-10 7.09531e-10 
-2.1681e-10 2.1681e-10 7.09531e-10 
-2.50499e-16 -9.74807e-16 1.16967e-14 
-2.50499e-16 -9.74807e-16 1.16967e-14 
-2.50499e-16 -9.74807e-16 1.16967e-14 
-2.50499e-16 -9.74807e-16 1.16967e-14 
3.54496e-15 -3.47103e-17 2.26695e-14 
3.54496e-15 -3.47103e-17 2.26695e-14 
3.54496e-15 -3.47103e-17 2.26695e-14 
3.54496e-15 -3.47103e-17 2.26695e-14 
1.59768e-16 -2.06026e-15 2.22045e-15 
1.59768e-16 -2.06026e-15 2.22045e-15 
1.59768e-16 -2.06026e-15 2.22045e-15 
1.59768e-16 -2.06026e-15 2.22045e-15 
-4.46428e-15 -2.4123e-15 -2.50013e-15 
-4.46428e-15 -2.4123e-15 -2.50013e-15 
-4.46428e-15 -2.4123e-15 -2.50013e-15 
-4.46428e-15 -2.4123e-15 -2.50013e-15 
0.00258762 -0.0431055 0.121367 
0.00258762 -0.0431055 0.121367 
0.00258762 -0.0431055 0.121367 
0.00258762 -0.0431055 0.121367 
-8.03649e-15 -3.72528e-15 -1.46735e-14 
-8.03649e-15 -3.72528e-15 -1.46735e-14 
-8.03649e-15 -3.72528e-15 -1.46735e-14 
-8.03649e-15 -3.72528e-15 -1.46735e-14 
4.91102e-07 -2.93996e-08 1.47907e-06 
4.91102e-07 -2.93996e-08 1.47907e-06 
4.91102e-07 -2.93996e-08 1.47907e-06 
4.91102e-07 -2.93996e-08 1.47907e-06 
6.82804e-15 -1.02529e-15 8.76285e-15 
6.82804e-15 -1.02529e-15 8.76285e-15 
6.82804e-15 -1.02529e-15 8.76285e-15 
6.82804e-15 -1.02529e-15 8.76285e-15 
4.21391e-15 -8.80821e-15 2.33705e-14 
4.21391e-15 -8.80821e-15 2.33705e-14 
4.21391e-15 -8.80821e-15 2.33705e-14 
4.21391e-15 -8.80821e-15 2.33705e-14 
-1.00257e-14 -5.19428e-15 9.27774e-15 
-1.00257e-14 -5.19428e-15 9.27774e-15 
-1.00257e-14 -5.19428e-15 9.27774e-15 
-1.00257e-14 -5.19428e-15 9.27774e-15 
-0.0025051 0.0419616 0.121365 
-0.0025051 0.0419616 0.121365 
-0.0025051 0.0419616 0.121365 
-0.0025051 0.0419616 0.121365 
9.54559e-15 -2.12531e-15 -1.3708e-14 
9.54559e-15 -2.12531e-15 -1.3708e-14 
9.54559e-15 -2.12531e-15 -1.3708e-14 
9.54559e-15 -2.12531e-15 -1.3708e-14 
-0.0443692 -0.00264924 0.121367 
-0.0443692 -0.00264924 0.121367 
-0.0443692 -0.00264924 0.121367 
-0.0443692 -0.00264924 0.121367 
2.36575e-15 -1.23244e-15 -8.337e-15 
2.36575e-15 -1.23244e-15 -8.337e-15 
2.36575e-15 -1.23244e-15 -8.337e-15 
2.36575e-15 -1.23244e-15 -8.337e-15 
8.47363e-15 3.48613e-15 -2.39497e-15 
8.47363e-15 3.48613e-15 -2.39497e-15 
8.47363e-15 3.48613e-15 -2.39497e-15 
8.47363e-15 3.48613e-15 -2.39497e-15 
-8.74956e-15 1.30348e-14 -6.07915e-16 
-8.74956e-15 1.30348e-14 -6.07915e-16 
-8.74956e-15 1.30348e-14 -6.07915e-16 
-8.74956e-15 1.30348e-14 -6.07915e-16 
1.38277e-14 -3.98405e-15 -1.58353e-15 
1.38277e-14 -3.98405e-15 -1.58353e-15 
1.38277e-14 -3.98405e-15 -1.58353e-15 
1.38277e-14 -3.98405e-15 -1.58353e-15 
-5.29558e-15 -2.11947e-15 1.24044e-14 
-5.29558e-15 -2.11947e-15 1.24044e-14 
-5.29558e-15 -2.11947e-15 1.24044e-14 
-5.29558e-15 -2.11947e-15 1.24044e-14 
2.64918e-15 -3.49464e-16 2.50169e-15 
2.64918e-15 -3.49464e-16 2.50169e-15 
2.64918e-15 -3.49464e-16 2.50169e-15 
2.64918e-15 -3.49464e-16 2.50169e-15 
-2.75568e-15 7.33813e-16 2.69145e-14 
-2.75568e-15 7.33813e-16 2.69145e-14 
-2.75568e-15 7.33813e-16 2.69145e-14 
-2.75568e-15 7.33813e-16 2.69145e-14 
-3.46844e-15 1.39305e-17 -3.58158e-15 
-3.46844e-15 1.39305e-17 -3.58158e-15 
-3.46844e-15 1.39305e-17 -3.58158e-15 
-3.46844e-15 1.39305e-17 -3.58158e-15 
1.29159e-14 4.26473e-15 -3.75974e-15 
1.29159e-14 4.26473e-15 -3.75974e-15 
1.29159e-14 4.26473e-15 -3.75974e-15 
1.29159e-14 4.26473e-15 -3.75974e-15 
2.19479e-15 7.29768e-16 -2.98092e-14 
2.19479e-15 7.29768e-16 -2.98092e-14 
2.19479e-15 7.29768e-16 -2.98092e-14 
2.19479e-15 7.29768e-16 -2.98092e-14 
4.9726e-15 -1.39372e-15 -9.83641e-16 
4.9726e-15 -1.39372e-15 -9.83641e-16 
4.9726e-15 -1.39372e-15 -9.83641e-16 
4.9726e-15 -1.39372e-15 -9.83641e-16 
-5.65357e-15 3.92198e-16 4.9318e-15 
-5.65357e-15 3.92198e-16 4.9318e-15 
-5.65357e-15 3.92198e-16 4.9318e-15 
-5.65357e-15 3.92198e-16 4.9318e-15 
-3.59086e-15 2.56927e-15 2.76905e-14 
-3.59086e-15 2.56927e-15 2.76905e-14 
-3.59086e-15 2.56927e-15 2.76905e-14 
-3.59086e-15 2.56927e-15 2.76905e-14 
-2.46238e-14 4.10407e-15 -4.71194e-15 
-2.46238e-14 4.10407e-15 -4.71194e-15 
-2.46238e-14 4.10407e-15 -4.71194e-15 
-2.46238e-14 4.10407e-15 -4.71194e-15 
3.00422e-15 -2.00682e-15 1.40946e-14 
3.00422e-15 -2.00682e-15 1.40946e-14 
3.00422e-15 -2.00682e-15 1.40946e-14 
3.00422e-15 -2.00682e-15 1.40946e-14 
-3.05535e-15 5.44462e-15 1.11022e-14 
-3.05535e-15 5.44462e-15 1.11022e-14 
-3.05535e-15 5.44462e-15 1.11022e-14 
-3.05535e-15 5.44462e-15 1.11022e-14 
-4.08725e-15 -1.49e-15 6.96307e-15 
-4.08725e-15 -1.49e-15 6.96307e-15 
-4.08725e-15 -1.49e-15 6.96307e-15 
-4.08725e-15 -1.49e-15 6.96307e-15 
-7.51223e-15 -3.44976e-16 4.44089e-15 
-7.51223e-15 -3.44976e-16 4.44089e-15 
-7.51223e-15 -3.44976e-16 4.44089e-15 
-7.51223e-15 -3.44976e-16 4.44089e-15 
-7.44094e-15 2.069e-15 -2.61214e-14 
-7.44094e-15 2.069e-15 -2.61214e-14 
-7.44094e-15 2.069e-15 -2.61214e-14 
-7.44094e-15 2.069e-15 -2.61214e-14 
-2.92198e-15 -1.9889e-15 -9.57073e-15 
-2.92198e-15 -1.9889e-15 -9.57073e-15 
-2.92198e-15 -1.9889e-15 -9.57073e-15 
-2.92198e-15 -1.9889e-15 -9.57073e-15 
3.50137e-15 2.94115e-16 1.51924e-14 
3.50137e-15 2.94115e-16 1.51924e-14 
3.50137e-15 2.94115e-16 1.51924e-14 
3.50137e-15 2.94115e-16 1.51924e-14 
6.8634e-15 -3.42093e-16 6.51755e-15 
6.8634e-15 -3.42093e-16 6.51755e-15 
6.8634e-15 -3.42093e-16 6.51755e-15 
6.8634e-15 -3.42093e-16 6.51755e-15 
-4.93188e-15 -1.52044e-15 -2.94791e-15 
-4.93188e-15 -1.52044e-15 -2.94791e-15 
-4.93188e-15 -1.52044e-15 -2.94791e-15 
-4.93188e-15 -1.52044e-15 -2.94791e-15 
-2.29143e-15 -2.1833e-16 6.82334e-15 
-2.29143e-15 -2.1833e-16 6.82334e-15 
-2.29143e-15 -2.1833e-16 6.82334e-15 
-2.29143e-15 -2.1833e-16 6.82334e-15 
1.1271e-14 -3.10962e-15 2.48979e-14 
1.1271e-14 -3.10962e-15 2.48979e-14 
1.1271e-14 -3.10962e-15 2.48979e-14 
1.1271e-14 -3.10962e-15 2.48979e-14 
4.47679e-15 -5.14692e-16 -2.52626e-14 
4.47679e-15 -5.14692e-16 -2.52626e-14 
4.47679e-15 -5.14692e-16 -2.52626e-14 
4.47679e-15 -5.14692e-16 -2.52626e-14 
4.92863e-15 -1.23554e-15 1.82331e-14 
4.92863e-15 -1.23554e-15 1.82331e-14 
4.92863e-15 -1.23554e-15 1.82331e-14 
4.92863e-15 -1.23554e-15 1.82331e-14 
-2.52858e-10 1.27526e-10 8.69304e-10 
-2.52858e-10 1.27526e-10 8.69304e-10 
-2.52858e-10 1.27526e-10 8.69304e-10 
-2.52858e-10 1.27526e-10 8.69304e-10 
9.19982e-16 6.25373e-16 6.07492e-15 
9.19982e-16 6.25373e-16 6.07492e-15 
9.19982e-16 6.25373e-16 6.07492e-15 
9.19982e-16 6.25373e-16 6.07492e-15 
-2.07102e-14 -4.29806e-15 -7.23627e-15 
-2.07102e-14 -4.29806e-15 -7.23627e-15 
-2.07102e-14 -4.29806e-15 -7.23627e-15 
-2.07102e-14 -4.29806e-15 -7.23627e-15 
2.83795e-15 3.45977e-15 -2.67788e-14 
2.83795e-15 3.45977e-15 -2.67788e-14 
2.83795e-15 3.45977e-15 -2.67788e-14 
2.83795e-15 3.45977e-15 -2.67788e-14 
0.00302156 0.0503539 0.121365 
0.00302156 0.0503539 0.121365 
0.00302156 0.0503539 0.121365 
0.00302156 0.0503539 0.121365 
7.04204e-15 -6.74002e-15 5.20998e-15 
7.04204e-15 -6.74002e-15 5.20998e-15 
7.04204e-15 -6.74002e-15 5.20998e-15 
7.04204e-15 -6.74002e-15 5.20998e-15 
-9.88166e-16 -3.27615e-15 -2.51977e-14 
-9.88166e-16 -3.27615e-15 -2.51977e-14 
-9.88166e-16 -3.27615e-15 -2.51977e-14 
-9.88166e-16 -3.27615e-15 -2.51977e-14 
7.63646e-15 8.9084e-15 -1.36379e-14 
7.63646e-15 8.9084e-15 -1.36379e-14 
7.63646e-15 8.9084e-15 -1.36379e-14 
7.63646e-15 8.9084e-15 -1.36379e-14 
-1.16902e-14 2.06939e-15 1.39576e-14 
-1.16902e-14 2.06939e-15 1.39576e-14 
-1.16902e-14 2.06939e-15 1.39576e-14 
-1.16902e-14 2.06939e-15 1.39576e-14 
0.0479273 -0.00287629 0.121365 
0.0479273 -0.00287629 0.121365 
0.0479273 -0.00287629 0.121365 
0.0479273 -0.00287629 0.121365 
4.3568e-15 -5.0731e-15 9.31107e-15 
4.3568e-15 -5.0731e-15 9.31107e-15 
4.3568e-15 -5.0731e-15 9.31107e-15 
4.3568e-15 -5.0731e-15 9.31107e-15 
-7.93144e-15 -6.14413e-15 2.22045e-15 
-7.93144e-15 -6.14413e-15 2.22045e-15 
-7.93144e-15 -6.14413e-15 2.22045e-15 
-7.93144e-15 -6.14413e-15 2.22045e-15 
6.67417e-15 4.68626e-15 9.42186e-15 
6.67417e-15 4.68626e-15 9.42186e-15 
6.67417e-15 4.68626e-15 9.42186e-15 
6.67417e-15 4.68626e-15 9.42186e-15 
3.35193e-15 8.85079e-15 7.47032e-15 
3.35193e-15 8.85079e-15 7.47032e-15 
3.35193e-15 8.85079e-15 7.47032e-15 
3.35193e-15 8.85079e-15 7.47032e-15 
0.0311451 -0.00871353 0.0986364 
0.0311451 -0.00871353 0.0986364 
0.0311451 -0.00871353 0.0986364 
0.0311451 -0.00871353 0.0986364 
3.00091e-15 1.17589e-15 2.31944e-14 
3.00091e-15 1.17589e-15 2.31944e-14 
3.00091e-15 1.17589e-15 2.31944e-14 
3.00091e-15 1.17589e-15 2.31944e-14 
-0.051929 0.0031087 0.121367 
-0.051929 0.0031087 0.121367 
-0.051929 0.0031087 0.121367 
-0.051929 0.0031087 0.121367 
0.00832911 -0.0349803 0.0989838 
0.00832911 -0.0349803 0.0989838 
0.00832911 -0.0349803 0.0989838 
0.00832911 -0.0349803 0.0989838 
-1.85483e-15 -2.5718e-15 2.01238e-14 
-1.85483e-15 -2.5718e-15 2.01238e-14 
-1.85483e-15 -2.5718e-15 2.01238e-14 
-1.85483e-15 -2.5718e-15 2.01238e-14 
1.23944e-15 -9.61616e-15 1.82464e-14 
1.23944e-15 -9.61616e-15 1.82464e-14 
1.23944e-15 -9.61616e-15 1.82464e-14 
1.23944e-15 -9.61616e-15 1.82464e-14 
8.09002e-15 3.94997e-15 7.07231e-15 
8.09002e-15 3.94997e-15 7.07231e-15 
8.09002e-15 3.94997e-15 7.07231e-15 
8.09002e-15 3.94997e-15 7.07231e-15 
-2.60668e-15 8.39849e-15 -2.78212e-14 
-2.60668e-15 8.39849e-15 -2.78212e-14 
-2.60668e-15 8.39849e-15 -2.78212e-14 
-2.60668e-15 8.39849e-15 -2.78212e-14 
5.13085e-16 -7.46851e-15 9.87363e-16 
5.13085e-16 -7.46851e-15 9.87363e-16 
5.13085e-16 -7.46851e-15 9.87363e-16 
5.13085e-16 -7.46851e-15 9.87363e-16 
-8.52568e-15 -6.71299e-15 -1.58627e-14 
-8.52568e-15 -6.71299e-15 -1.58627e-14 
-8.52568e-15 -6.71299e-15 -1.58627e-14 
-8.52568e-15 -6.71299e-15 -1.58627e-14 
-4.23685e-15 1.97004e-15 -6.33201e-15 
-4.23685e-15 1.97004e-15 -6.33201e-15 
-4.23685e-15 1.97004e-15 -6.33201e-15 
-4.23685e-15 1.97004e-15 -6.33201e-15 
-3.93607e-15 -2.44652e-15 -3.24837e-15 
-3.93607e-15 -2.44652e-15 -3.24837e-15 
-3.93607e-15 -2.44652e-15 -3.24837e-15 
-3.93607e-15 -2.44652e-15 -3.24837e-15 
-1.21325e-15 7.93521e-16 8.1079e-15 
-1.21325e-15 7.93521e-16 8.1079e-15 
-1.21325e-15 7.93521e-16 8.1079e-15 
-1.21325e-15 7.93521e-16 8.1079e-15 
3.10513e-06 -6.99196e-06 1.60946e-05 
3.10513e-06 -6.99196e-06 1.60946e-05 
3.10513e-06 -6.99196e-06 1.60946e-05 
3.10513e-06 -6.99196e-06 1.60946e-05 
-0.0183887 -0.00982897 0.0655183 
-0.0183887 -0.00982897 0.0655183 
-0.0183887 -0.00982897 0.0655183 
-0.0183887 -0.00982897 0.0655183 
-1.81626e-15 -1.43541e-15 3.84714e-15 
-1.81626e-15 -1.43541e-15 3.84714e-15 
-1.81626e-15 -1.43541e-15 3.84714e-15 
-1.81626e-15 -1.43541e-15 3.84714e-15 
2.39165e-07 -3.97638e-07 5.94317e-07 
2.39165e-07 -3.97638e-07 5.94317e-07 
2.39165e-07 -3.97638e-07 5.94317e-07 
2.39165e-07 -3.97638e-07 5.94317e-07 
0.00812672 0.0371032 0.0991552 
0.00812672 0.0371032 0.0991552 
0.00812672 0.0371032 0.0991552 
0.00812672 0.0371032 0.0991552 
3.49424e-06 1.61626e-05 -4.22434e-06 
3.49424e-06 1.61626e-05 -4.22434e-06 
3.49424e-06 1.61626e-05 -4.22434e-06 
3.49424e-06 1.61626e-05 -4.22434e-06 
-0.0105448 -0.0128481 0.0651199 
-0.0105448 -0.0128481 0.0651199 
-0.0105448 -0.0128481 0.0651199 
-0.0105448 -0.0128481 0.0651199 
4.03806e-15 5.30362e-16 -9.15039e-15 
4.03806e-15 5.30362e-16 -9.15039e-15 
4.03806e-15 5.30362e-16 -9.15039e-15 
4.03806e-15 5.30362e-16 -9.15039e-15 
-9.54932e-06 9.0241e-07 -1.60441e-05 
-9.54932e-06 9.0241e-07 -1.60441e-05 
-9.54932e-06 9.0241e-07 -1.60441e-05 
-9.54932e-06 9.0241e-07 -1.60441e-05 
-1.45087e-14 -1.50814e-14 -3.006e-14 
-1.45087e-14 -1.50814e-14 -3.006e-14 
-1.45087e-14 -1.50814e-14 -3.006e-14 
-1.45087e-14 -1.50814e-14 -3.006e-14 
-0.0388675 0.00795337 0.0993021 
-0.0388675 0.00795337 0.0993021 
-0.0388675 0.00795337 0.0993021 
-0.0388675 0.00795337 0.0993021 
7.30228e-11 2.50179e-10 3.21674e-10 
7.30228e-11 2.50179e-10 3.21674e-10 
7.30228e-11 2.50179e-10 3.21674e-10 
7.30228e-11 2.50179e-10 3.21674e-10 
-0.0179616 0.00960975 0.065488 
-0.0179616 0.00960975 0.065488 
-0.0179616 0.00960975 0.065488 
-0.0179616 0.00960975 0.065488 
-4.99466e-07 -1.05801e-08 -7.89999e-07 
-4.99466e-07 -1.05801e-08 -7.89999e-07 
-4.99466e-07 -1.05801e-08 -7.89999e-07 
-4.99466e-07 -1.05801e-08 -7.89999e-07 
-5.04622e-15 -2.53709e-15 -1.55734e-14 
-5.04622e-15 -2.53709e-15 -1.55734e-14 
-5.04622e-15 -2.53709e-15 -1.55734e-14 
-5.04622e-15 -2.53709e-15 -1.55734e-14 
5.87827e-15 -3.49873e-16 6.80008e-15 
5.87827e-15 -3.49873e-16 6.80008e-15 
5.87827e-15 -3.49873e-16 6.80008e-15 
5.87827e-15 -3.49873e-16 6.80008e-15 
-0.00812204 -0.037155 0.0991354 
-0.00812204 -0.037155 0.0991354 
-0.00812204 -0.037155 0.0991354 
-0.00812204 -0.037155 0.0991354 
2.24171e-12 -3.66867e-11 -5.69316e-11 
2.24171e-12 -3.66867e-11 -5.69316e-11 
2.24171e-12 -3.66867e-11 -5.69316e-11 
2.24171e-12 -3.66867e-11 -5.69316e-11 
0.00981954 -0.0183711 0.0654612 
0.00981954 -0.0183711 0.0654612 
0.00981954 -0.0183711 0.0654612 
0.00981954 -0.0183711 0.0654612 
0.0187009 0.00999584 0.0654936 
0.0187009 0.00999584 0.0654936 
0.0187009 0.00999584 0.0654936 
0.0187009 0.00999584 0.0654936 
0.00241142 0.0238406 0.0738246 
0.00241142 0.0238406 0.0738246 
0.00241142 0.0238406 0.0738246 
0.00241142 0.0238406 0.0738246 
9.87194e-15 -1.22547e-15 2.91768e-14 
9.87194e-15 -1.22547e-15 2.91768e-14 
9.87194e-15 -1.22547e-15 2.91768e-14 
9.87194e-15 -1.22547e-15 2.91768e-14 
4.88265e-06 2.23527e-06 -6.56013e-07 
4.88265e-06 2.23527e-06 -6.56013e-07 
4.88265e-06 2.23527e-06 -6.56013e-07 
4.88265e-06 2.23527e-06 -6.56013e-07 
9.79434e-06 -1.23337e-05 -1.84379e-06 
9.79434e-06 -1.23337e-05 -1.84379e-06 
9.79434e-06 -1.23337e-05 -1.84379e-06 
9.79434e-06 -1.23337e-05 -1.84379e-06 
3.23917e-15 -7.95737e-15 -8.13912e-15 
3.23917e-15 -7.95737e-15 -8.13912e-15 
3.23917e-15 -7.95737e-15 -8.13912e-15 
3.23917e-15 -7.95737e-15 -8.13912e-15 
-1.69463e-06 -8.76501e-07 -1.96882e-06 
-1.69463e-06 -8.76501e-07 -1.96882e-06 
-1.69463e-06 -8.76501e-07 -1.96882e-06 
-1.69463e-06 -8.76501e-07 -1.96882e-06 
5.5848e-07 1.70816e-06 2.68471e-06 
5.5848e-07 1.70816e-06 2.68471e-06 
5.5848e-07 1.70816e-06 2.68471e-06 
5.5848e-07 1.70816e-06 2.68471e-06 
2.21114e-06 7.85517e-06 1.60709e-05 
2.21114e-06 7.85517e-06 1.60709e-05 
2.21114e-06 7.85517e-06 1.60709e-05 
2.21114e-06 7.85517e-06 1.60709e-05 
-0.00291434 -0.0255585 0.0740467 
-0.00291434 -0.0255585 0.0740467 
-0.00291434 -0.0255585 0.0740467 
-0.00291434 -0.0255585 0.0740467 
0.0218265 -0.00180044 0.0736424 
0.0218265 -0.00180044 0.0736424 
0.0218265 -0.00180044 0.0736424 
0.0218265 -0.00180044 0.0736424 
-3.84029e-15 -9.30234e-16 9.68739e-15 
-3.84029e-15 -9.30234e-16 9.68739e-15 
-3.84029e-15 -9.30234e-16 9.68739e-15 
-3.84029e-15 -9.30234e-16 9.68739e-15 
0.0118607 0.0144523 0.0652764 
0.0118607 0.0144523 0.0652764 
0.0118607 0.0144523 0.0652764 
0.0118607 0.0144523 0.0652764 
-0.00918515 0.0171728 0.0654187 
-0.00918515 0.0171728 0.0654187 
-0.00918515 0.0171728 0.0654187 
-0.00918515 0.0171728 0.0654187 
-2.69531e-09 7.58799e-10 4.29675e-09 
-2.69531e-09 7.58799e-10 4.29675e-09 
-2.69531e-09 7.58799e-10 4.29675e-09 
-2.69531e-09 7.58799e-10 4.29675e-09 
-7.81398e-07 -3.35123e-06 5.41203e-06 
-7.81398e-07 -3.35123e-06 5.41203e-06 
-7.81398e-07 -3.35123e-06 5.41203e-06 
-7.81398e-07 -3.35123e-06 5.41203e-06 
-0.0161162 0.0132285 0.0655669 
-0.0161162 0.0132285 0.0655669 
-0.0161162 0.0132285 0.0655669 
-0.0161162 0.0132285 0.0655669 
-0.0257715 0.00297994 0.0740676 
-0.0257715 0.00297994 0.0740676 
-0.0257715 0.00297994 0.0740676 
-0.0257715 0.00297994 0.0740676 
4.37339e-15 -3.24408e-15 -1.63391e-14 
4.37339e-15 -3.24408e-15 -1.63391e-14 
4.37339e-15 -3.24408e-15 -1.63391e-14 
4.37339e-15 -3.24408e-15 -1.63391e-14 
-3.2592e-06 8.42619e-07 -5.21807e-06 
-3.2592e-06 8.42619e-07 -5.21807e-06 
-3.2592e-06 8.42619e-07 -5.21807e-06 
-3.2592e-06 8.42619e-07 -5.21807e-06 
-0.00745095 0.0439644 0.0996996 
-0.00745095 0.0439644 0.0996996 
-0.00745095 0.0439644 0.0996996 
-0.00745095 0.0439644 0.0996996 
2.74386e-06 -7.82232e-06 1.38591e-05 
2.74386e-06 -7.82232e-06 1.38591e-05 
2.74386e-06 -7.82232e-06 1.38591e-05 
2.74386e-06 -7.82232e-06 1.38591e-05 
-0.0461834 -0.00722571 0.099913 
-0.0461834 -0.00722571 0.099913 
-0.0461834 -0.00722571 0.099913 
-0.0461834 -0.00722571 0.099913 
3.20864e-15 6.21514e-16 1.30838e-15 
3.20864e-15 6.21514e-16 1.30838e-15 
3.20864e-15 6.21514e-16 1.30838e-15 
3.20864e-15 6.21514e-16 1.30838e-15 
-4.25624e-15 6.58349e-16 -1.09943e-14 
-4.25624e-15 6.58349e-16 -1.09943e-14 
-4.25624e-15 6.58349e-16 -1.09943e-14 
-4.25624e-15 6.58349e-16 -1.09943e-14 
1.33521e-15 6.28197e-16 -1.63388e-14 
1.33521e-15 6.28197e-16 -1.63388e-14 
1.33521e-15 6.28197e-16 -1.63388e-14 
1.33521e-15 6.28197e-16 -1.63388e-14 
-2.06974e-15 -2.72595e-16 1.11146e-14 
-2.06974e-15 -2.72595e-16 1.11146e-14 
-2.06974e-15 -2.72595e-16 1.11146e-14 
-2.06974e-15 -2.72595e-16 1.11146e-14 
-1.38434e-05 8.43427e-06 -2.66606e-06 
-1.38434e-05 8.43427e-06 -2.66606e-06 
-1.38434e-05 8.43427e-06 -2.66606e-06 
-1.38434e-05 8.43427e-06 -2.66606e-06 
4.63872e-09 1.70578e-09 -3.72001e-10 
4.63872e-09 1.70578e-09 -3.72001e-10 
4.63872e-09 1.70578e-09 -3.72001e-10 
4.63872e-09 1.70578e-09 -3.72001e-10 
2.40645e-06 -6.93028e-07 -2.78891e-06 
2.40645e-06 -6.93028e-07 -2.78891e-06 
2.40645e-06 -6.93028e-07 -2.78891e-06 
2.40645e-06 -6.93028e-07 -2.78891e-06 
0.018584 -0.0152515 0.0657392 
0.018584 -0.0152515 0.0657392 
0.018584 -0.0152515 0.0657392 
0.018584 -0.0152515 0.0657392 
0.0292594 0.00405519 0.074315 
0.0292594 0.00405519 0.074315 
0.0292594 0.00405519 0.074315 
0.0292594 0.00405519 0.074315 
0.0418444 0.00765975 0.0995237 
0.0418444 0.00765975 0.0995237 
0.0418444 0.00765975 0.0995237 
0.0418444 0.00765975 0.0995237 
-0.0161841 0.0197237 0.0659768 
-0.0161841 0.0197237 0.0659768 
-0.0161841 0.0197237 0.0659768 
-0.0161841 0.0197237 0.0659768 
0.00448647 -0.0306811 0.0744436 
0.00448647 -0.0306811 0.0744436 
0.00448647 -0.0306811 0.0744436 
0.00448647 -0.0306811 0.0744436 
-0.027626 -0.00355972 0.0743067 
-0.027626 -0.00355972 0.0743067 
-0.027626 -0.00355972 0.0743067 
-0.027626 -0.00355972 0.0743067 
-1.3131e-14 -3.61683e-15 6.32409e-15 
-1.3131e-14 -3.61683e-15 6.32409e-15 
-1.3131e-14 -3.61683e-15 6.32409e-15 
-1.3131e-14 -3.61683e-15 6.32409e-15 
-0.00408035 0.0293522 0.074458 
-0.00408035 0.0293522 0.074458 
-0.00408035 0.0293522 0.074458 
-0.00408035 0.0293522 0.074458 
-1.37473e-09 -2.65111e-09 -4.21275e-09 
-1.37473e-09 -2.65111e-09 -4.21275e-09 
-1.37473e-09 -2.65111e-09 -4.21275e-09 
-1.37473e-09 -2.65111e-09 -4.21275e-09 
1.08278e-05 5.29426e-06 -1.62965e-05 
1.08278e-05 5.29426e-06 -1.62965e-05 
1.08278e-05 5.29426e-06 -1.62965e-05 
1.08278e-05 5.29426e-06 -1.62965e-05 
0.0226692 -0.012117 0.0658832 
0.0226692 -0.012117 0.0658832 
0.0226692 -0.012117 0.0658832 
0.0226692 -0.012117 0.0658832 
0.0187833 0.0154151 0.0657615 
0.0187833 0.0154151 0.0657615 
0.0187833 0.0154151 0.0657615 
0.0187833 0.0154151 0.0657615 
-3.24951e-06 3.66722e-06 2.20755e-06 
-3.24951e-06 3.66722e-06 2.20755e-06 
-3.24951e-06 3.66722e-06 2.20755e-06 
-3.24951e-06 3.66722e-06 2.20755e-06 
0.0197981 -0.024124 0.0663598 
0.0197981 -0.024124 0.0663598 
0.0197981 -0.024124 0.0663598 
0.0197981 -0.024124 0.0663598 
-1.23808e-05 -2.44407e-06 -1.99367e-05 
-1.23808e-05 -2.44407e-06 -1.99367e-05 
-1.23808e-05 -2.44407e-06 -1.99367e-05 
-1.23808e-05 -2.44407e-06 -1.99367e-05 
-0.020005 -0.0164176 0.0659162 
-0.020005 -0.0164176 0.0659162 
-0.020005 -0.0164176 0.0659162 
-0.020005 -0.0164176 0.0659162 
-0.0122044 -0.022812 0.0659039 
-0.0122044 -0.022812 0.0659039 
-0.0122044 -0.022812 0.0659039 
-0.0122044 -0.022812 0.0659039 
-1.11784e-07 -3.25139e-06 5.1872e-06 
-1.11784e-07 -3.25139e-06 5.1872e-06 
-1.11784e-07 -3.25139e-06 5.1872e-06 
-1.11784e-07 -3.25139e-06 5.1872e-06 
0.0143644 0.0268738 0.0662961 
0.0143644 0.0268738 0.0662961 
0.0143644 0.0268738 0.0662961 
0.0143644 0.0268738 0.0662961 
1.40684e-16 -1.5654e-14 -8.29063e-15 
1.40684e-16 -1.5654e-14 -8.29063e-15 
1.40684e-16 -1.5654e-14 -8.29063e-15 
1.40684e-16 -1.5654e-14 -8.29063e-15 
1.36331e-15 -1.4394e-14 -5.83013e-15 
1.36331e-15 -1.4394e-14 -5.83013e-15 
1.36331e-15 -1.4394e-14 -5.83013e-15 
1.36331e-15 -1.4394e-14 -5.83013e-15 
9.08952e-15 7.03322e-15 7.04618e-16 
9.08952e-15 7.03322e-15 7.04618e-16 
9.08952e-15 7.03322e-15 7.04618e-16 
9.08952e-15 7.03322e-15 7.04618e-16 
8.23824e-15 9.47703e-15 3.68212e-15 
8.23824e-15 9.47703e-15 3.68212e-15 
8.23824e-15 9.47703e-15 3.68212e-15 
8.23824e-15 9.47703e-15 3.68212e-15 
2.59685e-15 -1.18284e-16 -2.03736e-15 
2.59685e-15 -1.18284e-16 -2.03736e-15 
2.59685e-15 -1.18284e-16 -2.03736e-15 
2.59685e-15 -1.18284e-16 -2.03736e-15 
-1.21283e-15 5.9513e-16 2.39637e-15 
-1.21283e-15 5.9513e-16 2.39637e-15 
-1.21283e-15 5.9513e-16 2.39637e-15 
-1.21283e-15 5.9513e-16 2.39637e-15 
1.22895e-14 1.78236e-16 -4.03594e-15 
1.22895e-14 1.78236e-16 -4.03594e-15 
1.22895e-14 1.78236e-16 -4.03594e-15 
1.22895e-14 1.78236e-16 -4.03594e-15 
9.10637e-15 -3.49205e-15 1.77546e-15 
9.10637e-15 -3.49205e-15 1.77546e-15 
9.10637e-15 -3.49205e-15 1.77546e-15 
9.10637e-15 -3.49205e-15 1.77546e-15 
-1.64894e-14 -1.19868e-14 -1.35212e-14 
-1.64894e-14 -1.19868e-14 -1.35212e-14 
-1.64894e-14 -1.19868e-14 -1.35212e-14 
-1.64894e-14 -1.19868e-14 -1.35212e-14 
1.38667e-15 3.88058e-15 3.9207e-14 
1.38667e-15 3.88058e-15 3.9207e-14 
1.38667e-15 3.88058e-15 3.9207e-14 
1.38667e-15 3.88058e-15 3.9207e-14 
6.13394e-15 3.15076e-15 3.58336e-14 
6.13394e-15 3.15076e-15 3.58336e-14 
6.13394e-15 3.15076e-15 3.58336e-14 
6.13394e-15 3.15076e-15 3.58336e-14 
9.65867e-15 -4.49781e-15 1.22885e-14 
9.65867e-15 -4.49781e-15 1.22885e-14 
9.65867e-15 -4.49781e-15 1.22885e-14 
9.65867e-15 -4.49781e-15 1.22885e-14 
1.00416e-14 -4.15275e-15 1.50176e-15 
1.00416e-14 -4.15275e-15 1.50176e-15 
1.00416e-14 -4.15275e-15 1.50176e-15 
1.00416e-14 -4.15275e-15 1.50176e-15 
8.62998e-15 2.00405e-15 1.07087e-14 
8.62998e-15 2.00405e-15 1.07087e-14 
8.62998e-15 2.00405e-15 1.07087e-14 
8.62998e-15 2.00405e-15 1.07087e-14 
-3.962e-15 -6.40869e-15 5.05499e-15 
-3.962e-15 -6.40869e-15 5.05499e-15 
-3.962e-15 -6.40869e-15 5.05499e-15 
-3.962e-15 -6.40869e-15 5.05499e-15 
-3.42687e-15 -6.97801e-15 5.40205e-15 
-3.42687e-15 -6.97801e-15 5.40205e-15 
-3.42687e-15 -6.97801e-15 5.40205e-15 
-3.42687e-15 -6.97801e-15 5.40205e-15 
-7.91881e-15 -2.18855e-15 2.2809e-15 
-7.91881e-15 -2.18855e-15 2.2809e-15 
-7.91881e-15 -2.18855e-15 2.2809e-15 
-7.91881e-15 -2.18855e-15 2.2809e-15 
-6.88975e-15 -9.63545e-16 2.35765e-16 
-6.88975e-15 -9.63545e-16 2.35765e-16 
-6.88975e-15 -9.63545e-16 2.35765e-16 
-6.88975e-15 -9.63545e-16 2.35765e-16 
-6.95407e-15 -5.29768e-15 1.78433e-14 
-6.95407e-15 -5.29768e-15 1.78433e-14 
-6.95407e-15 -5.29768e-15 1.78433e-14 
-6.95407e-15 -5.29768e-15 1.78433e-14 
-1.05737e-14 -9.60117e-16 9.17838e-15 
-1.05737e-14 -9.60117e-16 9.17838e-15 
-1.05737e-14 -9.60117e-16 9.17838e-15 
-1.05737e-14 -9.60117e-16 9.17838e-15 
7.77082e-15 1.41141e-14 2.57359e-14 
7.77082e-15 1.41141e-14 2.57359e-14 
7.77082e-15 1.41141e-14 2.57359e-14 
7.77082e-15 1.41141e-14 2.57359e-14 
-8.60847e-15 1.30553e-14 -6.41693e-16 
-8.60847e-15 1.30553e-14 -6.41693e-16 
-8.60847e-15 1.30553e-14 -6.41693e-16 
-8.60847e-15 1.30553e-14 -6.41693e-16 
1.08017e-14 -1.06496e-15 -1.33967e-14 
1.08017e-14 -1.06496e-15 -1.33967e-14 
1.08017e-14 -1.06496e-15 -1.33967e-14 
1.08017e-14 -1.06496e-15 -1.33967e-14 
2.98093e-16 5.9642e-18 3.75341e-17 
2.98093e-16 5.9642e-18 3.75341e-17 
2.98093e-16 5.9642e-18 3.75341e-17 
2.98093e-16 5.9642e-18 3.75341e-17 
1.05581e-15 -4.37137e-15 3.65383e-15 
1.05581e-15 -4.37137e-15 3.65383e-15 
1.05581e-15 -4.37137e-15 3.65383e-15 
1.05581e-15 -4.37137e-15 3.65383e-15 
5.83379e-16 -4.4438e-15 4.34758e-15 
5.83379e-16 -4.4438e-15 4.34758e-15 
5.83379e-16 -4.4438e-15 4.34758e-15 
5.83379e-16 -4.4438e-15 4.34758e-15 
-3.8761e-15 -9.63233e-15 2.61739e-16 
-3.8761e-15 -9.63233e-15 2.61739e-16 
-3.8761e-15 -9.63233e-15 2.61739e-16 
-3.8761e-15 -9.63233e-15 2.61739e-16 
-2.86516e-15 5.20668e-15 -1.02351e-14 
-2.86516e-15 5.20668e-15 -1.02351e-14 
-2.86516e-15 5.20668e-15 -1.02351e-14 
-2.86516e-15 5.20668e-15 -1.02351e-14 
3.15543e-15 8.50339e-15 4.32828e-15 
3.15543e-15 8.50339e-15 4.32828e-15 
3.15543e-15 8.50339e-15 4.32828e-15 
3.15543e-15 8.50339e-15 4.32828e-15 
-4.67803e-15 -4.07637e-15 -3.8903e-15 
-4.67803e-15 -4.07637e-15 -3.8903e-15 
-4.67803e-15 -4.07637e-15 -3.8903e-15 
-4.67803e-15 -4.07637e-15 -3.8903e-15 
7.93691e-16 -1.98435e-15 6.95873e-15 
7.93691e-16 -1.98435e-15 6.95873e-15 
7.93691e-16 -1.98435e-15 6.95873e-15 
7.93691e-16 -1.98435e-15 6.95873e-15 
-1.22327e-14 -9.26934e-15 -1.17201e-14 
-1.22327e-14 -9.26934e-15 -1.17201e-14 
-1.22327e-14 -9.26934e-15 -1.17201e-14 
-1.22327e-14 -9.26934e-15 -1.17201e-14 
4.91137e-15 -8.8352e-15 1.40799e-14 
4.91137e-15 -8.8352e-15 1.40799e-14 
4.91137e-15 -8.8352e-15 1.40799e-14 
4.91137e-15 -8.8352e-15 1.40799e-14 
4.76259e-15 -2.87751e-15 8.21373e-15 
4.76259e-15 -2.87751e-15 8.21373e-15 
4.76259e-15 -2.87751e-15 8.21373e-15 
4.76259e-15 -2.87751e-15 8.21373e-15 
4.75891e-16 -2.07233e-15 1.48319e-14 
4.75891e-16 -2.07233e-15 1.48319e-14 
4.75891e-16 -2.07233e-15 1.48319e-14 
4.75891e-16 -2.07233e-15 1.48319e-14 
-2.24419e-15 5.9642e-15 -1.07551e-14 
-2.24419e-15 5.9642e-15 -1.07551e-14 
-2.24419e-15 5.9642e-15 -1.07551e-14 
-2.24419e-15 5.9642e-15 -1.07551e-14 
-7.07382e-15 1.83687e-15 -3.03181e-15 
-7.07382e-15 1.83687e-15 -3.03181e-15 
-7.07382e-15 1.83687e-15 -3.03181e-15 
-7.07382e-15 1.83687e-15 -3.03181e-15 
1.19047e-14 6.316e-15 -2.75694e-16 
1.19047e-14 6.316e-15 -2.75694e-16 
1.19047e-14 6.316e-15 -2.75694e-16 
1.19047e-14 6.316e-15 -2.75694e-16 
4.62242e-15 -2.05845e-15 3.3295e-14 
4.62242e-15 -2.05845e-15 3.3295e-14 
4.62242e-15 -2.05845e-15 3.3295e-14 
4.62242e-15 -2.05845e-15 3.3295e-14 
8.41778e-15 5.3284e-15 9.87726e-15 
8.41778e-15 5.3284e-15 9.87726e-15 
8.41778e-15 5.3284e-15 9.87726e-15 
8.41778e-15 5.3284e-15 9.87726e-15 
1.09132e-14 4.90474e-15 6.61393e-15 
1.09132e-14 4.90474e-15 6.61393e-15 
1.09132e-14 4.90474e-15 6.61393e-15 
1.09132e-14 4.90474e-15 6.61393e-15 
0.00516371 0.0244824 0.0782611 
0.00516371 0.0244824 0.0782611 
0.00516371 0.0244824 0.0782611 
0.00516371 0.0244824 0.0782611 
0.0119808 0.0260719 0.0693083 
0.0119808 0.0260719 0.0693083 
0.0119808 0.0260719 0.0693083 
0.0119808 0.0260719 0.0693083 
4.77481e-15 3.24162e-15 3.41781e-16 
4.77481e-15 3.24162e-15 3.41781e-16 
4.77481e-15 3.24162e-15 3.41781e-16 
4.77481e-15 3.24162e-15 3.41781e-16 
5.81418e-15 -3.85443e-15 5.0157e-15 
5.81418e-15 -3.85443e-15 5.0157e-15 
5.81418e-15 -3.85443e-15 5.0157e-15 
5.81418e-15 -3.85443e-15 5.0157e-15 
1.14967e-15 -1.57776e-15 -2.37079e-15 
1.14967e-15 -1.57776e-15 -2.37079e-15 
1.14967e-15 -1.57776e-15 -2.37079e-15 
1.14967e-15 -1.57776e-15 -2.37079e-15 
4.02178e-15 -4.17601e-15 2.95737e-15 
4.02178e-15 -4.17601e-15 2.95737e-15 
4.02178e-15 -4.17601e-15 2.95737e-15 
4.02178e-15 -4.17601e-15 2.95737e-15 
-3.18861e-16 -1.51399e-14 5.75519e-15 
-3.18861e-16 -1.51399e-14 5.75519e-15 
-3.18861e-16 -1.51399e-14 5.75519e-15 
-3.18861e-16 -1.51399e-14 5.75519e-15 
2.20491e-16 5.29887e-16 9.99201e-15 
2.20491e-16 5.29887e-16 9.99201e-15 
2.20491e-16 5.29887e-16 9.99201e-15 
2.20491e-16 5.29887e-16 9.99201e-15 
5.96458e-15 3.91039e-15 3.59362e-15 
5.96458e-15 3.91039e-15 3.59362e-15 
5.96458e-15 3.91039e-15 3.59362e-15 
5.96458e-15 3.91039e-15 3.59362e-15 
5.88033e-15 4.33357e-15 3.18915e-15 
5.88033e-15 4.33357e-15 3.18915e-15 
5.88033e-15 4.33357e-15 3.18915e-15 
5.88033e-15 4.33357e-15 3.18915e-15 
-6.79669e-15 -4.69671e-16 1.52433e-14 
-6.79669e-15 -4.69671e-16 1.52433e-14 
-6.79669e-15 -4.69671e-16 1.52433e-14 
-6.79669e-15 -4.69671e-16 1.52433e-14 
-6.59248e-16 7.67829e-15 -9.21037e-16 
-6.59248e-16 7.67829e-15 -9.21037e-16 
-6.59248e-16 7.67829e-15 -9.21037e-16 
-6.59248e-16 7.67829e-15 -9.21037e-16 
-5.5944e-15 -7.15333e-15 8.56447e-15 
-5.5944e-15 -7.15333e-15 8.56447e-15 
-5.5944e-15 -7.15333e-15 8.56447e-15 
-5.5944e-15 -7.15333e-15 8.56447e-15 
-5.47346e-15 -6.57281e-15 7.75654e-15 
-5.47346e-15 -6.57281e-15 7.75654e-15 
-5.47346e-15 -6.57281e-15 7.75654e-15 
-5.47346e-15 -6.57281e-15 7.75654e-15 
3.44764e-15 -1.01833e-15 -1.61087e-14 
3.44764e-15 -1.01833e-15 -1.61087e-14 
3.44764e-15 -1.01833e-15 -1.61087e-14 
3.44764e-15 -1.01833e-15 -1.61087e-14 
-4.01353e-15 4.3936e-15 -2.28651e-15 
-4.01353e-15 4.3936e-15 -2.28651e-15 
-4.01353e-15 4.3936e-15 -2.28651e-15 
-4.01353e-15 4.3936e-15 -2.28651e-15 
9.87265e-16 5.18486e-16 9.12016e-15 
9.87265e-16 5.18486e-16 9.12016e-15 
9.87265e-16 5.18486e-16 9.12016e-15 
9.87265e-16 5.18486e-16 9.12016e-15 
2.43559e-15 5.31433e-15 1.19806e-15 
2.43559e-15 5.31433e-15 1.19806e-15 
2.43559e-15 5.31433e-15 1.19806e-15 
2.43559e-15 5.31433e-15 1.19806e-15 
-1.10308e-14 -3.23436e-15 7.31741e-15 
-1.10308e-14 -3.23436e-15 7.31741e-15 
-1.10308e-14 -3.23436e-15 7.31741e-15 
-1.10308e-14 -3.23436e-15 7.31741e-15 
-1.02522e-15 6.14487e-15 -2.69971e-15 
-1.02522e-15 6.14487e-15 -2.69971e-15 
-1.02522e-15 6.14487e-15 -2.69971e-15 
-1.02522e-15 6.14487e-15 -2.69971e-15 
